!
#	Hz	S	RI	R	50
0	0.056234	7.887669e-20	2.7851e-07	3.399142e-23	0.047014	1.128665e-20	-2.8165e-07	3.449218e-23	
2.7851e-07	3.399142e-23	0.056023	8.556408e-20	3.3535e-07	2.63834e-23	0.04695	1.137454e-20	
0.047014	1.128665e-20	3.3535e-07	2.63834e-23	0.056403	4.02499e-20	2.0862e-07	2.036871e-23	
-2.8165e-07	3.449218e-23	0.04695	1.137454e-20	2.0862e-07	2.036871e-23	0.055593	1.640745e-19	

2e+07	0.0712011	0.005910475	1.073548e-05	1.598331e-05	0.05932209	0.07319396	6.741629e-06	8.124081e-06	
1.073548e-05	1.598331e-05	0.07131694	0.00579503	9.896706e-06	1.431988e-05	0.05974592	0.07342303	
0.05932209	0.07319396	9.896706e-06	1.431988e-05	0.07119161	0.005928078	5.589449e-06	5.798566e-06	
6.741629e-06	8.124081e-06	0.05974592	0.07342303	5.589449e-06	5.798566e-06	0.07133521	0.005902677	

4e+07	0.08138654	-0.0288061	2.166931e-05	2.134275e-05	0.1426174	0.04553421	1.19811e-05	9.10305e-06	
2.166931e-05	2.134275e-05	0.0813109	-0.02917918	1.906373e-05	1.902385e-05	0.1431703	0.04511396	
0.1426174	0.04553421	1.906373e-05	1.902385e-05	0.08154882	-0.02878508	8.715021e-06	5.62377e-06	
1.19811e-05	9.10305e-06	0.1431703	0.04511396	8.715021e-06	5.62377e-06	0.08200168	-0.02941253	

6e+07	0.04969358	-0.06000949	3.177125e-05	2.691921e-05	0.1422387	-0.03938213	1.518229e-05	1.158089e-05	
3.177125e-05	2.691921e-05	0.04919168	-0.06037517	2.70309e-05	2.470684e-05	0.1418211	-0.04002174	
0.1422387	-0.03938213	2.70309e-05	2.470684e-05	0.05005961	-0.06033994	9.210797e-06	7.866764e-06	
1.518229e-05	1.158089e-05	0.1418211	-0.04002174	9.210797e-06	7.866764e-06	0.04932464	-0.05988879	

8e+07	0.004400318	-0.04942149	5.130456e-05	3.379317e-05	0.06373471	-0.06437869	2.382034e-05	1.7128e-05	
5.130456e-05	3.379317e-05	0.003588867	-0.04934266	4.363245e-05	3.265669e-05	0.06274429	-0.06365765	
0.06373471	-0.06437869	4.363245e-05	3.265669e-05	0.004532447	-0.0502992	1.435366e-05	1.441844e-05	
2.382034e-05	1.7128e-05	0.06274429	-0.06365765	1.435366e-05	1.441844e-05	0.004191779	-0.0485564	

1e+08	-0.007432426	-0.008179594	8.508733e-05	2.573152e-05	0.01834843	0.00142907	4.369251e-05	1.527608e-05	
8.508733e-05	2.573152e-05	-0.008008866	-0.007616086	7.423061e-05	2.815013e-05	0.01894285	0.003385493	
0.01834843	0.00142907	7.423061e-05	2.815013e-05	-0.008048784	-0.009145631	3.057757e-05	1.606312e-05	
4.369251e-05	1.527608e-05	0.01894285	0.003385493	3.057757e-05	1.606312e-05	-0.006589023	-0.006984771	

1.2e+08	0.01955803	0.008815589	0.0001081666	-1.144092e-05	0.07349661	0.04765088	5.796778e-05	-7.624089e-06	
0.0001081666	-1.144092e-05	0.0190512	0.009424794	9.648348e-05	-3.060097e-06	0.07564433	0.04804981	
0.07349661	0.04765088	9.648348e-05	-3.060097e-06	0.01850229	0.008648997	4.337766e-05	-1.07596e-06	
5.796778e-05	-7.624089e-06	0.07564433	0.04804981	4.337766e-05	-1.07596e-06	0.0210779	0.00924685	

1.4e+08	0.03397391	-0.0007857484	0.0001086794	-5.167686e-05	0.1196009	0.02989302	5.590809e-05	-3.179765e-05	
0.0001086794	-5.167686e-05	0.03353597	4.271384e-05	9.892221e-05	-3.712725e-05	0.1213796	0.02854087	
0.1196009	0.02989302	9.892221e-05	-3.712725e-05	0.03332694	-0.0002662162	4.228222e-05	-1.909737e-05	
5.590809e-05	-3.179765e-05	0.1213796	0.02854087	4.228222e-05	-1.909737e-05	0.03547552	-0.0009411651	

1.6e+08	0.0354129	-0.02448267	8.747994e-05	-8.687741e-05	0.1380672	-0.0349415	3.87146e-05	-5.04429e-05	
8.747994e-05	-8.687741e-05	0.03488377	-0.02371945	8.235331e-05	-6.662655e-05	0.1373591	-0.0373248	
0.1380672	-0.0349415	8.235331e-05	-6.662655e-05	0.03573161	-0.02401155	2.846089e-05	-3.171238e-05	
3.87146e-05	-5.04429e-05	0.1373591	-0.0373248	2.846089e-05	-3.171238e-05	0.03633826	-0.02493913	

1.8e+08	0.007870244	-0.0234917	6.972647e-05	-0.0001025147	0.07041312	-0.0605114	2.724844e-05	-5.274319e-05	
6.972647e-05	-0.0001025147	0.007443942	-0.02208734	7.113011e-05	-7.825324e-05	0.06842415	-0.06019889	
0.07041312	-0.0605114	7.113011e-05	-7.825324e-05	0.008329233	-0.02381653	2.236673e-05	-2.900712e-05	
2.724844e-05	-5.274319e-05	0.06842415	-0.06019889	2.236673e-05	-2.900712e-05	0.00898626	-0.02322084	

2e+08	-0.002436099	0.006336336	6.079311e-05	-0.0001231299	0.0247484	-0.004027651	2.604969e-05	-5.880662e-05	
6.079311e-05	-0.0001231299	-0.001992876	0.008300928	7.006212e-05	-9.655977e-05	0.02540969	-0.001567567	
0.0247484	-0.004027651	7.006212e-05	-9.655977e-05	-0.002756825	0.005808476	2.825973e-05	-3.150594e-05	
2.604969e-05	-5.880662e-05	0.02540969	-0.001567567	2.825973e-05	-3.150594e-05	0.0001224664	0.00669468	

2.2e+08	0.02093862	0.0292155	4.10679e-05	-0.0001607056	0.06355285	0.05596042	2.125269e-05	-7.99184e-05	
4.10679e-05	-0.0001607056	0.02250423	0.03084517	5.991929e-05	-0.0001334448	0.06740411	0.05614902	
0.06355285	0.05596042	5.991929e-05	-0.0001334448	0.02022028	0.02966517	3.234392e-05	-5.063317e-05	
2.125269e-05	-7.99184e-05	0.06740411	0.05614902	3.234392e-05	-5.063317e-05	0.02464679	0.0279809	

2.4e+08	0.04918656	0.0203838	-1.216767e-05	-0.0001964636	0.1291968	0.03884448	-7.887811e-06	-0.0001047334	
-1.216767e-05	-0.0001964636	0.05124983	0.02115401	1.825425e-05	-0.0001719739	0.1318829	0.03496812	
0.1291968	0.03884448	1.825425e-05	-0.0001719739	0.04945167	0.02184069	1.398274e-05	-7.651688e-05	
-7.887811e-06	-0.0001047334	0.1318829	0.03496812	1.398274e-05	-7.651688e-05	0.0523773	0.017238	

2.6e+08	0.04755569	-0.001520835	-8.758978e-05	-0.0001910483	0.1218357	-0.0237553	-5.535649e-05	-9.921135e-05	
-8.758978e-05	-0.0001910483	0.04963414	-0.001038387	-4.573983e-05	-0.0001745981	0.1203206	-0.02730525	
0.1218357	-0.0237553	-4.573983e-05	-0.0001745981	0.04936817	-0.0004252715	-2.258405e-05	-7.648753e-05	
-5.535649e-05	-9.921135e-05	0.1203206	-0.02730525	-2.258405e-05	-7.648753e-05	0.0494316	-0.005060916	

2.8e+08	0.03803261	-0.01125494	-0.0001518177	-0.0001563904	0.07978713	-0.05115363	-9.179995e-05	-7.281193e-05	
-0.0001518177	-0.0001563904	0.04005973	-0.01132217	-0.0001007882	-0.0001522166	0.07600258	-0.05182795	
0.07978713	-0.05115363	-0.0001007882	-0.0001522166	0.04066241	-0.01146569	-4.947269e-05	-5.927372e-05	
-9.179995e-05	-7.281193e-05	0.07600258	-0.05182795	-4.947269e-05	-5.927372e-05	0.03902882	-0.01468474	

3e+08	0.02604771	0.0008320981	-0.0001819741	-0.0001004137	0.03327118	-0.01156542	-9.983578e-05	-3.54714e-05	
-0.0001819741	-0.0001004137	0.02830893	0.0006760354	-0.0001263007	-0.0001128465	0.03213608	-0.008681209	
0.03327118	-0.01156542	-0.0001263007	-0.0001128465	0.02800082	-0.0006342539	-5.109294e-05	-3.540482e-05	
-9.983578e-05	-3.54714e-05	0.03213608	-0.008681209	-5.109294e-05	-3.540482e-05	0.02745441	-0.002169532	

3.2e+08	0.04220398	0.0172257	-0.0001902881	-6.511306e-05	0.062064	0.04663794	-9.407685e-05	-1.979081e-05	
-0.0001902881	-6.511306e-05	0.04508757	0.01612416	-0.0001362862	-9.468613e-05	0.06526381	0.04729348	
0.062064	0.04663794	-0.0001362862	-9.468613e-05	0.04331861	0.01605757	-4.439494e-05	-3.457296e-05	
-9.407685e-05	-1.979081e-05	0.06526381	0.04729348	-4.439494e-05	-3.457296e-05	0.0442753	0.0128129	

3.4e+08	0.06805085	0.007672455	-0.0002152727	-4.09876e-05	0.1260426	0.0382202	-0.0001051147	-1.58971e-05	
-0.0002152727	-4.09876e-05	0.07072546	0.005084677	-0.0001662045	-8.622583e-05	0.1281682	0.03368169	
0.1260426	0.0382202	-0.0001662045	-8.622583e-05	0.06978788	0.007303477	-5.759539e-05	-4.449872e-05	
-0.0001051147	-1.58971e-05	0.1281682	0.03368169	-5.759539e-05	-4.449872e-05	0.06890214	0.001278478	

3.6e+08	0.07461197	-0.02032197	-0.0002585717	1.13347e-05	0.1401153	-0.02318137	-0.0001355424	8.028963e-06	
-0.0002585717	1.13347e-05	0.07612418	-0.02411	-0.0002173418	-5.097705e-05	0.136503	-0.02866369	
0.1401153	-0.02318137	-0.0002173418	-5.097705e-05	0.07795184	-0.02128281	-9.249465e-05	-3.585774e-05	
-0.0001355424	8.028963e-06	0.136503	-0.02866369	-9.249465e-05	-3.585774e-05	0.07285277	-0.02727477	

3.8e+08	0.05724352	-0.03915731	-0.0002728926	0.0001118102	0.08899777	-0.05273802	-0.0001469263	7.074243e-05	
-0.0002728926	0.0001118102	0.05718489	-0.04318117	-0.0002470952	3.169746e-05	0.08238978	-0.05301725	
0.08899777	-0.05273802	-0.0002470952	3.169746e-05	0.06115929	-0.04233291	-0.0001146562	1.043453e-05	
-0.0001469263	7.074243e-05	0.08238978	-0.05301725	-0.0001146562	1.043453e-05	0.05332833	-0.04464162	

4e+08	0.04195965	-0.03284974	-0.0002176209	0.00020731	0.05282557	-0.01780035	-0.0001065427	0.0001277405	
-0.0002176209	0.00020731	0.04108202	-0.03657318	-0.0002157692	0.0001150165	0.04964998	-0.01404766	
0.05282557	-0.01780035	-0.0002157692	0.0001150165	0.04440083	-0.03782951	-9.244635e-05	5.49998e-05	
-0.0001065427	0.0001277405	0.04964998	-0.01404766	-9.244635e-05	5.49998e-05	0.03806473	-0.03666764	

4.2e+08	0.03941497	-0.02037757	-0.0001254662	0.0002606996	0.05997394	0.03434323	-4.342339e-05	0.0001505425	
-0.0001254662	0.0002606996	0.03814765	-0.02354943	-0.0001519181	0.0001647474	0.06237948	0.03765198	
0.05997394	0.03434323	-0.0001519181	0.0001647474	0.03976034	-0.02553353	-5.17677e-05	7.169852e-05	
-4.342339e-05	0.0001505425	0.06237948	0.03765198	-5.17677e-05	7.169852e-05	0.03632722	-0.02352272	

4.4e+08	0.05504496	-0.022716	-5.629568e-05	0.0002564743	0.1169422	0.0363451	-6.159366e-06	0.0001331776	
-5.629568e-05	0.0002564743	0.0532409	-0.0262197	-0.0001101395	0.0001668451	0.1194792	0.03380695	
0.1169422	0.0363451	-0.0001101395	0.0001668451	0.05476986	-0.02657119	-3.741146e-05	5.654399e-05	
-6.159366e-06	0.0001331776	0.1194792	0.03380695	-3.741146e-05	5.654399e-05	0.05146487	-0.02680918	

4.6e+08	0.05856933	-0.04514355	-2.431955e-05	0.0002615116	0.1373187	-0.01850521	4.594067e-07	0.0001290292	
-2.431955e-05	0.0002615116	0.0552413	-0.04883901	-0.0001018489	0.0001833627	0.1336879	-0.02275109	
0.1373187	-0.01850521	-0.0001018489	0.0001833627	0.05928367	-0.04884189	-5.101009e-05	5.940949e-05	
4.594067e-07	0.0001290292	0.1336879	-0.02275109	-5.101009e-05	5.940949e-05	0.0526912	-0.04898254	

4.8e+08	0.03839346	-0.06320826	2.360171e-05	0.000301638	0.0931318	-0.05653823	1.768496e-05	0.0001567757	
2.360171e-05	0.000301638	0.03300375	-0.06578647	-7.797851e-05	0.0002387166	0.08529701	-0.05488593	
0.0931318	-0.05653823	-7.797851e-05	0.0002387166	0.03932289	-0.06865052	-5.453153e-05	9.709461e-05	
1.768496e-05	0.0001567757	0.08529701	-0.05488593	-5.453153e-05	9.709461e-05	0.03057507	-0.06429536	

5e+08	0.01169436	-0.05658929	0.0001345795	0.0003293661	0.04334091	-0.02787674	8.45932e-05	0.0001807103	
0.0001345795	0.0003293661	0.005461081	-0.05650873	8.819894e-06	0.0002920168	0.03977361	-0.01949178	
0.04334091	-0.02787674	8.819894e-06	0.0002920168	0.01047869	-0.06360664	-9.197969e-06	0.0001395873	
8.45932e-05	0.0001807103	0.03977361	-0.01949178	-9.197969e-06	0.0001395873	0.004853097	-0.05381562	

5.2e+08	0.006912722	-0.0356459	0.0002642669	0.0002649597	0.06146736	0.02424734	0.0001669084	0.0001348561	
0.0002642669	0.0002649597	0.001589717	-0.03364747	0.0001243062	0.0002644516	0.06532784	0.03024383	
0.06146736	0.02424734	0.0001243062	0.0002644516	0.00272178	-0.04167121	5.922422e-05	0.0001218051	
0.0001669084	0.0001348561	0.06532784	0.03024383	5.922422e-05	0.0001218051	0.003184211	-0.03167234	

5.4e+08	0.01659122	-0.02837201	0.0003283331	0.0001536348	0.103638	0.02840464	0.0001969294	5.921656e-05	
0.0003283331	0.0001536348	0.0122876	-0.02539662	0.0001869626	0.0001924594	0.108425	0.0287423	
0.103638	0.02840464	0.0001869626	0.0001924594	0.01150362	-0.03179919	8.506768e-05	7.69239e-05	
0.0001969294	5.921656e-05	0.108425	0.0287423	8.506768e-05	7.69239e-05	0.01442898	-0.02508872	

5.6e+08	0.02772618	-0.0361609	0.0003280654	4.053364e-05	0.1356697	-0.01016534	0.0001805688	-1.008177e-05	
0.0003280654	4.053364e-05	0.02400513	-0.03340052	0.0001962471	0.0001179591	0.1353658	-0.0140207	
0.1356697	-0.01016534	0.0001962471	0.0001179591	0.02382475	-0.03766665	7.309007e-05	3.893798e-05	
0.0001805688	-1.008177e-05	0.1353658	-0.0140207	7.309007e-05	3.893798e-05	0.02539782	-0.03383163	

5.8e+08	0.01568991	-0.04891527	0.0003094307	-1.592037e-05	0.1021815	-0.05063665	0.0001578477	-3.180475e-05	
0.0003094307	-1.592037e-05	0.01154317	-0.04509816	0.0001959965	9.655699e-05	0.09686821	-0.04933978	
0.1021815	-0.05063665	0.0001959965	9.655699e-05	0.01298265	-0.05089215	6.265477e-05	4.658585e-05	
0.0001578477	-3.180475e-05	0.09686821	-0.04933978	6.265477e-05	4.658585e-05	0.01274736	-0.04475293	

6e+08	-0.005880397	-0.04095904	0.0003252494	-6.44837e-05	0.05277667	-0.03107171	0.0001681834	-4.660028e-05	
0.0003252494	-6.44837e-05	-0.009253969	-0.03463298	0.000238195	7.996713e-05	0.05157277	-0.02248444	
0.05277667	-0.03107171	0.000238195	7.996713e-05	-0.009672551	-0.04381095	9.219323e-05	5.865442e-05	
0.0001681834	-4.660028e-05	0.05157277	-0.02248444	9.219323e-05	5.865442e-05	-0.006496343	-0.03376677	

6.2e+08	-0.009443779	-0.01565513	0.0003462155	-0.0001660124	0.05672773	0.0225598	0.0001894534	-0.0001038302	
0.0003462155	-0.0001660124	-0.009649638	-0.007800189	0.0002963615	5.888096e-06	0.06483411	0.02960129	
0.05672773	0.0225598	0.0002963615	5.888096e-06	-0.01532176	-0.01697479	0.0001415185	2.49441e-05	
0.0001894534	-0.0001038302	0.06483411	0.02960129	0.0001415185	2.49441e-05	-0.005045622	-0.008397325	

6.4e+08	0.009922328	-0.001438086	0.0002940452	-0.0003043332	0.1089672	0.0347696	0.0001569217	-0.0001931885	
0.0002940452	-0.0003043332	0.01280747	0.005290106	0.0002915336	-0.0001169594	0.1190207	0.0325068	
0.1089672	0.0347696	0.0002915336	-0.0001169594	0.004152824	0.0007374875	0.0001453531	-5.042112e-05	
0.0001569217	-0.0001931885	0.1190207	0.0325068	0.0001453531	-5.042112e-05	0.01738986	0.002172186	

6.6e+08	0.02483306	-0.01185114	0.0001602205	-0.0003869403	0.1332651	-0.01217404	6.367094e-05	-0.0002382385	
0.0001602205	-0.0003869403	0.02882855	-0.006642877	0.0002077684	-0.0001986449	0.1356298	-0.01845769	
0.1332651	-0.01217404	0.0002077684	-0.0001986449	0.02202437	-0.007411592	9.048743e-05	-9.236079e-05	
6.367094e-05	-0.0002382385	0.1356298	-0.01845769	9.048743e-05	-9.236079e-05	0.03169298	-0.01110431	

6.8e+08	0.02535302	-0.02399277	2.605383e-05	-0.0004005035	0.1120777	-0.04799028	-2.136798e-05	-0.000231526	
2.605383e-05	-0.0004005035	0.02983938	-0.02040316	0.0001236983	-0.0002235255	0.1089379	-0.05087034	
0.1120777	-0.04799028	0.0001236983	-0.0002235255	0.02557358	-0.01998459	4.518101e-05	-9.148113e-05	
-2.136798e-05	-0.000231526	0.1089379	-0.05087034	4.518101e-05	-9.148113e-05	0.03141367	-0.024288	

7e+08	0.01136899	-0.02872066	-7.718841e-05	-0.000358525	0.06646658	-0.04520287	-7.518558e-05	-0.000190188	
-7.718841e-05	-0.000358525	0.01549897	-0.0251627	6.864909e-05	-0.0002073935	0.06471304	-0.04078669	
0.06646658	-0.04520287	6.864909e-05	-0.0002073935	0.0126186	-0.02665391	3.123524e-05	-6.839075e-05	
-7.518558e-05	-0.000190188	0.06471304	-0.04078669	3.123524e-05	-6.839075e-05	0.01766959	-0.02811212	

7.2e+08	0.007279272	-0.01249299	-0.0001308921	-0.0003290844	0.06047875	0.001217534	-9.094536e-05	-0.0001688333	
-0.0001308921	-0.0003290844	0.01343343	-0.009077686	5.388605e-05	-0.000217288	0.06748178	0.005162941	
0.06047875	0.001217534	5.388605e-05	-0.000217288	0.007680371	-0.01057035	4.7697e-05	-7.753946e-05	
-9.094536e-05	-0.0001688333	0.06748178	0.005162941	4.7697e-05	-7.753946e-05	0.0168778	-0.01300001	

7.4e+08	0.02479311	-0.00232622	-0.0002036241	-0.0003280285	0.1051465	0.01894726	-0.0001256074	-0.0001766815	
-0.0002036241	-0.0003280285	0.03303949	-0.001574805	9.403238e-06	-0.0002634723	0.1146179	0.01323944	
0.1051465	0.01894726	9.403238e-06	-0.0002634723	0.02589057	0.00160068	3.592869e-05	-0.0001220516	
-0.0001256074	-0.0001766815	0.1146179	0.01323944	3.592869e-05	-0.0001220516	0.03602632	-0.007676034	

7.6e+08	0.04349619	-0.0152134	-0.0003250096	-0.000293978	0.1374999	-0.02016054	-0.0002030852	-0.000161657	
-0.0003250096	-0.000293978	0.05135745	-0.01823304	-9.410156e-05	-0.0002840379	0.1385724	-0.03218054	
0.1374999	-0.02016054	-9.410156e-05	-0.0002840379	0.04811465	-0.01032016	-2.681948e-05	-0.0001490564	
-0.0002030852	-0.000161657	0.1385724	-0.03218054	-2.681948e-05	-0.0001490564	0.05211811	-0.02524652	

7.8e+08	0.04181406	-0.03803053	-0.000438578	-0.0001728489	0.1115101	-0.06471817	-0.0002748662	-7.949197e-05	
-0.000438578	-0.0001728489	0.04719655	-0.04348467	-0.0002037693	-0.0002240181	0.1039578	-0.07161929	
0.1115101	-0.06471817	-0.0002037693	-0.0002240181	0.0502509	-0.0354573	-9.409159e-05	-0.0001136564	
-0.0002748662	-7.949197e-05	0.1039578	-0.07161929	-9.409159e-05	-0.0001136564	0.04612164	-0.04924013	

8e+08	0.0234517	-0.04505606	-0.0004632752	-2.102291e-06	0.06488297	-0.05884054	-0.0002777811	3.346764e-05	
-0.0004632752	-2.102291e-06	0.02662832	-0.0506679	-0.0002426637	-0.0001170993	0.05881499	-0.05722304	
0.06488297	-0.05884054	-0.0002426637	-0.0001170993	0.03280596	-0.04664354	-0.0001056521	-5.1006e-05	
-0.0002777811	3.346764e-05	0.05881499	-0.05722304	-0.0001056521	-5.1006e-05	0.02589264	-0.05469475	

8.2e+08	0.009620893	-0.03828258	-0.000410925	0.0001426169	0.04662376	-0.02171823	-0.0002281626	0.0001182177	
-0.000410925	0.0001426169	0.01145474	-0.0430108	-0.0002239259	-3.17099e-05	0.0479143	-0.01766227	
0.04662376	-0.02171823	-0.0002239259	-3.17099e-05	0.01745903	-0.04266281	-8.07704e-05	-1.476586e-05	
-0.0002281626	0.0001182177	0.0479143	-0.01766227	-8.07704e-05	-1.476586e-05	0.01222778	-0.0470273	

8.4e+08	0.01330493	-0.02559998	-0.0003292565	0.0002135767	0.07654578	0.004813841	-0.0001698863	0.0001445335	
-0.0003292565	0.0002135767	0.01566625	-0.03065146	-0.0001927848	-6.058507e-06	0.08198618	0.001449682	
0.07654578	0.004813841	-0.0001927848	-6.058507e-06	0.01972827	-0.02994793	-6.289137e-05	-2.581928e-05	
-0.0001698863	0.0001445335	0.08198618	0.001449682	-6.289137e-05	-2.581928e-05	0.01664235	-0.03648455	

8.6e+08	0.02534302	-0.0319337	-0.0002949659	0.0002569528	0.1085303	-0.02165695	-0.000156422	0.0001570237	
-0.0002949659	0.0002569528	0.02637143	-0.03924335	-0.0002145969	7.268899e-06	0.1065469	-0.03165572	
0.1085303	-0.02165695	-0.0002145969	7.268899e-06	0.0332085	-0.03619757	-9.435461e-05	-3.686323e-05	
-0.000156422	0.0001570237	0.1065469	-0.03165572	-9.435461e-05	-3.686323e-05	0.02546387	-0.0459078	

8.8e+08	0.02048618	-0.05030775	-0.0002702762	0.0003508341	0.08956943	-0.06385388	-0.0001520257	0.0002152708	
-0.0002702762	0.0003508341	0.01764489	-0.05840586	-0.0002521672	8.008905e-05	0.07762676	-0.06880406	
0.08956943	-0.06385388	-0.0002521672	8.008905e-05	0.03040753	-0.05756094	-0.0001388993	5.020382e-06	
-0.0001520257	0.0002152708	0.07762676	-0.06880406	-0.0001388993	5.020382e-06	0.01508857	-0.06363564	

9e+08	-0.003148732	-0.05642521	-0.0001663901	0.0004778072	0.03850094	-0.06209808	-8.579191e-05	0.0003015743	
-0.0001663901	0.0004778072	-0.00972639	-0.06187824	-0.0002216287	0.0002013133	0.02704626	-0.05535493	
0.03850094	-0.06209808	-0.0002216287	0.0002013133	0.005772928	-0.06866174	-0.0001299799	8.658756e-05	
-8.579191e-05	0.0003015743	0.02704626	-0.05535493	-0.0001299799	8.658756e-05	-0.01163971	-0.0650163	

9.2e+08	-0.0224166	-0.03909412	3.142264e-05	0.0005268838	0.0211506	-0.01367247	4.952861e-05	0.0003256855	
3.142264e-05	0.0005268838	-0.02949341	-0.04050493	-0.0001000855	0.0002696978	0.02035236	-0.003717001	
0.0211506	-0.01367247	-0.0001000855	0.0002696978	-0.01801522	-0.05437746	-5.472585e-05	0.0001247873	
4.952861e-05	0.0003256855	0.02035236	-0.003717001	-5.472585e-05	0.0001247873	-0.0292096	-0.04355052	

9.4e+08	-0.02020475	-0.01749573	0.0002079813	0.0004595578	0.04749823	0.01634846	0.000158569	0.000266806	
0.0002079813	0.0004595578	-0.02550875	-0.0168327	1.024245e-05	0.0002447858	0.05215936	0.01982807	
0.04749823	0.01634846	1.024245e-05	0.0002447858	-0.02000452	-0.03191468	3.314734e-07	9.891644e-05	
0.000158569	0.000266806	0.05215936	0.01982807	3.314734e-07	9.891644e-05	-0.0245882	-0.02191498	

9.6e+08	-0.006074489	-0.0071098	0.0003090521	0.0003360563	0.08406258	0.01004826	0.0002069678	0.0001771048	
0.0003090521	0.0003360563	-0.00972685	-0.006902298	6.095012e-05	0.0001798213	0.08527357	0.005626643	
0.08406258	0.01004826	6.095012e-05	0.0001798213	-0.00734188	-0.01953275	7.027866e-06	5.689257e-05	
0.0002069678	0.0001771048	0.08527357	0.005626643	7.027866e-06	5.689257e-05	-0.01039321	-0.01337955	

9.8e+08	-0.0002257236	-0.0141642	0.0003383531	0.000251439	0.08047198	-0.02410601	0.0002078879	0.0001291523	
0.0003383531	0.000251439	-0.00521388	-0.01434059	5.71575e-05	0.0001609524	0.07258727	-0.02565319	
0.08047198	-0.02410601	5.71575e-05	0.0001609524	-0.001036794	-0.02691504	-1.821745e-05	6.365757e-05	
0.0002078879	0.0001291523	0.07258727	-0.02565319	-1.821745e-05	6.365757e-05	-0.007808835	-0.01981374	

1e+09	-0.01233044	-0.01514018	0.0003947378	0.000209506	0.04052799	-0.02538178	0.0002394212	0.0001160863	
0.0003947378	0.000209506	-0.01891796	-0.01235129	9.299588e-05	0.0001914154	0.03296809	-0.01550939	
0.04052799	-0.02538178	9.299588e-05	0.0001914154	-0.01509583	-0.03042369	-1.42025e-06	0.0001098108	
0.0002394212	0.0001160863	0.03296809	-0.01550939	-1.42025e-06	0.0001098108	-0.02116191	-0.01580235	

1.02e+09	-0.02199958	0.004933617	0.0004997657	0.0001161704	0.02304357	0.0198143	0.0003134093	6.110227e-05	
0.0004997657	0.0001161704	-0.02638461	0.0119242	0.0001966807	0.0001804522	0.02759692	0.03412317	
0.02304357	0.0198143	0.0001966807	0.0001804522	-0.0300188	-0.01080152	7.344864e-05	0.0001209444	
0.0003134093	6.110227e-05	0.02759692	0.03412317	7.344864e-05	0.0001209444	-0.02659897	0.008591232	

1.04e+09	-0.008672903	0.03079293	0.0005565924	-7.497927e-05	0.05874727	0.05829784	0.0003494194	-6.947848e-05	
0.0005565924	-7.497927e-05	-0.008147385	0.03869558	0.0002798234	7.042698e-05	0.07221466	0.06316574	
0.05874727	0.05829784	0.0002798234	7.042698e-05	-0.02139461	0.01896166	0.0001317275	5.466569e-05	
0.0003494194	-6.947848e-05	0.07221466	0.06316574	0.0001317275	5.466569e-05	-0.007718655	0.03324779	

1.06e+09	0.0192282	0.03717909	0.0004823508	-0.0002755522	0.1053413	0.04310698	0.0002857611	-0.000199691	
0.0004823508	-0.0002755522	0.02284989	0.04272222	0.0002533114	-6.242554e-05	0.1132763	0.03755688	
0.1053413	0.04310698	0.0002533114	-6.242554e-05	0.005938044	0.03086193	0.0001064408	-2.093494e-05	
0.0002857611	-0.000199691	0.1132763	0.03755688	0.0001064408	-2.093494e-05	0.02133978	0.03568161	

1.08e+09	0.03939681	0.02768238	0.0003448799	-0.000394717	0.1136403	0.01129253	0.0001865192	-0.0002620606	
0.0003448799	-0.000394717	0.04368146	0.03016534	0.0001780163	-0.0001285689	0.1132155	0.006105571	
0.1136403	0.01129253	0.0001780163	-0.0001285689	0.0281688	0.02417771	5.896546e-05	-3.927305e-05	
0.0001865192	-0.0002620606	0.1132155	0.006105571	5.896546e-05	-3.927305e-05	0.03980233	0.02428686	

1.1e+09	0.04487028	0.01251535	0.0002003058	-0.0004300273	0.09102816	-0.006373292	9.556493e-05	-0.0002655581	
0.0002003058	-0.0004300273	0.04709434	0.01400274	0.0001079372	-0.000128425	0.08745509	-0.003237555	
0.09102816	-0.006373292	0.0001079372	-0.000128425	0.03473743	0.009152735	3.182324e-05	-1.40802e-05	
9.556493e-05	-0.0002655581	0.08745509	-0.003237555	3.182324e-05	-1.40802e-05	0.04303752	0.01067223	

1.12e+09	0.04331246	0.01388943	0.0001182149	-0.0004387327	0.07544935	0.02055429	5.753245e-05	-0.0002621306	
0.0001182149	-0.0004387327	0.04622229	0.01693509	0.0001067892	-0.000122152	0.08136321	0.02822862	
0.07544935	0.02055429	0.0001067892	-0.000122152	0.03123346	0.01135941	6.269812e-05	-1.45479e-06	
5.753245e-05	-0.0002621306	0.08136321	0.02822862	6.269812e-05	-1.45479e-06	0.04413038	0.01462293	

1.14e+09	0.05772561	0.02238797	3.885292e-05	-0.0004890892	0.1063444	0.04935667	1.698466e-05	-0.0002994788	
3.885292e-05	-0.0004890892	0.06397262	0.02457088	0.0001102841	-0.0001788514	0.1206168	0.0478189	
0.1063444	0.04935667	0.0001102841	-0.0001788514	0.04407834	0.0243687	9.026427e-05	-4.818448e-05	
1.698466e-05	-0.0002994788	0.1206168	0.0478189	9.026427e-05	-4.818448e-05	0.06293447	0.02084893	

1.16e+09	0.08487949	0.01509336	-0.0001102048	-0.0005368758	0.1536901	0.03231195	-8.109581e-05	-0.0003352099	
-0.0001102048	-0.0005368758	0.09283442	0.01304157	3.957759e-05	-0.0002550374	0.1624627	0.01865305	
0.1536901	0.03231195	3.957759e-05	-0.0002550374	0.07376377	0.02272512	5.449175e-05	-0.0001100477	
-8.109581e-05	-0.0003352099	0.1624627	0.01865305	5.449175e-05	-0.0001100477	0.09033318	0.008182336	

1.18e+09	0.103416	-0.01217329	-0.0003062556	-0.0004962574	0.1635087	-0.01630824	-0.0002117134	-0.0003016851	
-0.0003062556	-0.0004962574	0.1093609	-0.01888813	-8.802999e-05	-0.000260973	0.1595744	-0.03010863	
0.1635087	-0.01630824	-8.802999e-05	-0.000260973	0.09794706	-0.00192617	-2.131232e-05	-0.0001152154	
-0.0002117134	-0.0003016851	0.1595744	-0.03010863	-2.131232e-05	-0.0001152154	0.1048203	-0.02231849	

1.2e+09	0.09979388	-0.04194334	-0.0004553159	-0.0003479894	0.1335703	-0.04266882	-0.0002993316	-0.000194017	
-0.0004553159	-0.0003479894	0.1013992	-0.05005294	-0.0001804476	-0.0001770779	0.1251969	-0.0463465	
0.1335703	-0.04266882	-0.0001804476	-0.0001770779	0.09898983	-0.03307735	-6.139477e-05	-6.148056e-05	
-0.0002993316	-0.000194017	0.1251969	-0.0463465	-6.139477e-05	-6.148056e-05	0.09705905	-0.05041169	

1.22e+09	0.08711518	-0.06014387	-0.0005102036	-0.0001727936	0.1103806	-0.03430999	-0.0003172434	-7.99804e-05	
-0.0005102036	-0.0001727936	0.08500643	-0.06661762	-0.0001985412	-8.187333e-05	0.1077097	-0.03163738	
0.1103806	-0.03430999	-0.0001985412	-8.187333e-05	0.08781735	-0.05309404	-4.848171e-05	-1.700656e-05	
-0.0003172434	-7.99804e-05	0.1077097	-0.03163738	-4.848171e-05	-1.700656e-05	0.08343371	-0.06533343	

1.24e+09	0.07714532	-0.06406776	-0.0004846911	-3.550844e-05	0.1182742	-0.01408596	-0.0002879512	-4.724579e-06	
-0.0004846911	-3.550844e-05	0.07539968	-0.06784492	-0.0001629801	-3.114907e-05	0.1235715	-0.01558157	
0.1182742	-0.01408596	-0.0001629801	-3.114907e-05	0.07808978	-0.05640097	-1.359393e-05	-1.781232e-05	
-0.0002879512	-4.724579e-06	0.1235715	-0.01558157	-1.359393e-05	-1.781232e-05	0.07636159	-0.06780414	

1.26e+09	0.0819222	-0.07310809	-0.0004752723	3.67371e-05	0.150071	-0.02705342	-0.0002847068	2.631122e-05	
-0.0004752723	3.67371e-05	0.08100601	-0.07832502	-0.0001651413	-3.937266e-05	0.1516173	-0.03894844	
0.150071	-0.02705342	-0.0001651413	-3.937266e-05	0.08603912	-0.06317197	-2.499765e-05	-5.51326e-05	
-0.0002847068	2.631122e-05	0.1516173	-0.03894844	-2.499765e-05	-5.51326e-05	0.08182711	-0.08000523	

1.28e+09	0.0818594	-0.09823327	-0.0005080184	0.0001385017	0.1539366	-0.07293319	-0.0003158499	8.818688e-05	
-0.0005080184	0.0001385017	0.07821918	-0.1059932	-0.0002245946	-1.350073e-05	0.1426837	-0.08520849	
0.1539366	-0.07293319	-0.0002245946	-1.350073e-05	0.09199184	-0.08880136	-8.219858e-05	-5.498561e-05	
-0.0003158499	8.818688e-05	0.1426837	-0.08520849	-8.219858e-05	-5.498561e-05	0.07787351	-0.1070893	

1.3e+09	0.0616523	-0.1264844	-0.0005038216	0.0003159242	0.1157864	-0.1045293	-0.0003160719	0.0002088862	
-0.0005038216	0.0003159242	0.05224715	-0.133511	-0.0002655117	9.194169e-05	0.0978645	-0.1050607	
0.1157864	-0.1045293	-0.0002655117	9.194169e-05	0.07670957	-0.1217373	-0.0001210901	7.30013e-06	
-0.0003160719	0.0002088862	0.0978645	-0.1050607	-0.0001210901	7.30013e-06	0.05276883	-0.1323265	

1.32e+09	0.02617499	-0.1375924	-0.0003765976	0.000505797	0.07469536	-0.09147794	-0.0002238542	0.0003332558	
-0.0003765976	0.000505797	0.01284025	-0.1386768	-0.0002063722	0.000220843	0.06411757	-0.08150231	
0.07469536	-0.09147794	-0.0002063722	0.000220843	0.04201117	-0.1389373	-8.618506e-05	7.9585e-05	
-0.0002238542	0.0003332558	0.06411757	-0.08150231	-8.618506e-05	7.9585e-05	0.01689937	-0.1366288	

1.34e+09	-0.001830765	-0.1271368	-0.0001619856	0.0005876843	0.06873394	-0.06488493	-7.868416e-05	0.0003737063	
-0.0001619856	0.0005876843	-0.01303752	-0.1220758	-7.885638e-05	0.0002667274	0.06804566	-0.05669753	
0.06873394	-0.06488493	-7.885638e-05	0.0002667274	0.01201652	-0.1316829	-1.766198e-05	8.798988e-05	
-7.868416e-05	0.0003737063	0.06804566	-0.05669753	-1.766198e-05	8.798988e-05	-0.005747202	-0.1225053	

1.36e+09	-0.01512402	-0.1139104	2.739094e-05	0.0005556753	0.08479248	-0.05854466	3.623073e-05	0.0003379032	
2.739094e-05	0.0005556753	-0.02177566	-0.1066496	1.95767e-05	0.0002283524	0.08564827	-0.05881822	
0.08479248	-0.05854466	1.95767e-05	0.0002283524	-0.001782715	-0.1191767	1.535893e-05	4.766875e-05	
3.623073e-05	0.0003379032	0.08564827	-0.05881822	1.535893e-05	4.766875e-05	-0.01412849	-0.1105811	

1.38e+09	-0.02114992	-0.1122549	0.0001258178	0.00049017	0.08790322	-0.08391999	8.282457e-05	0.0002945986	
0.0001258178	0.00049017	-0.02604681	-0.1066864	3.555221e-05	0.0001795847	0.0795878	-0.08656321	
0.08790322	-0.08391999	3.555221e-05	0.0001795847	-0.005449448	-0.1192255	-1.156277e-05	2.283096e-05	
8.282457e-05	0.0002945986	0.0795878	-0.08656321	-1.156277e-05	2.283096e-05	-0.02006859	-0.1120978	

1.4e+09	-0.04141371	-0.1172087	0.0002002072	0.0004851861	0.05210009	-0.1045697	0.0001231602	0.0003038698	
0.0002002072	0.0004851861	-0.04857215	-0.1107029	3.345948e-05	0.0002046832	0.03780592	-0.0963159	
0.05210009	-0.1045697	3.345948e-05	0.0002046832	-0.02405327	-0.1297798	-3.640204e-05	6.204578e-05	
0.0001231602	0.0003038698	0.03780592	-0.0963159	-3.640204e-05	6.204578e-05	-0.04275433	-0.1153942	

1.42e+09	-0.07422155	-0.106315	0.000350755	0.0004881272	0.007395671	-0.08372499	0.0002281541	0.0003156463	
0.000350755	0.0004881272	-0.08168915	-0.0938733	0.000109997	0.0002576849	0.00156269	-0.06335273	
0.007395671	-0.08372499	0.000109997	0.0002576849	-0.0596949	-0.1257172	6.557875e-06	0.0001184085	
0.0002281541	0.0003156463	0.00156269	-0.06335273	6.557875e-06	0.0001184085	-0.07354311	-0.0989537	

1.44e+09	-0.09762843	-0.07242599	0.0005549459	0.000380264	-0.001852933	-0.03751026	0.0003715302	0.0002393615	
0.0005549459	0.000380264	-0.09850494	-0.05417594	0.0002546491	0.0002257386	0.007666543	-0.01867996	
-0.001852933	-0.03751026	0.0002546491	0.0002257386	-0.08954365	-0.095221	9.811439e-05	0.0001073473	
0.0003715302	0.0002393615	0.007666543	-0.01867996	9.811439e-05	0.0001073473	-0.08839246	-0.06281725	

1.46e+09	-0.09508673	-0.03524914	0.0006675949	0.0001369647	0.02517049	-0.01485082	0.0004380671	6.632806e-05	
0.0006675949	0.0001369647	-0.08680914	-0.01830938	0.0003367344	7.570729e-05	0.03901317	-0.009268348	
0.02517049	-0.01485082	0.0003367344	7.570729e-05	-0.09229452	-0.05675777	0.00013527	1.664286e-05	
0.0004380671	6.632806e-05	0.03901317	-0.009268348	0.00013527	1.664286e-05	-0.07807831	-0.03159325	

1.48e+09	-0.08067966	-0.01493853	0.0006306139	-9.7587e-05	0.03934129	-0.02339724	0.0003982586	-8.409323e-05	
0.0006306139	-9.7587e-05	-0.06768839	-0.004223012	0.0003000581	-6.458439e-05	0.04624478	-0.02398126	
0.03934129	-0.02339724	0.0003000581	-6.458439e-05	-0.07913417	-0.03506744	9.444462e-05	-4.690326e-05	
0.0003982586	-8.409323e-05	0.04624478	-0.02398126	9.444462e-05	-4.690326e-05	-0.06284521	-0.01948991	

1.5e+09	-0.07189245	-0.00741668	0.0005153091	-0.0002447529	0.02716991	-0.03594592	0.0003164047	-0.0001651664	
0.0005153091	-0.0002447529	-0.05976266	-0.002055629	0.0002100733	-0.0001255272	0.0270076	-0.03186543	
0.02716991	-0.03594592	0.0002100733	-0.0001255272	-0.07105145	-0.02908239	3.687546e-05	-4.757898e-05	
0.0003164047	-0.0001651664	0.0270076	-0.03186543	3.687546e-05	-4.757898e-05	-0.05766512	-0.01655699	

1.52e+09	-0.0759104	0.005934287	0.000438266	-0.000310344	-0.0002283699	-0.01601437	0.0002772695	-0.0001970889	
0.000438266	-0.000310344	-0.06487922	0.01118327	0.0001751772	-0.0001158506	0.005805286	-0.00298838	
-0.0002283699	-0.01601437	0.0001751772	-0.0001158506	-0.07923967	-0.01878988	3.902953e-05	-1.151589e-05	
0.0002772695	-0.0001970889	0.005805286	-0.00298838	3.902953e-05	-1.151589e-05	-0.06287108	-0.002580119	

1.54e+09	-0.07262523	0.03603568	0.0004076061	-0.0004108917	0.002715741	0.03019713	0.0002700804	-0.0002690735	
0.0004076061	-0.0004108917	-0.05742484	0.04172158	0.0002045801	-0.0001501032	0.02300912	0.03937855	
0.002715741	0.03019713	0.0002045801	-0.0001501032	-0.08331793	0.01193209	8.720922e-05	-2.602637e-05	
0.0002700804	-0.0002690735	0.02300912	0.03937855	8.720922e-05	-2.602637e-05	-0.05533656	0.02600403	

1.56e+09	-0.04581737	0.06548263	0.0003126826	-0.0005754106	0.04349507	0.05641836	0.0002055034	-0.0003908129	
0.0003126826	-0.0005754106	-0.02468835	0.06547401	0.0001900175	-0.0002659035	0.06775163	0.04911612	
0.04349507	0.05641836	0.0001900175	-0.0002659035	-0.06193235	0.04702625	9.325169e-05	-0.0001047444	
0.0002055034	-0.0003908129	0.06775163	0.04911612	9.325169e-05	-0.0001047444	-0.02545398	0.0469977	

1.58e+09	-0.006376336	0.07260454	8.894441e-05	-0.0006966349	0.08041326	0.04063023	4.32675e-05	-0.000471509	
8.894441e-05	-0.0006966349	0.01494025	0.06220191	5.893132e-05	-0.0003650235	0.09270853	0.02212049	
0.08041326	0.04063023	5.893132e-05	-0.0003650235	-0.02269897	0.06058218	1.306015e-05	-0.0001626064	
4.32675e-05	-0.000471509	0.09270853	0.02212049	1.306015e-05	-0.0001626064	0.0091754	0.04363474	

1.6e+09	0.02078427	0.05925772	-0.0001787741	-0.0006607317	0.07966728	0.01513395	-0.0001385013	-0.0004321584	
-0.0001787741	-0.0006607317	0.03535094	0.04152693	-0.0001141028	-0.000336522	0.07947736	0.001721573	
0.07966728	0.01513395	-0.0001141028	-0.000336522	0.006773967	0.04977417	-8.062374e-05	-0.0001258258	
-0.0001385013	-0.0004321584	0.07947736	0.001721573	-8.062374e-05	-0.0001258258	0.02578591	0.02619052	

1.62e+09	0.03282738	0.04679713	-0.0003574817	-0.0005191679	0.06657325	0.01792421	-0.0002442201	-0.0003302856	
-0.0003574817	-0.0005191679	0.03922266	0.02754059	-0.0002067735	-0.0002290014	0.06683528	0.01286924	
0.06657325	0.01792421	-0.0002067735	-0.0002290014	0.01838216	0.03736735	-0.0001034288	-5.407128e-05	
-0.0002442201	-0.0003302856	0.06683528	0.01286924	-0.0001034288	-5.407128e-05	0.02935259	0.01589076	

1.64e+09	0.0396199	0.04476641	-0.0004256833	-0.0003610057	0.06948375	0.04152425	-0.0002766317	-0.0002335238	
-0.0004256833	-0.0003610057	0.04191685	0.0286066	-0.0002052882	-0.0001262448	0.07811353	0.03696414	
0.06948375	0.04152425	-0.0002052882	-0.0001262448	0.02208143	0.03745094	-6.918397e-05	-1.022854e-05	
-0.0002766317	-0.0002335238	0.07811353	0.03696414	-6.918397e-05	-1.022854e-05	0.03301747	0.01809751	

1.66e+09	0.0609695	0.04663494	-0.0004591995	-0.0002801866	0.1062117	0.05373284	-0.0003022978	-0.0001954156	
-0.0004591995	-0.0002801866	0.06328479	0.02993351	-0.0001866516	-0.00011193	0.1165263	0.03696879	
0.1062117	0.05373284	-0.0001866516	-0.00011193	0.04192068	0.04562834	-4.763089e-05	-3.483502e-05	
-0.0003022978	-0.0001954156	0.1165263	0.03696879	-4.763089e-05	-3.483502e-05	0.05331129	0.01904203	

1.68e+09	0.09069565	0.03146292	-0.0005528066	-0.0002067959	0.1422519	0.02762779	-0.0003799904	-0.0001504488	
-0.0005528066	-0.0002067959	0.08986379	0.009995676	-0.0002431646	-0.0001155671	0.1394745	0.002081471	
0.1422519	0.02762779	-0.0002431646	-0.0001155671	0.07525446	0.03703305	-9.202862e-05	-5.896798e-05	
-0.0003799904	-0.0001504488	0.1394745	0.002081471	-9.202862e-05	-5.896798e-05	0.07683633	0.0007514125	

1.7e+09	0.1077888	-0.002135521	-0.00066508	-3.648514e-05	0.142619	-0.01288699	-0.0004651716	-2.568138e-05	
-0.00066508	-3.648514e-05	0.0974828	-0.02622988	-0.0003379806	-3.373495e-05	0.1243781	-0.03160188	
0.142619	-0.01288699	-0.0003379806	-3.373495e-05	0.09876564	0.00566539	-0.0001582397	-1.259269e-05	
-0.0004651716	-2.568138e-05	0.1243781	-0.03160188	-0.0001582397	-1.259269e-05	0.08277227	-0.03081727	

1.72e+09	0.1019446	-0.0353513	-0.0006668976	0.0002293709	0.1172699	-0.02683038	-0.0004599671	0.0001642394	
-0.0006668976	0.0002293709	0.08089468	-0.05397249	-0.0003503201	0.0001376417	0.09738822	-0.03029017	
0.1172699	-0.02683038	-0.0003503201	0.0001376417	0.09705237	-0.02944237	-0.0001567098	8.974853e-05	
-0.0004599671	0.0001642394	0.09738822	-0.03029017	-0.0001567098	8.974853e-05	0.06813391	-0.05350259	

1.74e+09	0.0868553	-0.04992183	-0.0005042967	0.000447893	0.1079888	-0.01275953	-0.0003410409	0.0003062134	
-0.0005042967	0.000447893	0.0623302	-0.05801412	-0.0002307632	0.0002704756	0.09788437	-0.01050074	
0.1079888	-0.01275953	-0.0002307632	0.0002704756	0.08205606	-0.04513868	-7.354977e-05	0.0001477116	
-0.0003410409	0.0003062134	0.09788437	-0.01050074	-7.354977e-05	0.0001477116	0.05365309	-0.05550704	

1.76e+09	0.08038877	-0.05560157	-0.0002999182	0.0005296721	0.1251977	-0.005969877	-0.0002089889	0.0003500264	
-0.0002999182	0.0005296721	0.05843624	-0.05573956	-8.973329e-05	0.000288455	0.120021	-0.00954598	
0.1251977	-0.005969877	-8.973329e-05	0.000288455	0.07605708	-0.04840706	-1.980356e-07	0.0001274898	
-0.0002089889	0.0003500264	0.120021	-0.00954598	-1.980356e-07	0.0001274898	0.05212971	-0.05389335	

1.78e+09	0.08441157	-0.06539614	-0.0001550859	0.0005182425	0.1469293	-0.02633087	-0.000128881	0.0003443413	
-0.0001550859	0.0005182425	0.06601134	-0.06392254	-1.621531e-05	0.0002354924	0.1347901	-0.03605892	
0.1469293	-0.02633087	-1.621531e-05	0.0002354924	0.08427853	-0.05498661	1.194133e-05	8.137753e-05	
-0.000128881	0.0003443413	0.1347901	-0.03605892	1.194133e-05	8.137753e-05	0.0595434	-0.06189637	

1.8e+09	0.082258	-0.09042256	-8.313558e-05	0.0005410198	0.1401411	-0.06425629	-9.010346e-05	0.0003788012	
-8.313558e-05	0.0005410198	0.06123967	-0.08821743	-1.922712e-05	0.0002295462	0.1159827	-0.06685202	
0.1401411	-0.06425629	-1.922712e-05	0.0002295462	0.08902744	-0.08074497	-1.807387e-05	8.915443e-05	
-9.010346e-05	0.0003788012	0.1159827	-0.06685202	-1.807387e-05	8.915443e-05	0.05528402	-0.08326272	

1.82e+09	0.06012459	-0.114832	4.206325e-05	0.0006252066	0.1057562	-0.08107926	2.891587e-06	0.0004564008	
4.206325e-05	0.0006252066	0.03453745	-0.1050586	1.902425e-05	0.0003002078	0.08128492	-0.06659255	
0.1057562	-0.08107926	1.902425e-05	0.0003002078	0.07147244	-0.1103571	-2.707703e-06	0.0001516358	
2.891587e-06	0.0004564008	0.08128492	-0.06659255	-2.707703e-06	0.0001516358	0.03249178	-0.09695023	

1.84e+09	0.02719919	-0.119073	0.0002881758	0.0006521794	0.07972704	-0.06461008	0.0001884346	0.0004803842	
0.0002881758	0.0006521794	0.004802103	-0.09632537	0.0001696948	0.000343065	0.06974815	-0.04023666	
0.07972704	-0.06461008	0.0001696948	0.000343065	0.03824447	-0.1199297	9.527237e-05	0.0001837833	
0.0001884346	0.0004803842	0.06974815	-0.04023666	9.527237e-05	0.0001837833	0.008693803	-0.08844374	

1.86e+09	0.007013213	-0.1045951	0.0005443613	0.0004951223	0.08726575	-0.04499108	0.0003695832	0.0003642042	
0.0005443613	0.0004951223	-0.003044002	-0.07455588	0.0003414391	0.0002369972	0.0902888	-0.02791625	
0.08726575	-0.04499108	0.0003414391	0.0002369972	0.01595011	-0.1067247	0.0001937109	0.0001082392	
0.0003695832	0.0003642042	0.0902888	-0.02791625	0.0001937109	0.0001082392	0.00476427	-0.07041	

1.88e+09	0.005287925	-0.09425679	0.0006471704	0.0002383304	0.1024279	-0.05339559	0.0004327859	0.0001926072	
0.0006471704	0.0002383304	0.006615394	-0.06683239	0.0003865674	5.170546e-05	0.1038122	-0.04548611	
0.1024279	-0.05339559	0.0003865674	5.170546e-05	0.01556037	-0.09536589	0.0001965068	1.129341e-06	
0.0004327859	0.0001926072	0.1038122	-0.04548611	0.0001965068	1.129341e-06	0.01469638	-0.06597496	

1.9e+09	0.004273566	-0.09671863	0.0006190357	2.758518e-05	0.09810179	-0.07733722	0.0004158405	6.641035e-05	
0.0006190357	2.758518e-05	0.01044519	-0.07496683	0.0003244124	-8.226369e-05	0.09177919	-0.06829305	
0.09810179	-0.07733722	0.0003244124	-8.226369e-05	0.0184245	-0.09968157	0.0001431581	-5.226382e-05	
0.0004158405	6.641035e-05	0.09177919	-0.06829305	0.0001431581	-5.226382e-05	0.01843331	-0.07467555	

1.92e+09	-0.009733023	-0.1042265	0.0005681396	-8.731512e-05	0.06803259	-0.08790968	0.0004043992	2.949349e-06	
0.0005681396	-8.731512e-05	-0.003682678	-0.08381013	0.0002554638	-0.000119141	0.06243695	-0.06723956	
0.06803259	-0.08790968	0.0002554638	-0.000119141	0.006700063	-0.1131418	0.0001133584	-4.206078e-05	
0.0004043992	2.949349e-06	0.06243695	-0.06723956	0.0001133584	-4.206078e-05	0.006776242	-0.08318546	

1.94e+09	-0.03416906	-0.09590491	0.0005831563	-0.0001926686	0.0407839	-0.06635555	0.0004457078	-7.5157e-05	
0.0005831563	-0.0001926686	-0.02318223	-0.07130522	0.0002677038	-0.000138806	0.05075543	-0.03916603	
0.0407839	-0.06635555	0.0002677038	-0.000138806	-0.02063322	-0.1111104	0.0001500362	-4.217046e-05	
0.0004457078	-7.5157e-05	0.05075543	-0.03916603	0.0001500362	-4.217046e-05	-0.008483774	-0.0733792	

1.96e+09	-0.04567205	-0.0695555	0.0005875249	-0.0003974105	0.04559773	-0.0355186	0.0004662133	-0.0002385734	
0.0005875249	-0.0003974105	-0.02197796	-0.04622301	0.0002977798	-0.0002531618	0.07154516	-0.0195457	
0.04559773	-0.0355186	0.0002977798	-0.0002531618	-0.03768077	-0.08649466	0.0001886815	-0.0001229953	
0.0004662133	-0.0002385734	0.07154516	-0.0195457	0.0001886815	-0.0001229953	-0.005507869	-0.05429937	

1.98e+09	-0.03427404	-0.04748718	0.0004403317	-0.0006474422	0.07004497	-0.03149268	0.0003634328	-0.000428424	
0.0004403317	-0.0006474422	-0.0007039764	-0.03633318	0.0002077903	-0.0004265056	0.09455782	-0.0338082	
0.07004497	-0.03149268	0.0002077903	-0.0004265056	-0.02883651	-0.06217977	0.0001314305	-0.0002382529	
0.0003634328	-0.000428424	0.09455782	-0.0338082	0.0001314305	-0.0002382529	0.01335034	-0.04975814	

2e+09	-0.01840329	-0.04645772	0.0001498047	-0.0007715413	0.07487367	-0.05352329	0.000164344	-0.0005147096	
0.0001498047	-0.0007715413	0.01428942	-0.04980361	-6.857327e-06	-0.000500473	0.08606664	-0.06023318	
0.07487367	-0.05352329	-6.857327e-06	-0.000500473	-0.01124266	-0.06060095	-1.201032e-06	-0.0002698573	
0.000164344	-0.0005147096	0.08606664	-0.06023318	-1.201032e-06	-0.0002698573	0.02466329	-0.065012	

2.02e+09	-0.01660099	-0.05446937	-0.0001225334	-0.0007326236	0.05464484	-0.06193445	-3.819031e-06	-0.0004950453	
-0.0001225334	-0.0007326236	0.008621129	-0.06621614	-0.0001982277	-0.0004365854	0.06204483	-0.06168419	
0.05464484	-0.06193445	-0.0001982277	-0.0004365854	-0.00870932	-0.07248968	-9.252887e-05	-0.0002195809	
-3.819031e-06	-0.0004950453	0.06204483	-0.06168419	-9.252887e-05	-0.0002195809	0.0179265	-0.08120996	

2.04e+09	-0.02666119	-0.05463933	-0.0003024638	-0.0006109148	0.03391201	-0.04664676	-0.0001092173	-0.0004386991	
-0.0003024638	-0.0006109148	-0.007447731	-0.06723476	-0.0002979443	-0.000311128	0.04890928	-0.04188332	
0.03391201	-0.04664676	-0.0002979443	-0.000311128	-0.02238243	-0.07689053	-0.0001198767	-0.0001560007	
-0.0001092173	-0.0004386991	0.04890928	-0.04188332	-0.0001198767	-0.0001560007	0.002645983	-0.08405636	

2.06e+09	-0.03083578	-0.03896091	-0.0004029496	-0.0005194795	0.03980103	-0.01867382	-0.0001808864	-0.0004172044	
-0.0004029496	-0.0005194795	-0.01067686	-0.05295131	-0.0003203297	-0.0002329895	0.06457611	-0.0242237	
0.03980103	-0.01867382	-0.0003203297	-0.0002329895	-0.03298421	-0.06125833	-0.0001173856	-0.0001453738	
-0.0001808864	-0.0004172044	0.06457611	-0.0242237	-0.0001173856	-0.0001453738	-0.001554621	-0.07427873	

2.08e+09	-0.01560647	-0.0255074	-0.0005383997	-0.0004648982	0.067613	-0.01288075	-0.0002996278	-0.0004111937	
-0.0005383997	-0.0004648982	0.004721048	-0.04878008	-0.0003801661	-0.0002121195	0.08677012	-0.03621668	
0.067613	-0.01288075	-0.0003801661	-0.0002121195	-0.02118152	-0.04329423	-0.0001659041	-0.0001671831	
-0.0002996278	-0.0004111937	0.08677012	-0.03621668	-0.0001659041	-0.0001671831	0.008980866	-0.07370688	

2.1e+09	0.00432019	-0.03263025	-0.0007347886	-0.000330073	0.08121234	-0.0356362	-0.0004643961	-0.0003296633	
-0.0007347886	-0.000330073	0.01517342	-0.06656553	-0.0005125109	-0.0001343591	0.08151841	-0.06387036	
0.08121234	-0.0356362	-0.0005125109	-0.0001343591	0.0004426187	-0.04696191	-0.0002682264	-0.000132391	
-0.0004643961	-0.0003296633	0.08151841	-0.06387036	-0.0002682264	-0.000132391	0.01352096	-0.09106874	

2.12e+09	0.007231876	-0.05244675	-0.0008734568	-5.00573e-05	0.06324203	-0.05393558	-0.0005776801	-0.0001398622	
-0.0008734568	-5.00573e-05	0.00214636	-0.08839194	-0.0006088012	7.076376e-05	0.05198819	-0.07020931	
0.06324203	-0.05393558	-0.0006088012	7.076376e-05	0.005601063	-0.06818534	-0.0003337246	-7.981213e-06	
-0.0005776801	-0.0001398622	0.05198819	-0.07020931	-0.0003337246	-7.981213e-06	-0.002631406	-0.1097885	

2.14e+09	-0.007708007	-0.06191001	-0.000834049	0.0002821478	0.04031023	-0.04218224	-0.0005647812	7.515726e-05	
-0.000834049	0.0002821478	-0.02465534	-0.08969404	-0.0005550963	0.000320485	0.03404416	-0.04774931	
0.04031023	-0.04218224	-0.0005550963	0.000320485	-0.01151418	-0.08084215	-0.0002976461	0.0001282482	
-0.0005647812	7.515726e-05	0.03404416	-0.04774931	-0.0002976461	0.0001282482	-0.02952204	-0.1092619	

2.16e+09	-0.02010917	-0.05533964	-0.0006627083	0.0005203772	0.04225133	-0.01973714	-0.0004787912	0.0002207258	
-0.0006627083	0.0005203772	-0.0404325	-0.07315279	-0.0003942036	0.0004816227	0.04292062	-0.02831491	
0.04225133	-0.01973714	-0.0003942036	0.0004816227	-0.02898806	-0.0735152	-0.0002156246	0.0001953108	
-0.0004787912	0.0002207258	0.04292062	-0.02831491	-0.0002156246	0.0001953108	-0.04606433	-0.09382168	

2.18e+09	-0.01853289	-0.04307426	-0.0004621674	0.0006354189	0.06254366	-0.01124211	-0.0003896056	0.0002986309	
-0.0004621674	0.0006354189	-0.03699893	-0.05688637	-0.0002218651	0.0005306457	0.06039828	-0.02950781	
0.06254366	-0.01124211	-0.0002218651	0.0005306457	-0.03017238	-0.05641302	-0.0001517868	0.0002052029	
-0.0003896056	0.0002986309	0.06039828	-0.02950781	-0.0001517868	0.0002052029	-0.04655951	-0.0782906	

2.2e+09	-0.008092541	-0.0455233	-0.0003291074	0.000706739	0.07592126	-0.02964016	-0.0003443375	0.0003739399	
-0.0003291074	0.000706739	-0.03057723	-0.05990777	-0.0001280968	0.0005444334	0.05825976	-0.04892041	
0.07592126	-0.02964016	-0.0001280968	0.0005444334	-0.0172918	-0.05437891	-0.0001431338	0.0002235541	
-0.0003443375	0.0003739399	0.05825976	-0.04892041	-0.0001431338	0.0002235541	-0.04495558	-0.07840164	

2.22e+09	-0.0107488	-0.06010037	-0.0001904483	0.0008342168	0.06042021	-0.04902692	-0.0002745773	0.000502358	
-0.0001904483	0.0008342168	-0.0429475	-0.06875706	-4.444914e-05	0.0006225352	0.03203402	-0.05290905	
0.06042021	-0.04902692	-4.444914e-05	0.0006225352	-0.01614766	-0.06944536	-0.0001222082	0.0003023241	
-0.0002745773	0.000502358	0.03203402	-0.05290905	-0.0001222082	0.0003023241	-0.05904266	-0.08162421	

2.24e+09	-0.03091664	-0.06528664	7.233041e-05	0.0009630877	0.03426102	-0.04036921	-0.0001010644	0.0006272503	
7.233041e-05	0.0009630877	-0.06789904	-0.05862956	0.0001456097	0.0007203916	0.01303263	-0.02707014	
0.03426102	-0.04036921	0.0001456097	0.0007203916	-0.03658565	-0.0779249	-1.435484e-05	0.000390176	
-0.0001010644	0.0006272503	0.01303263	-0.02707014	-1.435484e-05	0.000390176	-0.08192951	-0.06722585	

2.26e+09	-0.04947777	-0.04909926	0.000441444	0.0009368002	0.03154426	-0.01147619	0.000147208	0.0006338915	
0.000441444	0.0009368002	-0.07900627	-0.02684977	0.0004347185	0.0006927589	0.02574239	0.003121873	
0.03154426	-0.01147619	0.0004347185	0.0006927589	-0.05937999	-0.06200747	0.0001555299	0.0003845056	
0.000147208	0.0006338915	0.02574239	0.003121873	0.0001555299	0.0003845056	-0.09073185	-0.03468342	

2.28e+09	-0.0478126	-0.0252941	0.0007432932	0.0007120209	0.05301229	0.002342099	0.0003391035	0.0005114562	
0.0007432932	0.0007120209	-0.06385025	0.002106975	0.000667363	0.0004952481	0.05137952	0.007395206	
0.05301229	0.002342099	0.000667363	0.0004952481	-0.06025822	-0.03355307	0.0002720469	0.0002799768	
0.0003391035	0.0005114562	0.05137952	0.007395206	0.0002720469	0.0002799768	-0.07619188	-0.005795767	

2.3e+09	-0.03466549	-0.01350157	0.0008849146	0.000427232	0.06981487	-0.007752654	0.000429898	0.000367609	
0.0008849146	0.000427232	-0.04166614	0.01157854	0.0007573683	0.000251708	0.06077491	-0.00591427	
0.06981487	-0.007752654	0.0007573683	0.000251708	-0.04464284	-0.0171815	0.0003023809	0.0001740804	
0.000429898	0.000367609	0.06077491	-0.00591427	0.0003023809	0.0001740804	-0.05584707	0.006412344	

2.32e+09	-0.02506988	-0.01569584	0.000917306	0.0001888799	0.06473295	-0.02319177	0.0004743322	0.000262721	
0.000917306	0.0001888799	-0.0305792	0.00742614	0.00075267	6.15197e-05	0.049783	-0.01169392	
0.06473295	-0.02319177	0.00075267	6.15197e-05	-0.0304645	-0.01904373	0.0003031186	0.0001182297	
0.0004743322	0.000262721	0.049783	-0.01169392	0.0003031186	0.0001182297	-0.04391438	0.007474872	

2.34e+09	-0.03077141	-0.01532865	0.0009620419	3.959125e-06	0.04559874	-0.01708678	0.0005520738	0.0001761998	
0.0009620419	3.959125e-06	-0.03355291	0.01374737	0.0007701571	-6.762111e-05	0.0403303	0.007916876	
0.04559874	-0.01708678	0.0007701571	-6.762111e-05	-0.03503019	-0.02197439	0.0003492555	8.713097e-05	
0.0005520738	0.0001761998	0.0403303	0.007916876	0.0003492555	8.713097e-05	-0.04214384	0.01736183	

2.36e+09	-0.03572576	0.002241414	0.001028598	-0.0002515061	0.0449469	0.01004188	0.0006472721	1.559744e-05	
0.001028598	-0.0002515061	-0.02601457	0.0367417	0.0008267813	-0.0002560422	0.0589748	0.03326993	
0.0449469	0.01004188	0.0008267813	-0.0002560422	-0.04327549	-0.005374908	0.0004269399	-8.272207e-06	
0.0006472721	1.559744e-05	0.0589748	0.03326993	0.0004269399	-8.272207e-06	-0.02950874	0.03971906	

2.38e+09	-0.02096697	0.02594756	0.000983501	-0.0006124375	0.0723005	0.02615814	0.0006524559	-0.0002281033	
0.000983501	-0.0006124375	0.005135688	0.05457389	0.0007987551	-0.0005481485	0.09428558	0.03243016	
0.0723005	0.02615814	0.0007987551	-0.0005481485	-0.03089435	0.02242135	0.0004368952	-0.0001807536	
0.0006524559	-0.0002281033	0.09428558	0.03243016	0.0004368952	-0.0001807536	0.003489478	0.05511064	

2.4e+09	0.009323374	0.03357349	0.0007358565	-0.0009437193	0.09972787	0.01151104	0.0005150947	-0.0004418327	
0.0007358565	-0.0009437193	0.04355561	0.0470984	0.000593309	-0.0008246437	0.1118905	0.00597595	
0.09972787	0.01151104	0.000593309	-0.0008246437	0.002297155	0.03512296	0.0003297345	-0.0003286659	
0.0005150947	-0.0004418327	0.1118905	0.00597595	0.0003297345	-0.0003286659	0.04150415	0.04734308	

2.42e+09	0.03405281	0.0213439	0.0003813865	-0.001108633	0.1016472	-0.01042067	0.0003277673	-0.0005418482	
0.0003813865	-0.001108633	0.06526683	0.02134005	0.000293933	-0.0009564537	0.1047862	-0.0122517	
0.1016472	-0.01042067	0.000293933	-0.0009564537	0.03280075	0.02333442	0.0001929606	-0.0003789845	
0.0003277673	-0.0005418482	0.1047862	-0.0122517	0.0001929606	-0.0003789845	0.06466849	0.0238549	

2.44e+09	0.04368501	0.005540856	5.073629e-05	-0.001122054	0.08976638	-0.01698425	0.0001702947	-0.0005655053	
5.073629e-05	-0.001122054	0.06873796	7.105728e-05	2.144931e-05	-0.0009569697	0.09554906	-0.01077783	
0.08976638	-0.01698425	2.144931e-05	-0.0009569697	0.04532384	0.004167069	9.643667e-05	-0.0003739968	
0.0001702947	-0.0005655053	0.09554906	-0.01077783	9.643667e-05	-0.0003739968	0.07276544	0.003446169	

2.46e+09	0.04597571	-0.0001620269	-0.0002031954	-0.001074353	0.08811338	-0.00457357	5.399482e-05	-0.0005805043	
-0.0002031954	-0.001074353	0.07029627	-0.006454865	-0.0001760885	-0.0009126987	0.1055659	-0.000932481	
0.08811338	-0.00457357	-0.0001760885	-0.0009126987	0.0460938	-0.003988022	4.235822e-05	-0.0003806907	
5.399482e-05	-0.0005805043	0.1055659	-0.000932481	4.235822e-05	-0.0003806907	0.07920993	-0.006184577	

2.48e+09	0.05957365	0.001307496	-0.0004409823	-0.001041922	0.1101936	0.002411168	-8.022839e-05	-0.0006178933	
-0.0004409823	-0.001041922	0.08761938	-0.01215165	-0.000359441	-0.0008977575	0.1307212	-0.01021843	
0.1101936	0.002411168	-0.000359441	-0.0008977575	0.05800156	-0.0002249079	-3.19687e-05	-0.0004243776	
-8.022839e-05	-0.0006178933	0.1307212	-0.01021843	-3.19687e-05	-0.0004243776	0.09765793	-0.01701436	

2.5e+09	0.08436009	-0.01012056	-0.0007415323	-0.0009663837	0.1342295	-0.01784137	-0.0002763653	-0.0006172442	
-0.0007415323	-0.0009663837	0.1094637	-0.03737966	-0.0006094617	-0.000857596	0.1407983	-0.04242104	
0.1342295	-0.01784137	-0.0006094617	-0.000857596	0.08585308	-0.00792415	-0.0001693131	-0.0004447841	
-0.0002763653	-0.0006172442	0.1407983	-0.04242104	-0.0001693131	-0.0004447841	0.1175674	-0.04512517	

2.52e+09	0.1015335	-0.04062696	-0.001061419	-0.0007462546	0.1325688	-0.05080347	-0.0004853135	-0.0005098076	
-0.001061419	-0.0007462546	0.1130722	-0.07858726	-0.0008911697	-0.0006920097	0.122978	-0.06990951	
0.1325688	-0.05080347	-0.0008911697	-0.0006920097	0.1093104	-0.03888284	-0.0003238147	-0.0003774009	
-0.0004853135	-0.0005098076	0.122978	-0.06990951	-0.0003238147	-0.0003774009	0.1201595	-0.08609556	

2.54e+09	0.0974156	-0.07545442	-0.001269556	-0.0003736507	0.1100048	-0.06622307	-0.0006143209	-0.000310585	
-0.001269556	-0.0003736507	0.09190844	-0.1126547	-0.0010839	-0.0003887328	0.09848031	-0.07180781	
0.1100048	-0.06622307	-0.0010839	-0.0003887328	0.1090737	-0.07893585	-0.0004128992	-0.0002391567	
-0.0006143209	-0.000310585	0.09848031	-0.07180781	-0.0004128992	-0.0002391567	0.1009921	-0.120102	

2.56e+09	0.08031255	-0.09738535	-0.00129703	2.648948e-05	0.09686728	-0.06118018	-0.0006419075	-0.0001131856	
-0.00129703	2.648948e-05	0.06465886	-0.1253118	-0.001124168	-5.871838e-05	0.0929129	-0.06339514	
0.09686728	-0.06118018	-0.001124168	-5.871838e-05	0.09071483	-0.1057529	-0.0004265502	-0.000114613	
-0.0006419075	-0.0001131856	0.0929129	-0.06339514	-0.0004265502	-0.000114613	0.0763628	-0.1362384	

2.58e+09	0.06629181	-0.1060561	-0.001195147	0.0003551534	0.1004838	-0.05592857	-0.0006164144	4.029389e-05	
-0.001195147	0.0003551534	0.04953065	-0.1265954	-0.001058132	0.0002106676	0.1001042	-0.06502579	
0.1004838	-0.05592857	-0.001058132	0.0002106676	0.07419965	-0.1152501	-0.0004139769	-3.105442e-05	
-0.0006164144	4.029389e-05	0.1001042	-0.06502579	-0.0004139769	-3.105442e-05	0.060379	-0.1427564	

2.6e+09	0.06291156	-0.1163962	-0.001075411	0.0005951289	0.110394	-0.06968842	-0.0006019721	0.0001609602	
-0.001075411	0.0005951289	0.04464219	-0.1370526	-0.0009860498	0.0004066218	0.1001458	-0.08540871	
0.110394	-0.06968842	-0.0009860498	0.0004066218	0.07170319	-0.1239437	-0.0004288874	3.187184e-05	
-0.0006019721	0.0001609602	0.1001458	-0.08540871	-0.0004288874	3.187184e-05	0.05132764	-0.1562242	

2.62e+09	0.05631418	-0.139621	-0.0009715446	0.0008451464	0.1011648	-0.09624039	-0.0005966082	0.0003166881	
-0.0009715446	0.0008451464	0.02838365	-0.1601543	-0.0009390137	0.0006217553	0.07696668	-0.1042578	
0.1011648	-0.09624039	-0.0009390137	0.0006217553	0.06940509	-0.1486229	-0.0004622997	0.0001368516	
-0.0005966082	0.0003166881	0.07696668	-0.1042578	-0.0004622997	0.0001368516	0.03156133	-0.1785012	

2.64e+09	0.03144693	-0.1649288	-0.0007858354	0.00115502	0.07106839	-0.108484	-0.0005236716	0.0005249528	
-0.0007858354	0.00115502	-0.009011041	-0.1750983	-0.000826709	0.0009079045	0.04531439	-0.0992772	
0.07106839	-0.108484	-0.000826709	0.0009079045	0.0469503	-0.1800389	-0.0004444171	0.0002988611	
-0.0005236716	0.0005249528	0.04531439	-0.0992772	-0.0004444171	0.0002988611	-0.006036729	-0.1919851	

2.66e+09	-0.007534265	-0.1733964	-0.0004199642	0.001428757	0.0447794	-0.09548098	-0.0003254745	0.0007060087	
-0.0004199642	0.001428757	-0.05109085	-0.1639331	-0.0005512396	0.001184295	0.0313411	-0.07617124	
0.0447794	-0.09548098	-0.0005512396	0.001184295	0.005115503	-0.1950929	-0.0003231598	0.0004500558	
-0.0003254745	0.0007060087	0.0313411	-0.07617124	-0.0003231598	0.0004500558	-0.04698681	-0.1822092	

2.68e+09	-0.04017589	-0.1603021	6.719203e-05	0.0015046	0.04039911	-0.07671133	-6.144757e-05	0.0007580937	
6.719203e-05	0.0015046	-0.07313214	-0.1353115	-0.0001541378	0.001302109	0.0381318	-0.06153627	
0.04039911	-0.07671133	-0.0001541378	0.001302109	-0.03333428	-0.1841574	-0.0001484066	0.0005045675	
-6.144757e-05	0.0007580937	0.0381318	-0.06153627	-0.0001484066	0.0005045675	-0.07056133	-0.1570794	

2.7e+09	-0.05697886	-0.1432543	0.0004934585	0.001380986	0.04513326	-0.07401566	0.000152704	0.0007064033	
0.0004934585	0.001380986	-0.07674169	-0.1140316	0.0002045233	0.001250181	0.04180073	-0.06515134	
0.04513326	-0.07401566	0.0002045233	0.001250181	-0.05306597	-0.1654796	-1.555702e-05	0.0004877119	
0.000152704	0.0007064033	0.04180073	-0.06515134	-1.555702e-05	0.0004877119	-0.07904133	-0.1372353	

2.72e+09	-0.06616267	-0.1345196	0.0007962357	0.001173343	0.03986443	-0.08266596	0.0003040098	0.0006285945	
0.0007962357	0.001173343	-0.07997339	-0.1073316	0.0004657178	0.001128909	0.03004813	-0.07102321	
0.03986443	-0.08266596	0.0004657178	0.001128909	-0.06150331	-0.1564555	7.256749e-05	0.0004669246	
0.0003040098	0.0006285945	0.03004813	-0.07102321	7.256749e-05	0.0004669246	-0.08651803	-0.1278827	

2.74e+09	-0.08510395	-0.1313495	0.00104392	0.0009913015	0.0164373	-0.08379708	0.000453048	0.0005744824	
0.00104392	0.0009913015	-0.09856743	-0.09974425	0.0006913229	0.001039147	0.008623492	-0.05896778	
0.0164373	-0.08379708	0.0006913229	0.001039147	-0.08024819	-0.1572245	0.0001749892	0.0004804658	
0.000453048	0.0005744824	0.008623492	-0.05896778	0.0001749892	0.0004804658	-0.1056486	-0.1164324	

2.76e+09	-0.1136946	-0.1148113	0.001345605	0.0007660881	-0.005784872	-0.06188923	0.0006602975	0.0004734591	
0.001345605	0.0007660881	-0.1194379	-0.07145383	0.0009896083	0.0009195686	0.002907322	-0.02911219	
-0.005784872	-0.06188923	0.0009896083	0.0009195686	-0.1136457	-0.1454076	0.0003489095	0.0004614248	
0.0006602975	0.0004734591	0.002907322	-0.02911219	0.0003489095	0.0004614248	-0.1247381	-0.08705088	

2.78e+09	-0.1326692	-0.07833541	0.001639925	0.0003521084	-0.005047037	-0.03022147	0.0008572779	0.0002253825	
0.001639925	0.0003521084	-0.1179548	-0.02934385	0.00131627	0.0006240259	0.02178741	-0.006357464	
-0.005047037	-0.03022147	0.00131627	0.0006240259	-0.1406397	-0.1090913	0.0005376603	0.0003120219	
0.0008572779	0.0002253825	0.02178741	-0.006357464	0.0005376603	0.0003120219	-0.1233764	-0.04644789	

2.8e+09	-0.1274678	-0.0386548	0.001717962	-0.0002396767	0.01450317	-0.01454474	0.0008891236	-0.0001343721	
0.001717962	-0.0002396767	-0.09178544	-0.0003203929	0.001474109	0.0001406137	0.04449676	-0.008698467	
0.01450317	-0.01454474	0.001474109	0.0001406137	-0.1409572	-0.06417849	0.0005975388	5.39576e-05	
0.0008891236	-0.0001343721	0.04449676	-0.008698467	0.0005975388	5.39576e-05	-0.100315	-0.01761604	

2.82e+09	-0.1082019	-0.01580424	0.001502087	-0.0007857727	0.02627916	-0.01793853	0.00073554	-0.0004335775	
0.001502087	-0.0007857727	-0.06508008	0.003479045	0.00137295	-0.0003306301	0.04783289	-0.02013755	
0.02627916	-0.01793853	0.00137295	-0.0003306301	-0.1216238	-0.0362114	0.0005059437	-0.0001570223	
0.00073554	-0.0004335775	0.04783289	-0.02013755	0.0005059437	-0.0001570223	-0.07628335	-0.01027324	

2.84e+09	-0.09475084	-0.005562858	0.001144114	-0.001147193	0.02186028	-0.01920473	0.0005195406	-0.0006092076	
0.001144114	-0.001147193	-0.05435547	0.0004079409	0.001144151	-0.0006546518	0.04014698	-0.01830703	
0.02186028	-0.01920473	0.001144151	-0.0006546518	-0.107046	-0.02514683	0.0003758674	-0.000268262	
0.0005195406	-0.0006092076	0.04014698	-0.01830703	0.0003758674	-0.000268262	-0.06436191	-0.008690634	

2.86e+09	-0.09041713	0.006164022	0.000766741	-0.001360635	0.01560091	-0.004557592	0.000302787	-0.0007100458	
0.000766741	-0.001360635	-0.05243971	0.007734271	0.0009016784	-0.0008654341	0.04196869	-0.002708477	
0.01560091	-0.004557592	0.0009016784	-0.0008654341	-0.1050787	-0.01439399	0.0002595806	-0.0003337584	
0.000302787	-0.0007100458	0.04196869	-0.002708477	0.0002595806	-0.0003337584	-0.0584452	0.0003060211	

2.88e+09	-0.0811636	0.03039427	0.0003818128	-0.001519051	0.0278687	0.01944509	6.075537e-05	-0.000783508	
0.0003818128	-0.001519051	-0.03682047	0.02599324	0.0006521027	-0.001053745	0.06414391	0.007629055	
0.0278687	0.01944509	0.0006521027	-0.001053745	-0.1012487	0.01268298	0.0001218829	-0.0003999088	
6.075537e-05	-0.000783508	0.06414391	0.007629055	0.0001218829	-0.0003999088	-0.04040033	0.01673436	

2.9e+09	-0.05235615	0.05316652	-9.712154e-05	-0.001592942	0.05842282	0.02740953	-0.0002571303	-0.0007662585	
-9.712154e-05	-0.001592942	-0.002988282	0.03105154	0.0003036038	-0.001194831	0.08883593	-0.006141905	
0.05842282	0.02740953	0.0003036038	-0.001194831	-0.0749234	0.04332682	-9.351406e-05	-0.0004018527	
-0.0002571303	-0.0007662585	0.08883593	-0.006141905	-9.351406e-05	-0.0004018527	-0.007496999	0.02025615	

2.92e+09	-0.01289747	0.05503185	-0.0006350425	-0.001448728	0.08229262	0.01066633	-0.0005725503	-0.0005565864	
-0.0006350425	-0.001448728	0.02706071	0.01058428	-0.0001226337	-0.001155913	0.09151003	-0.03275633	
0.08229262	0.01066633	-0.0001226337	-0.001155913	-0.03160846	0.05281389	-0.0003133436	-0.0002350086	
-0.0005725503	-0.0005565864	0.09151003	-0.03275633	-0.0003133436	-0.0002350086	0.0211499	0.0013819	

2.94e+09	0.01520824	0.03670507	-0.001056243	-0.001042689	0.08235435	-0.01010513	-0.0007298995	-0.0001776604	
-0.001056243	-0.001042689	0.03324546	-0.0193944	-0.0004639919	-0.0008864039	0.07452627	-0.04500503	
0.08235435	-0.01010513	-0.0004639919	-0.0008864039	0.003056879	0.03657949	-0.0003840345	7.680738e-05	
-0.0007298995	-0.0001776604	0.07452627	-0.04500503	-0.0003840345	7.680738e-05	0.02901379	-0.02566472	

2.96e+09	0.02482955	0.01750364	-0.001213881	-0.0004877308	0.07491477	-0.01307957	-0.0006654297	0.0002483969	
-0.001213881	-0.0004877308	0.02246206	-0.03519734	-0.000586252	-0.0004865429	0.06516858	-0.03879125	
0.07491477	-0.01307957	-0.000586252	-0.0004865429	0.01562068	0.01552014	-0.0002559687	0.0004088413	
-0.0006654297	0.0002483969	0.06516858	-0.03879125	-0.0002559687	0.0004088413	0.02262218	-0.04144037	

2.98e+09	0.0296971	0.008885835	-0.001046009	9.70353e-05	0.0787081	-0.006854369	-0.0003548611	0.0006802319	
-0.001046009	9.70353e-05	0.01732431	-0.03580834	-0.000432811	-4.648338e-05	0.07092902	-0.03359314	
0.0787081	-0.006854369	-0.000432811	-4.648338e-05	0.0199585	0.007222118	7.738647e-05	0.0007455445	
-0.0003548611	0.0006802319	0.07092902	-0.03359314	7.738647e-05	0.0007455445	0.02008988	-0.04567502	

3e+09	0.0424883	0.004030094	-0.0002927502	0.0005869095	0.09554812	-0.01053359	0.0005211257	0.001076274	
-0.0002927502	0.0005869095	0.0257959	-0.03848549	0.0002843126	0.0003606618	0.07987481	-0.04472288	
0.09554812	-0.01053359	0.0002843126	0.0003606618	0.03362072	0.006440258	0.000956617	0.001105986	
0.0005211257	0.001076274	0.07987481	-0.04472288	0.000956617	0.001105986	0.02717806	-0.05220857	

3.02e+09	0.05970583	-0.01144566	0.00170176	-0.001122999	0.1043834	-0.03162856	0.0029423	-0.0007561113	
0.00170176	-0.001122999	0.03261393	-0.05733398	0.002493693	-0.001374889	0.07055654	-0.06430513	
0.1043834	-0.03162856	0.002493693	-0.001374889	0.05629173	-0.005583836	0.003657673	-0.0006781077	
0.0029423	-0.0007561113	0.07055654	-0.06430513	0.003657673	-0.0006781077	0.03062475	-0.07138407	

3.04e+09	0.0732796	-0.04131115	-0.002885006	-0.002144939	0.09936875	-0.05422261	-0.001778364	-0.002575961	
-0.002885006	-0.002144939	0.02291544	-0.08325075	-0.002235561	-0.003097403	0.04821979	-0.07060283	
0.09936875	-0.05422261	-0.002235561	-0.003097403	0.078003	-0.03562696	-0.001080939	-0.003219377	
-0.001778364	-0.002575961	0.04821979	-0.07060283	-0.001080939	-0.003219377	0.02102271	-0.09456951	

3.06e+09	0.0601688	-0.07420425	-0.003090776	0.000561132	0.07660425	-0.06368621	-0.002248928	-1.805594e-05	
-0.003090776	0.000561132	-0.007250231	-0.09293161	-0.002839198	-0.0005103408	0.02729635	-0.05573355	
0.07660425	-0.06368621	-0.002839198	-0.0005103408	0.07010778	-0.07503423	-0.001890524	-0.0008040381	
-0.002248928	-1.805594e-05	0.02729635	-0.05573355	-0.001890524	-0.0008040381	-0.006398445	-0.1044342	

3.08e+09	0.03675466	-0.08594139	-0.002213558	0.002395453	0.06360852	-0.0530606	-0.00156407	0.001667314	
-0.002213558	0.002395453	-0.02942596	-0.07742367	-0.002347776	0.00114864	0.02817341	-0.03442119	
0.06360852	-0.0530606	-0.002347776	0.00114864	0.04583386	-0.09261972	-0.00153057	0.0006725106	
-0.00156407	0.001667314	0.02817341	-0.03442119	-0.00153057	0.0006725106	-0.02724181	-0.09238112	

3.1e+09	0.0253887	-0.08530607	0.0008269938	0.002063662	0.06893605	-0.04802788	0.001281566	0.001203976	
0.0008269938	0.002063662	-0.02927719	-0.06083351	-2.493618e-05	0.001333867	0.03879825	-0.03111218	
0.06893605	-0.04802788	-2.493618e-05	0.001333867	0.03188768	-0.0922058	0.000644945	0.0006943108	
0.001281566	0.001203976	0.03879825	-0.03111218	0.000644945	0.0006943108	-0.02990015	-0.07946383	

3.12e+09	0.02116415	-0.08950276	0.0002623122	0.0009165421	0.07134764	-0.05762788	0.0004622087	6.888894e-06	
0.0002623122	0.0009165421	-0.02421819	-0.05764096	-0.0003447226	0.0004490889	0.03678321	-0.03619348	
0.07134764	-0.05762788	-0.0003447226	0.0004490889	0.03073795	-0.09553695	0.000126076	-0.0002911771	
0.0004622087	6.888894e-06	0.03678321	-0.03619348	0.000126076	-0.0002911771	-0.02939975	-0.07591495	

3.14e+09	0.01342139	-0.1025958	0.0002347762	0.0009003532	0.05790488	-0.07028672	0.0002326197	-5.720445e-06	
0.0002347762	0.0009003532	-0.02980166	-0.06256477	-0.0004189833	0.0004959753	0.02212892	-0.03200832	
0.05790488	-0.07028672	-0.0004189833	0.0004959753	0.02779135	-0.1123333	-0.0001095489	-0.0003039509	
0.0002326197	-5.720445e-06	0.02212892	-0.03200832	-0.0001095489	-0.0003039509	-0.03701836	-0.07743662	

3.16e+09	-0.009689631	-0.1129552	0.0004306257	0.000813482	0.03326111	-0.06660371	0.0002307316	-8.734271e-05	
0.0004306257	0.000813482	-0.0474619	-0.05444495	-0.0003111887	0.0005357505	0.01273641	-0.008233561	
0.03326111	-0.06660371	-0.0003111887	0.0005357505	0.005743663	-0.1307139	-0.0001711019	-0.0003350831	
0.0002307316	-8.734271e-05	0.01273641	-0.008233561	-0.0001711019	-0.0003350831	-0.05321272	-0.06704154	

3.18e+09	-0.03830477	-0.1038296	0.0006224898	0.0005483546	0.01956716	-0.04349423	0.0001907763	-0.0003115261	
0.0006224898	0.0005483546	-0.05410886	-0.02650765	-0.0001770791	0.0004447542	0.02710902	0.01979506	
0.01956716	-0.04349423	-0.0001770791	0.0004447542	-0.02793036	-0.1283154	-0.0002625297	-0.0004730319	
0.0001907763	-0.0003115261	0.02710902	0.01979506	-0.0002625297	-0.0004730319	-0.05857181	-0.04002992	

3.2e+09	-0.05168979	-0.07848107	0.0006137847	0.0001304304	0.02855739	-0.0210228	-5.379924e-05	-0.0006012679	
0.0006137847	0.0001304304	-0.03499609	0.0005864199	-0.0001858361	0.0002206875	0.05708854	0.02793774	
0.02855739	-0.0210228	-0.0001858361	0.0002206875	-0.04826592	-0.1038851	-0.0005291984	-0.0006556086	
-5.379924e-05	-0.0006012679	0.05708854	0.02793774	-0.0005291984	-0.0006556086	-0.04137977	-0.01427244	

3.22e+09	-0.0446854	-0.05769119	0.0002552956	-0.0002974696	0.04465161	-0.01679856	-0.0005778438	-0.0008348237	
0.0002552956	-0.0002974696	-0.003918171	0.005148925	-0.0004732968	-3.052378e-05	0.07693139	0.01682158	
0.04465161	-0.01679856	-0.0004732968	-3.052378e-05	-0.04423679	-0.08030035	-0.001022884	-0.0007840363	
-0.0005778438	-0.0008348237	0.07693139	0.01682158	-0.001022884	-0.0007840363	-0.01365042	-0.007613337	

3.24e+09	-0.03375468	-0.05078565	-0.0007378358	-0.0006019787	0.04888351	-0.02045343	-0.001691852	-0.001018176	
-0.0007378358	-0.0006019787	0.0166356	-0.006454861	-0.00134107	-0.0002533978	0.08196412	0.009750126	
0.04888351	-0.02045343	-0.00134107	-0.0002533978	-0.03285246	-0.07310004	-0.0020514	-0.000950488	
-0.001691852	-0.001018176	0.08196412	0.009750126	-0.0020514	-0.000950488	0.006505849	-0.0137019	

3.26e+09	-0.02631291	-0.05310005	-0.003804023	0.002864455	0.04995924	-0.01840321	-0.005594067	0.002729618	
-0.003804023	0.002864455	0.02602169	-0.0196458	-0.004661401	0.003042208	0.09231053	0.01107061	
0.04995924	-0.01840321	-0.004661401	0.003042208	-0.02633974	-0.07737248	-0.006285103	0.002484642	
-0.005594067	0.002729618	0.09231053	0.01107061	-0.006285103	0.002484642	0.02176006	-0.02258206	

3.28e+09	-0.03621547	-0.05177873	0.004714696	3.129255e-05	0.04743025	-0.009946714	0.004447924	0.001065225	
0.004714696	3.129255e-05	0.028906	-0.02708858	0.004517476	0.001272954	0.1095393	0.005143708	
0.04743025	-0.009946714	0.004517476	0.001272954	-0.04031419	-0.07946362	0.004242733	0.002031229	
0.004447924	0.001065225	0.1095393	0.005143708	0.004242733	0.002031229	0.03008192	-0.03362472	

3.3e+09	-0.03313418	-0.03021327	-0.001268785	0.00132678	0.06400867	0.006589926	-0.001756916	0.0017916	
-0.001268785	0.00132678	0.0424708	-0.02087337	-0.00148413	0.001743847	0.1283738	-0.002595129	
0.06400867	0.006589926	-0.00148413	0.001743847	-0.04541124	-0.0553633	-0.001989261	0.001862821	
-0.001756916	0.0017916	0.1283738	-0.002595129	-0.001989261	0.001862821	0.04109502	-0.03027351	

3.32e+09	-0.01242703	-0.02306986	0.003146818	0.004905061	0.08930715	-0.003430054	0.002662212	0.005327457	
0.003146818	0.004905061	0.06847998	-0.03904287	0.002385947	0.005616305	0.1418378	-0.03266241	
0.08930715	-0.003430054	0.002385947	0.005616305	-0.02587511	-0.04042869	0.001814941	0.005713459	
0.002662212	0.005327457	0.1418378	-0.03266241	0.001814941	0.005713459	0.06599694	-0.04682188	

3.34e+09	0.002548444	-0.02939474	0.009637489	0.000419164	0.09157457	-0.02395924	0.008948309	0.0009632019	
0.009637489	0.000419164	0.07756941	-0.07228657	0.00915814	0.002058334	0.132123	-0.05851298	
0.09157457	-0.02395924	0.00915814	0.002058334	-0.007043815	-0.04403013	0.008325186	0.002275639	
0.008948309	0.0009632019	0.132123	-0.05851298	0.008325186	0.002275639	0.07677123	-0.07712309	

3.36e+09	0.0200679	-0.03919756	0.003063828	-0.005342176	0.09321206	-0.02834665	0.002765308	-0.004280573	
0.003063828	-0.005342176	0.0706204	-0.1045062	0.003655351	-0.003953229	0.1240161	-0.070045	
0.09321206	-0.02834665	0.003655351	-0.003953229	0.01081856	-0.05419575	0.003100236	-0.003180481	
0.002765308	-0.004280573	0.1240161	-0.070045	0.003100236	-0.003180481	0.07422743	-0.108305	

3.38e+09	0.02274244	-0.05458148	0.000501572	-0.004351589	0.09477518	-0.03127785	0.000589632	-0.003327665	
0.000501572	-0.004351589	0.05279466	-0.1236617	0.001382717	-0.003319968	0.1214306	-0.07878564	
0.09477518	-0.03127785	0.001382717	-0.003319968	0.01172063	-0.06951788	0.001150795	-0.002509849	
0.000589632	-0.003327665	0.1214306	-0.07878564	0.001150795	-0.002509849	0.06136446	-0.1300936	

3.4e+09	0.02401896	-0.06127027	-0.0006745468	-0.003643077	0.1059747	-0.03476074	-0.0003302863	-0.002717804	
-0.0006745468	-0.003643077	0.04173473	-0.1336661	0.0004052697	-0.002912034	0.1232728	-0.09622121	
0.1059747	-0.03476074	0.0004052697	-0.002912034	0.01025272	-0.07238349	0.0003840303	-0.00211949	
-0.0003302863	-0.002717804	0.1232728	-0.09622121	0.0003840303	-0.00211949	0.05197756	-0.1451757	

3.42e+09	0.03461171	-0.07113775	-0.001582341	-0.003046135	0.1210676	-0.05398886	-0.001010323	-0.002232422	
-0.001582341	-0.003046135	0.0362689	-0.1527019	-0.0003763175	-0.002634256	0.1138802	-0.125491	
0.1210676	-0.05398886	-0.0003763175	-0.002634256	0.02255259	-0.07533887	-0.0001973945	-0.001859351	
-0.001010323	-0.002232422	0.1138802	-0.125491	-0.0001973945	-0.001859351	0.04503835	-0.1675006	

3.44e+09	0.04271909	-0.09620159	-0.002332346	-0.002280814	0.1195354	-0.08655144	-0.001533474	-0.001641575	
-0.002332346	-0.002280814	0.01746788	-0.1819434	-0.001088556	-0.002192882	0.08405171	-0.1491008	
0.1195354	-0.08655144	-0.001088556	-0.002192882	0.03779586	-0.09657762	-0.0006811296	-0.001489777	
-0.001533474	-0.001641575	0.08405171	-0.1491008	-0.0006811296	-0.001489777	0.0254566	-0.1971634	

3.46e+09	0.03263407	-0.1285628	-0.002764701	-0.001339487	0.09658654	-0.1108949	-0.001794747	-0.0009704161	
-0.002764701	-0.001339487	-0.02250134	-0.2030671	-0.001556933	-0.00155476	0.04736307	-0.1518133	
0.09658654	-0.1108949	-0.001556933	-0.00155476	0.03474991	-0.1313097	-0.0009450264	-0.00102627	
-0.001794747	-0.0009704161	0.04736307	-0.1518133	-0.0009450264	-0.00102627	-0.01250453	-0.2190634	

3.48e+09	0.00469799	-0.1500765	-0.002819842	-0.0004148894	0.07024778	-0.1150256	-0.001801166	-0.0003661239	
-0.002819842	-0.0004148894	-0.06972506	-0.2001106	-0.001706351	-0.0009103414	0.02219745	-0.1399911	
0.07024778	-0.1150256	-0.001706351	-0.0009103414	0.009005307	-0.1577131	-0.0009913129	-0.0006259557	
-0.001801166	-0.0003661239	0.02219745	-0.1399911	-0.0009913129	-0.0006259557	-0.05728907	-0.2202513	

3.5e+09	-0.02519162	-0.1535168	-0.002632046	0.0003343717	0.05662885	-0.1123447	-0.001684668	9.772736e-05	
-0.002632046	0.0003343717	-0.1037419	-0.1786766	-0.001671503	-0.0004152036	0.007974914	-0.13236	
0.05662885	-0.1123447	-0.001671503	-0.0004152036	-0.02197313	-0.1629451	-0.0009640881	-0.0003573924	
-0.001684668	9.772736e-05	0.007974914	-0.13236	-0.0009640881	-0.0003573924	-0.09248156	-0.2053015	

3.52e+09	-0.04556164	-0.1496792	-0.00235961	0.0009218719	0.04812847	-0.1167164	-0.001537998	0.0004696261	
-0.00235961	0.0009218719	-0.1229369	-0.1584893	-0.001609063	-4.157275e-05	-0.009468578	-0.130908	
0.04812847	-0.1167164	-0.001609063	-4.157275e-05	-0.04108762	-0.1579638	-0.0009549919	-0.0001521103	
-0.001537998	0.0004696261	-0.009468578	-0.130908	-0.0009549919	-0.0001521103	-0.1166163	-0.1894089	

3.54e+09	-0.06134979	-0.1502581	-0.002051933	0.001447479	0.0306396	-0.128076	-0.001367746	0.0008244263	
-0.002051933	0.001447479	-0.1418363	-0.1461083	-0.00155932	0.000326327	-0.03785526	-0.1249098	
0.0306396	-0.128076	-0.00155932	0.000326327	-0.05192391	-0.1591435	-0.0009585744	7.796706e-05	
-0.001367746	0.0008244263	-0.03785526	-0.1249098	-0.0009585744	7.796706e-05	-0.140603	-0.1773969	

3.56e+09	-0.08640275	-0.1544096	-0.00162915	0.001975615	-0.00176059	-0.1311682	-0.001104967	0.001186176	
-0.00162915	0.001975615	-0.1723769	-0.1288136	-0.001427538	0.0007647977	-0.06883028	-0.1011287	
-0.00176059	-0.1311682	-0.001427538	0.0007647977	-0.07228649	-0.1692277	-0.0008904164	0.0003610176	
-0.001104967	0.001186176	-0.06883028	-0.1011287	-0.0008904164	0.0003610176	-0.1732699	-0.1593298	

3.58e+09	-0.1229775	-0.1463512	-0.0009949425	0.002406755	-0.03493121	-0.1134752	-0.0006972795	0.001471117	
-0.0009949425	0.002406755	-0.203322	-0.09026976	-0.001096914	0.00118042	-0.0847024	-0.06267648	
-0.03493121	-0.1134752	-0.001096914	0.00118042	-0.1095323	-0.1695706	-0.0006905888	0.0006101224	
-0.0006972795	0.001471117	-0.0847024	-0.06267648	-0.0006905888	0.0006101224	-0.2052828	-0.1223731	

3.6e+09	-0.1562478	-0.1171863	-0.0002058142	0.002576593	-0.05160206	-0.0832905	-0.0002042493	0.001576726	
-0.0002058142	0.002576593	-0.2134122	-0.03479461	-0.0006094632	0.001408386	-0.08080421	-0.026833	
-0.05160206	-0.0832905	-0.0006094632	0.001408386	-0.1482562	-0.145691	-0.0004180117	0.0007287094	
-0.0002042493	0.001576726	-0.08080421	-0.026833	-0.0004180117	0.0007287094	-0.2191966	-0.07012321	

3.62e+09	-0.1705434	-0.07660945	0.0005457559	0.002434784	-0.05300386	-0.05849614	0.0002476316	0.001496145	
0.0005457559	0.002434784	-0.1967205	0.01524044	-0.000138752	0.00140175	-0.07061167	-0.003651171	
-0.05300386	-0.05849614	-0.000138752	0.00140175	-0.1676	-0.1054617	-0.0001846436	0.0007249141	
0.0002476316	0.001496145	-0.07061167	-0.003651171	-0.0001846436	0.0007249141	-0.2096827	-0.02078128	

3.64e+09	-0.1688294	-0.04156222	0.001129797	0.002118235	-0.05628787	-0.04270934	0.0006004838	0.001330358	
0.001129797	0.002118235	-0.1707341	0.04686773	0.0002082627	0.001288275	-0.06719038	0.0169893	
-0.05628787	-0.04270934	0.0002082627	0.001288275	-0.1669647	-0.07011692	-2.030398e-05	0.0006972444	
0.0006004838	0.001330358	-0.06719038	0.0169893	-2.030398e-05	0.0006972444	-0.1904857	0.01505846	

3.66e+09	-0.1646118	-0.01506776	0.001584552	0.001748131	-0.06475936	-0.02362169	0.0008968394	0.001134537	
0.001584552	0.001748131	-0.1507893	0.07015408	0.0004840532	0.001174459	-0.06185065	0.04550033	
-0.06475936	-0.02362169	0.0004840532	0.001174459	-0.1634102	-0.04676453	0.0001341812	0.0006834222	
0.0008968394	0.001134537	-0.06185065	0.04550033	0.0001341812	0.0006834222	-0.1732311	0.04447819	

3.68e+09	-0.1638729	0.01364558	0.002004835	0.001324055	-0.07087849	0.008778137	0.001189178	0.0008864184	
0.002004835	0.001324055	-0.1314074	0.1003959	0.0007953198	0.001045974	-0.04231106	0.08065908	
-0.07087849	0.008778137	0.0007953198	0.001045974	-0.1673708	-0.023046	0.0003372054	0.0006446307	
0.001189178	0.0008864184	-0.04231106	0.08065908	0.0003372054	0.0006446307	-0.1536298	0.07888719	

3.7e+09	-0.15637	0.05390356	0.0023762	0.0007371023	-0.05893844	0.0490534	0.001442353	0.0005134001	
0.0023762	0.0007371023	-0.09498042	0.1358983	0.001138451	0.0007739229	-0.003822142	0.1062613	
-0.05893844	0.0490534	0.001138451	0.0007739229	-0.1689954	0.01609381	0.0005548797	0.0004954753	
0.001442353	0.0005134001	-0.003822142	0.1062613	0.0005548797	0.0004954753	-0.1180386	0.1163613	

3.72e+09	-0.1275886	0.09652952	0.002534903	-3.156903e-05	-0.02727262	0.07844853	0.001539961	2.715166e-05	
0.002534903	-3.156903e-05	-0.03715089	0.1558225	0.001351607	0.0003161954	0.03983939	0.1099232	
-0.02727262	0.07844853	0.001351607	0.0003161954	-0.1484104	0.06379283	0.0006725492	0.0002391402	
0.001539961	2.715166e-05	0.03983939	0.1099232	0.0006725492	0.0002391402	-0.0631013	0.1396889	

3.74e+09	-0.08008544	0.122804	0.002360274	-0.0008143205	0.007781321	0.08751575	0.001424267	-0.0004451102	
0.002360274	-0.0008143205	0.02360335	0.1464602	0.001310816	-0.0001806061	0.07189393	0.09865266	
0.007781321	0.08751575	0.001310816	-0.0001806061	-0.1036009	0.09759445	0.0006405854	-9.777841e-06	
0.001424267	-0.0004451102	0.07189393	0.09865266	0.0006405854	-9.777841e-06	-0.004039976	0.1371705	

3.76e+09	-0.03165525	0.126118	0.001933966	-0.001408825	0.03249021	0.08780889	0.001175753	-0.0007898055	
0.001933966	-0.001408825	0.0664891	0.1178933	0.001089064	-0.0005375398	0.0935107	0.08934203	
0.03249021	0.08780889	0.001089064	-0.0005375398	-0.05415715	0.105288	0.0005405506	-0.0001638918	
0.001175753	-0.0007898055	0.0935107	0.08934203	0.0005405506	-0.0001638918	0.04162214	0.1164767	

3.78e+09	0.006789356	0.1191968	0.00144216	-0.001794391	0.05404968	0.09312068	0.0009037775	-0.00102481	
0.00144216	-0.001794391	0.09362772	0.09073474	0.0008524479	-0.0007505826	0.1192893	0.08351795	
0.05404968	0.09312068	0.0008524479	-0.0007505826	-0.01677955	0.09978909	0.0004619817	-0.0002635097	
0.0009037775	-0.00102481	0.1192893	0.08351795	0.0004619817	-0.0002635097	0.07517346	0.09394601	

3.8e+09	0.04043364	0.1120265	0.0009458029	-0.002059068	0.08471909	0.09861682	0.0006179958	-0.001204402	
0.0009458029	-0.002059068	0.1199758	0.06861349	0.0006420507	-0.0009174546	0.1515985	0.0684366	
0.08471909	0.09861682	0.0006420507	-0.0009174546	0.01298391	0.09639853	0.0003905776	-0.0003700488	
0.0006179958	-0.001204402	0.1515985	0.0684366	0.0003905776	-0.0003700488	0.1071053	0.07238223	

3.82e+09	0.08052797	0.1022079	0.0003987419	-0.002262532	0.1256505	0.09080884	0.0002821218	-0.001344111	
0.0003987419	-0.002262532	0.15298	0.03804579	0.0003880625	-0.001099635	0.1799995	0.03602953	
0.1256505	0.09080884	0.0003880625	-0.001099635	0.05101734	0.09511107	0.0002689373	-0.0004927338	
0.0002821218	-0.001344111	0.1799995	0.03602953	0.0002689373	-0.0004927338	0.1430088	0.04182683	

3.84e+09	0.1255244	0.07623305	-0.0002547692	-0.002330415	0.161157	0.06199473	-0.0001199603	-0.001383108	
-0.0002547692	-0.002330415	0.1793554	-0.01220175	1.680548e-05	-0.001215684	0.1901232	-0.005746016	
0.161157	0.06199473	1.680548e-05	-0.001215684	0.1000905	0.07859388	7.415727e-05	-0.000559507	
-0.0001199603	-0.001383108	0.1901232	-0.005746016	7.415727e-05	-0.000559507	0.1719814	-0.006386827	

3.86e+09	0.1601489	0.03008389	-0.0009400195	-0.00215162	0.1771279	0.02402608	-0.0005224322	-0.001266261	
-0.0009400195	-0.00215162	0.1816509	-0.07305264	-0.0004063422	-0.001149387	0.1832138	-0.04037603	
0.1771279	0.02402608	-0.0004063422	-0.001149387	0.1429595	0.03731811	-0.0001268767	-0.0005173287	
-0.0005224322	-0.001266261	0.1832138	-0.04037603	-0.0001268767	-0.0005173287	0.1796552	-0.06466921	

3.88e+09	0.1725839	-0.02411134	-0.00149311	-0.001726127	0.1781679	-0.006320458	-0.0008302456	-0.001018344	
-0.00149311	-0.001726127	0.1597423	-0.1236545	-0.0007337279	-0.0009022083	0.1734454	-0.06258099	
0.1781679	-0.006320458	-0.0007337279	-0.0009022083	0.1622877	-0.01713703	-0.0002548285	-0.0004015455	
-0.0008302456	-0.001018344	0.1734454	-0.06258099	-0.0002548285	-0.0004015455	0.165519	-0.1157557	

3.9e+09	0.1671718	-0.07062989	-0.001815918	-0.001198742	0.1804202	-0.02845279	-0.001012253	-0.0007316726	
-0.001815918	-0.001198742	0.1317394	-0.1545254	-0.0008932364	-0.0006038575	0.1692485	-0.08391628	
0.1804202	-0.02845279	-0.0008932364	-0.0006038575	0.1598865	-0.06432257	-0.0003081286	-0.0002944541	
-0.001012253	-0.0007316726	0.1692485	-0.08391628	-0.0003081286	-0.0002944541	0.1439322	-0.1514715	

3.92e+09	0.1580203	-0.1082636	-0.001974581	-0.0007027283	0.1860877	-0.05515702	-0.001118391	-0.0004639388	
-0.001974581	-0.0007027283	0.1105528	-0.178756	-0.0009570599	-0.0003587823	0.1616524	-0.1124895	
0.1860877	-0.05515702	-0.0009570599	-0.0003587823	0.1537599	-0.09956311	-0.0003455058	-0.0002219811	
-0.001118391	-0.0004639388	0.1616524	-0.1124895	-0.0003455058	-0.0002219811	0.1251302	-0.181617	

3.94e+09	0.1486613	-0.1455494	-0.002062415	-0.0002397239	0.1844314	-0.09120375	-0.001191589	-0.000200259	
-0.002062415	-0.0002397239	0.08950515	-0.208359	-0.001011697	-0.0001502967	0.140986	-0.1423062	
0.1844314	-0.09120375	-0.001011697	-0.0001502967	0.1512128	-0.1341917	-0.0003985628	-0.0001497305	
-0.001191589	-0.000200259	0.140986	-0.1423062	-0.0003985628	-0.0001497305	0.1043389	-0.2148106	

3.96e+09	0.1313945	-0.1891999	-0.002108003	0.0002618184	0.1659911	-0.1283573	-0.001234766	9.609409e-05	
-0.002108003	0.0002618184	0.05344591	-0.2411586	-0.00107639	0.0001008012	0.1080499	-0.1617265	
0.1659911	-0.1283573	-0.00107639	0.0001008012	0.1434554	-0.179472	-0.000454032	-3.788674e-05	
-0.001234766	9.609409e-05	0.1080499	-0.1617265	-0.000454032	-3.788674e-05	0.07003406	-0.2495386	

3.98e+09	0.09621356	-0.2315026	-0.002022873	0.000838315	0.134906	-0.1527841	-0.001194533	0.0004359554	
-0.002022873	0.000838315	-0.0001041298	-0.2594	-0.001064755	0.000431054	0.07460477	-0.1657323	
0.134906	-0.1527841	-0.001064755	0.000431054	0.1156336	-0.2284299	-0.0004612596	0.0001132962	
-0.001194533	0.0004359554	0.07460477	-0.1657323	-0.0004612596	0.0001132962	0.02016182	-0.2715024	

4e+09	0.04582971	-0.2581738	-0.001713409	0.001400413	0.104777	-0.1623207	-0.001024506	0.0007619753	
-0.001713409	0.001400413	-0.05471055	-0.2521938	-0.0008957559	0.00076613	0.04971978	-0.1619183	
0.104777	-0.1623207	-0.0008957559	0.00076613	0.06780835	-0.2630095	-0.0003940208	0.0002553915	
-0.001024506	0.0007619753	0.04971978	-0.1619183	-0.0003940208	0.0002553915	-0.03213237	-0.2714851	

4.02e+09	-0.005033938	-0.264092	-0.001215449	0.001788479	0.08233337	-0.1672866	-0.0007545627	0.0009876414	
-0.001215449	0.001788479	-0.09258586	-0.2297351	-0.000599116	0.0009799704	0.0302501	-0.1605857	
0.08233337	-0.1672866	-0.000599116	0.0009799704	0.01672392	-0.2741404	-0.0002843065	0.0003360742	
-0.0007545627	0.0009876414	0.0302501	-0.1605857	-0.0002843065	0.0003360742	-0.07207355	-0.2570987	

4.04e+09	-0.04604024	-0.2595177	-0.0006973831	0.001961729	0.05960907	-0.1766962	-0.0004792556	0.001105376	
-0.0006973831	0.001961729	-0.1163417	-0.2112752	-0.0003086956	0.001046834	0.004889367	-0.1607657	
0.05960907	-0.1766962	-0.0003086956	0.001046834	-0.02289399	-0.2725803	-0.0001955187	0.0003691148	
-0.0004792556	0.001105376	0.004889367	-0.1607657	-0.0001955187	0.0003691148	-0.1011032	-0.2434835	

4.06e+09	-0.08296179	-0.2553301	-0.0002427033	0.002030849	0.02836898	-0.1839958	-0.000228335	0.001177974	
-0.0002427033	0.002030849	-0.143424	-0.19857	-8.73721e-05	0.00106432	-0.02597382	-0.152017	
0.02836898	-0.1839958	-8.73721e-05	0.00106432	-0.05639039	-0.2737422	-0.0001312322	0.0004050936	
-0.000228335	0.001177974	-0.02597382	-0.152017	-0.0001312322	0.0004050936	-0.1322938	-0.2323124	

4.08e+09	-0.1251113	-0.2489727	0.0002047008	0.002079851	-0.009280447	-0.1796004	3.745216e-05	0.001241435	
0.0002047008	0.002079851	-0.1790139	-0.1775204	0.0001229174	0.001108405	-0.05361221	-0.1298799	
-0.009280447	-0.1796004	0.0001229174	0.001108405	-0.09702713	-0.2764471	-5.00635e-05	0.0004653045	
3.745216e-05	0.001241435	-0.05361221	-0.1298799	-5.00635e-05	0.0004653045	-0.1696098	-0.2129998	

4.1e+09	-0.1737352	-0.2288048	0.0007453526	0.002075523	-0.04303597	-0.1605004	0.0003718943	0.001265382	
0.0007453526	0.002075523	-0.2104488	-0.135781	0.0004199176	0.001151525	-0.06922072	-0.09974407	
-0.04303597	-0.1605004	0.0004199176	0.001151525	-0.1491786	-0.2662685	9.065735e-05	0.0005199254	
0.0003718943	0.001265382	-0.06922072	-0.09974407	9.065735e-05	0.0005199254	-0.2033137	-0.1754957	

4.12e+09	-0.2154699	-0.1884305	0.001371176	0.001866972	-0.06501552	-0.1343115	0.0007606649	0.001157297	
0.001371176	0.001866972	-0.218875	-0.08213895	0.0008096426	0.001062846	-0.07269002	-0.07220951	
-0.06501552	-0.1343115	0.0008096426	0.001062846	-0.1985168	-0.2324333	0.0002804828	0.0005003463	
0.0007606649	0.001157297	-0.07269002	-0.07220951	0.0002804828	0.0005003463	-0.2177011	-0.1263493	

4.14e+09	-0.2372792	-0.13738	0.001899505	0.001376124	-0.07785275	-0.1104861	0.001087361	0.00087739	
0.001899505	0.001376124	-0.2041864	-0.03869215	0.001150016	0.0007656901	-0.07290276	-0.05194346	
-0.07785275	-0.1104861	0.001150016	0.0007656901	-0.2276319	-0.1834136	0.0004398395	0.0003791639	
0.001087361	0.00087739	-0.07290276	-0.05194346	0.0004398395	0.0003791639	-0.2116437	-0.08358208	

4.16e+09	-0.2415336	-0.09179824	0.002155353	0.0007508686	-0.09058428	-0.08964062	0.001256529	0.0005237115	
0.002155353	0.0007508686	-0.1864264	-0.01424655	0.001294623	0.000370518	-0.07652773	-0.03173012	
-0.09058428	-0.08964062	0.001294623	0.000370518	-0.2361748	-0.1388956	0.0005085124	0.0002257984	
0.001256529	0.0005237115	-0.07652773	-0.03173012	0.0005085124	0.0002257984	-0.2007536	-0.05529675	

4.18e+09	-0.2422323	-0.05414533	0.00221097	0.0001909503	-0.1053571	-0.06228319	0.001326108	0.0002026317	
0.00221097	0.0001909503	-0.1782456	0.006660579	0.001300968	4.36372e-05	-0.07634585	-0.003319982	
-0.1053571	-0.06228319	0.001300968	4.36372e-05	-0.241086	-0.1048772	0.0005386195	0.0001088591	
0.001326108	0.0002026317	-0.07634585	-0.003319982	0.0005386195	0.0001088591	-0.1952634	-0.02970514	

4.2e+09	-0.2437398	-0.01379787	0.002207782	-0.0003089909	-0.1125857	-0.02582692	0.001365018	-0.0001069259	
0.002207782	-0.0003089909	-0.1687546	0.03799954	0.001298374	-0.0002219002	-0.06382073	0.02680155	
-0.1125857	-0.02582692	0.001298374	-0.0002219002	-0.2507317	-0.06849837	0.000581659	-1.082393e-06	
0.001365018	-0.0001069259	-0.06382073	0.02680155	0.000581659	-1.082393e-06	-0.1871661	0.003561095	

4.22e+09	-0.2363741	0.03600145	0.002169906	-0.0008645635	-0.1050857	0.01381613	0.001370521	-0.0004713197	
0.002169906	-0.0008645635	-0.1412298	0.07323783	0.001315496	-0.0005402216	-0.03898164	0.04867444	
-0.1050857	0.01381613	0.001315496	-0.0005402216	-0.2547867	-0.01839743	0.0006315392	-0.0001643742	
0.001370521	-0.0004713197	-0.03898164	0.04867444	0.0006315392	-0.0001643742	-0.1631439	0.03989087	

4.24e+09	-0.207646	0.08711582	0.001953394	-0.001530391	-0.08396164	0.04604387	0.001245673	-0.0009078612	
0.001953394	-0.001530391	-0.09511995	0.09153598	0.001226318	-0.0009800084	-0.0115469	0.05625211	
-0.08396164	0.04604387	0.001226318	-0.0009800084	-0.2360905	0.03899986	0.0006090514	-0.0004008942	
0.001245673	-0.0009078612	-0.0115469	0.05625211	0.0006090514	-0.0004008942	-0.1221628	0.06216452	

4.26e+09	-0.1601556	0.1217852	0.001409829	-0.002139092	-0.05865406	0.06611013	0.0009085768	-0.001297148	
0.001409829	-0.002139092	-0.05195903	0.08337833	0.0008844063	-0.001414467	0.00816151	0.05541016	
-0.05865406	0.06611013	0.0008844063	-0.001414467	-0.1932965	0.08240806	0.0004452058	-0.0006246627	
0.0009085768	-0.001297148	0.00816151	0.05541016	0.0004452058	-0.0006246627	-0.08159079	0.06159477	

4.28e+09	-0.1112966	0.1338671	0.0006431362	-0.002435205	-0.0368841	0.0798245	0.0004425501	-0.00148621	
0.0006431362	-0.002435205	-0.02902423	0.06491488	0.0003557601	-0.001621327	0.02194348	0.05744024	
-0.0368841	0.0798245	0.0003557601	-0.001621327	-0.1454137	0.1006517	0.0001982802	-0.0007217702	
0.0004425501	-0.00148621	0.02194348	0.05744024	0.0001982802	-0.0007217702	-0.05635778	0.05056695	

4.3e+09	-0.0729007	0.135618	-6.691113e-05	-0.002402969	-0.01423906	0.09536685	1.590219e-05	-0.001488715	
-6.691113e-05	-0.002402969	-0.01788	0.0567772	-0.0001239458	-0.001574529	0.0412888	0.06211406	
-0.01423906	0.09536685	-0.0001239458	-0.001574529	-0.1094825	0.1060589	-8.599744e-06	-0.0007089278	
1.590219e-05	-0.001488715	0.0412888	0.06211406	-8.599744e-06	-0.0007089278	-0.04066253	0.04591217	

4.32e+09	-0.03686299	0.1387362	-0.0006288854	-0.002250898	0.01802204	0.1083109	-0.0003407335	-0.001429143	
-0.0006288854	-0.002250898	0.001528404	0.05548095	-0.0004717417	-0.001456194	0.06722747	0.0577513	
0.01802204	0.1083109	-0.0004717417	-0.001456194	-0.07823942	0.1156026	-0.0001647084	-0.0006850063	
-0.0003407335	-0.001429143	0.06722747	0.0577513	-0.0001647084	-0.0006850063	-0.0187028	0.04519717	

4.34e+09	0.006765145	0.1382245	-0.001146749	-0.00206369	0.05656327	0.1085691	-0.0006917339	-0.001332782	
-0.001146749	-0.00206369	0.03056185	0.04363712	-0.0007883244	-0.001349056	0.08882097	0.04121613	
0.05656327	0.1085691	-0.0007883244	-0.001349056	-0.03661446	0.1259457	-0.0003318988	-0.0006636542	
-0.0006917339	-0.001332782	0.08882097	0.04121613	-0.0003318988	-0.0006636542	0.01054776	0.03519545	

4.36e+09	0.05640246	0.1207683	-0.00171907	-0.001767758	0.0916098	0.0930245	-0.001079266	-0.001144889	
-0.00171907	-0.001767758	0.05223728	0.01261533	-0.00117795	-0.001187445	0.09781948	0.01901241	
0.0916098	0.0930245	-0.00117795	-0.001187445	0.01731574	0.1198961	-0.0005492342	-0.0005945744	
-0.001079266	-0.001144889	0.09781948	0.01901241	-0.0005492342	-0.0005945744	0.0337917	0.008498548	

4.38e+09	0.09587277	0.08215839	-0.002259254	-0.001208357	0.1141841	0.06920683	-0.00143069	-0.0007787425	
-0.002259254	-0.001208357	0.05078425	-0.02307311	-0.001581869	-0.0008213646	0.09634403	0.002911093	
0.1141841	0.06920683	-0.001581869	-0.0008213646	0.06548147	0.08787574	-0.0007631648	-0.000402882	
-0.00143069	-0.0007787425	0.09634403	0.002911093	-0.0007631648	-0.000402882	0.03757489	-0.02342746	

4.4e+09	0.1129688	0.03617681	-0.002525632	-0.0004081584	0.126527	0.04806814	-0.00159589	-0.0002707842	
-0.002525632	-0.0004081584	0.0340091	-0.04208778	-0.001790872	-0.0002475483	0.09593441	-0.004306023	
0.126527	0.04806814	-0.001790872	-0.0002475483	0.08991835	0.04317817	-0.0008581513	-0.0001109975	
-0.00159589	-0.0002707842	0.09593441	-0.004306023	-0.0008581513	-0.0001109975	0.0276067	-0.04281424	

4.42e+09	0.1143088	-0.0005333244	-0.002413446	0.0003710337	0.1384973	0.03111774	-0.001531116	0.0002110982	
-0.002413446	0.0003710337	0.02426718	-0.04380079	-0.001699414	0.0003195718	0.1025507	-0.01250227	
0.1384973	0.03111774	-0.001699414	0.0003195718	0.09487613	0.007434924	-0.0008026309	0.0001549982	
-0.001531116	0.0002110982	0.1025507	-0.01250227	-0.0008026309	0.0001549982	0.02190683	-0.04830678	

4.44e+09	0.1156137	-0.0280169	-0.002106075	0.0009332842	0.1526317	0.008533167	-0.001361906	0.0005674647	
-0.002106075	0.0009332842	0.02910495	-0.04778277	-0.001458402	0.0007043913	0.1068966	-0.02964102	
0.1526317	0.008533167	-0.001458402	0.0007043913	0.1000868	-0.01595194	-0.0006977964	0.0003277632	
-0.001361906	0.0005674647	0.1068966	-0.02964102	-0.0006977964	0.0003277632	0.02699611	-0.0552303	

4.46e+09	0.1190857	-0.05967269	-0.001794404	0.001357097	0.1592735	-0.02253612	-0.001183858	0.0008607546	
-0.001794404	0.001357097	0.0321701	-0.06539556	-0.001240669	0.0009731587	0.1003504	-0.04814019	
0.1592735	-0.02253612	-0.001240669	0.0009731587	0.1120544	-0.0437986	-0.0006136738	0.0004654662	
-0.001183858	0.0008607546	0.1003504	-0.04814019	-0.0006136738	0.0004654662	0.03014735	-0.07273904	

4.48e+09	0.1141268	-0.09928588	-0.001458079	0.001773201	0.1525637	-0.05391478	-0.0009661969	0.001156379	
-0.001458079	0.001773201	0.0200763	-0.08600074	-0.001034093	0.001253117	0.08674899	-0.05821162	
0.1525637	-0.05391478	-0.001034093	0.001253117	0.1179655	-0.08460771	-0.0005196696	0.000625945	
-0.0009661969	0.001156379	0.08674899	-0.05821162	-0.0005196696	0.000625945	0.02097449	-0.09266386	

4.5e+09	0.09075125	-0.1376576	-0.0009591228	0.002203728	0.1358398	-0.07674496	-0.0006266994	0.001448217	
-0.0009591228	0.002203728	-0.003234203	-0.09120067	-0.0007117688	0.00158228	0.07568851	-0.0579541	
0.1358398	-0.07674496	-0.0007117688	0.00158228	0.1027729	-0.1295185	-0.0003455744	0.0008090137	
-0.0006266994	0.001448217	0.07568851	-0.0579541	-0.0003455744	0.0008090137	0.001966543	-0.1003207	

4.52e+09	0.05462827	-0.1594834	-0.0002181089	0.002456938	0.1188674	-0.08917681	-0.0001343893	0.00160679	
-0.0002181089	0.002456938	-0.01691915	-0.07865282	-0.0001801578	0.00180463	0.07388029	-0.0560721	
0.1188674	-0.08917681	-0.0001801578	0.00180463	0.06948361	-0.1587169	-5.73446e-05	0.0009168284	
-0.0001343893	0.00160679	0.07388029	-0.0560721	-5.73446e-05	0.0009168284	-0.01013157	-0.09315667	

4.54e+09	0.02269433	-0.1630684	0.0005817294	0.002339974	0.1071279	-0.09856088	0.0003775846	0.001524949	
0.0005817294	0.002339974	-0.01110213	-0.06763385	0.0004254347	0.001737164	0.07549698	-0.06223712	
0.1071279	-0.09856088	0.0004254347	0.001737164	0.03801748	-0.1662998	0.0002493826	0.0008621986	
0.0003775846	0.001524949	0.07549698	-0.06223712	0.0002493826	0.0008621986	-0.006710983	-0.08633055	

4.56e+09	0.003030335	-0.1625518	0.00116618	0.00194323	0.09534973	-0.1119207	0.0007474494	0.001283062	
0.00116618	0.00194323	-0.0001626948	-0.07398182	0.0008635141	0.001435142	0.06934843	-0.07342884	
0.09534973	-0.1119207	0.0008635141	0.001435142	0.02120807	-0.167785	0.000451092	0.0007052444	
0.0007474494	0.001283062	0.06934843	-0.07342884	0.000451092	0.0007052444	0.001212933	-0.09302809	

4.58e+09	-0.01432468	-0.1684721	0.001522091	0.001522145	0.07484814	-0.1244452	0.0009963708	0.001033395	
0.001522091	0.001522145	-0.002683128	-0.08961284	0.001107161	0.001123278	0.05617055	-0.07724407	
0.07484814	-0.1244452	0.001107161	0.001123278	0.009063305	-0.1788505	0.0005707587	0.0005667286	
0.0009963708	0.001033395	0.05617055	-0.07724407	0.0005707587	0.0005667286	-0.001241019	-0.1072428	

4.6e+09	-0.04074785	-0.1740025	0.001819507	0.001139738	0.04955368	-0.1274666	0.001223692	0.0007851137	
0.001819507	0.001139738	-0.01656615	-0.09544094	0.001311328	0.0008714752	0.04669954	-0.07289863	
0.04955368	-0.1274666	0.001311328	0.0008714752	-0.01507584	-0.1936741	0.0006943975	0.0004494322	
0.001223692	0.0007851137	0.04669954	-0.07289863	0.0006943975	0.0004494322	-0.01290216	-0.1140727	

4.62e+09	-0.07300477	-0.1670219	0.002131842	0.0006748272	0.0277516	-0.1201671	0.001450079	0.0004570412	
0.002131842	0.0006748272	-0.02495292	-0.08800584	0.001562758	0.0005712699	0.045739	-0.06823904	
0.0277516	-0.1201671	0.001562758	0.0005712699	-0.05047418	-0.1960157	0.0008460728	0.0002811722	
0.001450079	0.0004570412	0.045739	-0.06823904	0.0008460728	0.0002811722	-0.0207633	-0.1104147	

4.64e+09	-0.0969977	-0.1441304	0.002341998	-3.142802e-06	0.01464115	-0.1086883	0.001583141	-1.365974e-05	
0.002341998	-3.142802e-06	-0.01704382	-0.08222922	0.00177546	8.30112e-05	0.04851947	-0.07148276	
0.01464115	-0.1086883	0.00177546	8.30112e-05	-0.08085713	-0.1780833	0.000955599	-1.384554e-06	
0.001583141	-1.365974e-05	0.04851947	-0.07148276	0.000955599	-1.384554e-06	-0.01586775	-0.1075861	

4.66e+09	-0.1029569	-0.1188986	0.002218196	-0.0007945349	0.00745503	-0.1010353	0.001485952	-0.0005352102	
0.002218196	-0.0007945349	-0.005206063	-0.0942984	0.001729695	-0.0005392366	0.04419573	-0.08123942	
0.00745503	-0.1010353	0.001729695	-0.0005392366	-0.09130935	-0.1535992	0.0009050046	-0.0003373055	
0.001485952	-0.0005352102	0.04419573	-0.08123942	0.0009050046	-0.0003373055	-0.007554475	-0.1188501	

4.68e+09	-0.09968631	-0.1057106	0.00175778	-0.001406133	-0.002287301	-0.09756419	0.001190064	-0.000923574	
0.00175778	-0.001406133	-0.009237207	-0.1179488	0.00138855	-0.001036426	0.03050866	-0.08630215	
-0.002287301	-0.09756419	0.00138855	-0.001036426	-0.08899863	-0.141876	0.0007104186	-0.0005777328	
0.001190064	-0.000923574	0.03050866	-0.08630215	0.0007104186	-0.0005777328	-0.01188555	-0.1397856	

4.7e+09	-0.1029058	-0.1015852	0.001214646	-0.001719448	-0.01666053	-0.08954325	0.0008603639	-0.001139092	
0.001214646	-0.001719448	-0.03069592	-0.1327472	0.0009710611	-0.0012803	0.01772412	-0.08139254	
-0.01666053	-0.08954325	0.0009710611	-0.0012803	-0.09385588	-0.1427733	0.0005071644	-0.0006912548	
0.0008603639	-0.001139092	0.01772412	-0.08139254	0.0005071644	-0.0006912548	-0.03074697	-0.1541536	

4.72e+09	-0.1134108	-0.09170723	0.0007466671	-0.001892425	-0.02659763	-0.07303673	0.0005616796	-0.001292206	
0.0007466671	-0.001892425	-0.05172814	-0.130717	0.0006342734	-0.001408363	0.01338765	-0.07489284	
-0.02659763	-0.07303673	0.0006342734	-0.001408363	-0.1108125	-0.1380202	0.0003460217	-0.000776995	
0.0005616796	-0.001292206	0.01338765	-0.07489284	0.0003460217	-0.000776995	-0.05020804	-0.1551693	

4.74e+09	-0.1185358	-0.07173127	0.0002785939	-0.002048139	-0.02734281	-0.05573973	0.0002304097	-0.001428437	
0.0002785939	-0.002048139	-0.06018814	-0.1246161	0.0003133454	-0.001550249	0.01145033	-0.07408435	
-0.02734281	-0.05573973	0.0003133454	-0.001550249	-0.1248325	-0.1182961	0.0001649024	-0.0008779273	
0.0002304097	-0.001428437	0.01145033	-0.07408435	0.0001649024	-0.0008779273	-0.0606899	-0.1521204	

4.76e+09	-0.1093568	-0.0522777	-0.0003183471	-0.002138535	-0.02162173	-0.044667	-0.0001967552	-0.001494302	
-0.0003183471	-0.002138535	-0.06386467	-0.1291636	-0.0001282142	-0.001677006	0.004056028	-0.077549	
-0.02162173	-0.044667	-0.0001282142	-0.001677006	-0.1219013	-0.09435202	-0.0001008998	-0.00095058	
-0.0001967552	-0.001494302	0.004056028	-0.077549	-0.0001008998	-0.00095058	-0.06748725	-0.1565532	

4.78e+09	-0.09276269	-0.04726495	-0.001026728	-0.001976536	-0.01766406	-0.04119348	-0.0006782557	-0.001376578	
-0.001026728	-0.001976536	-0.08007745	-0.1417673	-0.0007039752	-0.001609804	-0.01091191	-0.07636533	
-0.01766406	-0.04119348	-0.0007039752	-0.001609804	-0.1064625	-0.08483586	-0.0004272974	-0.0008930381	
-0.0006782557	-0.001376578	-0.01091191	-0.07636533	-0.0004272974	-0.0008930381	-0.08408546	-0.16704	

4.8e+09	-0.08563937	-0.05500061	-0.001611922	-0.00148796	-0.0204184	-0.03773156	-0.001060932	-0.001059822	
-0.001611922	-0.00148796	-0.1118883	-0.1434684	-0.001206513	-0.001251127	-0.02518489	-0.06466258	
-0.0204184	-0.03773156	-0.001206513	-0.001251127	-0.09913787	-0.09206013	-0.0006863153	-0.0006834465	
-0.001060932	-0.001059822	-0.02518489	-0.06466258	-0.0006863153	-0.0006834465	-0.1135058	-0.1687236	

4.82e+09	-0.09236229	-0.0593183	-0.001892967	-0.0008566968	-0.02389246	-0.02721537	-0.001259615	-0.0006705955	
-0.001892967	-0.0008566968	-0.1424046	-0.1240525	-0.001454376	-0.0007541992	-0.03022923	-0.04796606	
-0.02389246	-0.02721537	-0.001454376	-0.0007541992	-0.1091302	-0.09757369	-0.0008068799	-0.0004279424	
-0.001259615	-0.0006705955	-0.03022923	-0.04796606	-0.0008068799	-0.0004279424	-0.1426989	-0.1528118	

4.84e+09	-0.1000333	-0.05094752	-0.001938827	-0.0002973749	-0.01950482	-0.01434345	-0.001336358	-0.0003181189	
-0.001938827	-0.0002973749	-0.1555286	-0.09456287	-0.001501205	-0.0003212824	-0.02846284	-0.03610495	
-0.01950482	-0.01434345	-0.001501205	-0.0003212824	-0.1227553	-0.08691557	-0.000849291	-0.000214746	
-0.001336358	-0.0003181189	-0.02846284	-0.03610495	-0.000849291	-0.000214746	-0.1583459	-0.1273134	

4.86e+09	-0.09689941	-0.03960312	-0.001919234	0.0001793935	-0.009878479	-0.008300787	-0.001376697	1.682037e-05	
-0.001919234	0.0001793935	-0.156062	-0.07313801	-0.001508847	3.265968e-05	-0.02907878	-0.02920084	
-0.009878479	-0.008300787	-0.001508847	3.265968e-05	-0.1228114	-0.06886218	-0.0008890331	-1.722553e-05	
-0.001376697	1.682037e-05	-0.02907878	-0.02920084	-0.0008890331	-1.722553e-05	-0.1634603	-0.1066398	

4.88e+09	-0.08797589	-0.03719866	-0.001857345	0.0006782218	-0.003571086	-0.008681301	-0.001364207	0.0003901495	
-0.001857345	0.0006782218	-0.159791	-0.06066699	-0.001508617	0.0004144094	-0.03343241	-0.01933334	
-0.003571086	-0.008681301	-0.001508617	0.0004144094	-0.1118314	-0.06031574	-0.0009089716	0.0002215834	
-0.001364207	0.0003901495	-0.03343241	-0.01933334	-0.0009089716	0.0002215834	-0.1696454	-0.09207158	

4.9e+09	-0.08696631	-0.04412053	-0.001644899	0.001251717	-0.004405947	-0.009167163	-0.001226596	0.0008072558	
-0.001644899	0.001251717	-0.1727111	-0.04248585	-0.001398019	0.0008909793	-0.03582643	-0.002184962	
-0.004405947	-0.009167163	-0.001398019	0.0008909793	-0.1068891	-0.0657072	-0.0008419254	0.000513107	
-0.001226596	0.0008072558	-0.03582643	-0.002184962	-0.0008419254	0.000513107	-0.1822305	-0.07292389	

4.92e+09	-0.09910073	-0.04612723	-0.001163029	0.00176987	-0.007554208	-0.002586383	-0.0009089618	0.001171404	
-0.001163029	0.00176987	-0.1812201	-0.007848863	-0.001049026	0.001354347	-0.02849122	0.01817189	
-0.007554208	-0.002586383	-0.001049026	0.001354347	-0.1184009	-0.06929882	-0.0006348474	0.0007772913	
-0.0009089618	0.001171404	-0.02849122	0.01817189	-0.0006348474	0.0007772913	-0.1909854	-0.04024693	

4.94e+09	-0.1121761	-0.0327176	-0.0004852017	0.002027244	-0.004059119	0.009044612	-0.0004753686	0.00136584	
-0.0004852017	0.002027244	-0.1688831	0.03337849	-0.0005102706	0.001609552	-0.01170367	0.03222554	
-0.004059119	0.009044612	-0.0005102706	0.001609552	-0.1344222	-0.05524022	-0.0003394498	0.0009156868	
-0.0004753686	0.00136584	-0.01170367	0.03222554	-0.0003394498	0.0009156868	-0.1823256	-0.001272893	

4.96e+09	-0.1118405	-0.01130118	0.0001676947	0.001979208	0.007140967	0.0164608	-5.691345e-05	0.001382129	
0.0001676947	0.001979208	-0.1380339	0.06134122	2.051088e-05	0.001603169	0.005752789	0.03614202	
0.007140967	0.0164608	2.051088e-05	0.001603169	-0.1358253	-0.02892011	-6.282944e-05	0.0009261413	
-5.691345e-05	0.001382129	0.005752789	0.03614202	-6.282944e-05	0.0009261413	-0.1570282	0.02791443	

4.98e+09	-0.09961668	0.002869548	0.0006684014	0.00177684	0.01693643	0.01595339	0.0002925744	0.0013131	
0.0006684014	0.00177684	-0.1071103	0.07011774	0.0004233739	0.001467967	0.0175024	0.03709529	
0.01693643	0.01595339	0.0004233739	0.001467967	-0.1204326	-0.009541703	0.0001592256	0.0008904663	
0.0002925744	0.0013131	0.0175024	0.03709529	0.0001592256	0.0008904663	-0.1293925	0.04141886	

5e+09	-0.08979656	0.006909469	0.001088611	0.001546468	0.02053169	0.01488213	0.000624031	0.001206918	
0.001088611	0.001546468	-0.08672175	0.07430328	0.0007633063	0.00132438	0.02887944	0.04123952	
0.02053169	0.01488213	0.0007633063	0.00132438	-0.1053955	-0.004915017	0.0003789048	0.0008448755	
0.000624031	0.001206918	0.02887944	0.04123952	0.0003789048	0.0008448755	-0.1085311	0.04996465	

5.02e+09	-0.08777763	0.01152497	0.001515119	0.001243072	0.02295237	0.01915307	0.000966221	0.001017402	
0.001515119	0.001243072	-0.06735508	0.08516402	0.001132808	0.001133045	0.0462373	0.04477109	
0.02295237	0.01915307	0.001132808	0.001133045	-0.1013848	-0.003026742	0.000626651	0.0007435133	
0.000966221	0.001017402	0.0462373	0.04477109	0.000626651	0.0007435133	-0.08788708	0.06218148	

5.04e+09	-0.08558617	0.02672269	0.001916563	0.000748393	0.03126042	0.0272558	0.001274138	0.0006816131	
0.001916563	0.000748393	-0.03459177	0.09714496	0.001516212	0.0007725821	0.06885348	0.04022022	
0.03126042	0.0272558	0.001516212	0.0007725821	-0.1013164	0.01116754	0.0008662733	0.0005251091	
0.001274138	0.0006816131	0.06885348	0.04022022	0.0008662733	0.0005251091	-0.05625074	0.07453893	

5.06e+09	-0.06965026	0.04689131	0.002104524	4.923203e-05	0.04741869	0.03065188	0.001426676	0.0002170993	
0.002104524	4.923203e-05	0.009908065	0.09234599	0.001739845	0.0002085543	0.08793468	0.02402652	
0.04741869	0.03065188	0.001739845	0.0002085543	-0.08704462	0.03481536	0.0009932195	0.0001986992	
0.001426676	0.0002170993	0.08793468	0.02402652	0.0009932195	0.0001986992	-0.01428297	0.07266661	

5.08e+09	-0.04020779	0.05632765	0.001956507	-0.0006617843	0.0637577	0.0238114	0.001368349	-0.0002449476	
0.001956507	-0.0006617843	0.04745497	0.06485799	0.001673734	-0.0003949447	0.09577151	0.002952018	
0.0637577	0.0238114	0.001673734	-0.0003949447	-0.05462227	0.04888944	0.0009594857	-0.0001265862	
0.001368349	-0.0002449476	0.09577151	0.002952018	0.0009594857	-0.0001265862	0.02302354	0.05083528	

5.1e+09	-0.01169982	0.04880831	0.001576231	-0.001179858	0.07224184	0.01200788	0.00117929	-0.0005959092	
0.001576231	-0.001179858	0.06437749	0.02913657	0.001398678	-0.0008451687	0.09540288	-0.01348357	
0.07224184	0.01200788	0.001398678	-0.0008451687	-0.02021246	0.04201715	0.0008361647	-0.0003632277	
0.00117929	-0.0005959092	0.09540288	-0.01348357	0.0008361647	-0.0003632277	0.0436086	0.02005956	

5.12e+09	0.005387529	0.03469318	0.001156306	-0.001504859	0.07580635	0.004503461	0.0009603955	-0.0008591452	
0.001156306	-0.001504859	0.06798623	0.002236211	0.001090939	-0.001135159	0.09624628	-0.02563614	
0.07580635	0.004503461	0.001090939	-0.001135159	0.0001785519	0.02435735	0.0007075456	-0.0005417818	
0.0009603955	-0.0008591452	0.09624628	-0.02563614	0.0007075456	-0.0005417818	0.05236136	-0.00564712	

5.14e+09	0.01693339	0.02566036	0.0007380315	-0.001757854	0.08238887	-0.0004307871	0.0007068138	-0.00109261	
0.0007380315	-0.001757854	0.07475296	-0.01757858	0.0007917627	-0.001381265	0.0980653	-0.04115239	
0.08238887	-0.0004307871	0.0007917627	-0.001381265	0.01074927	0.01300842	0.0005595911	-0.0007179987	
0.0007068138	-0.00109261	0.0980653	-0.04115239	0.0005595911	-0.0007179987	0.06182822	-0.02667223	

5.16e+09	0.033833	0.01909583	0.0002338222	-0.001966145	0.09282135	-0.009788022	0.0003676985	-0.00128274	
0.0002338222	-0.001966145	0.08591968	-0.04437874	0.0004107862	-0.001618896	0.09411134	-0.06154721	
0.09282135	-0.009788022	0.0004107862	-0.001618896	0.02660797	0.008146045	0.0003387392	-0.0008799202	
0.0003676985	-0.00128274	0.09411134	-0.06154721	0.0003387392	-0.0008799202	0.07343306	-0.05332288	

5.18e+09	0.05766775	0.003118429	-0.0004107297	-0.002022414	0.1006573	-0.02751407	-6.444266e-05	-0.001351464	
-0.0004107297	-0.002022414	0.08779126	-0.08454246	-0.0001208377	-0.001748229	0.07965095	-0.08070328	
0.1006573	-0.02751407	-0.0001208377	-0.001748229	0.05354497	-0.004825864	3.301443e-05	-0.0009554498	
-6.444266e-05	-0.001351464	0.07965095	-0.08070328	3.301443e-05	-0.0009554498	0.07691253	-0.09098792	

5.2e+09	0.07560074	-0.02842247	-0.001079655	-0.001790472	0.09834429	-0.04867314	-0.0004975717	-0.001232772	
-0.001079655	-0.001790472	0.06805833	-0.125254	-0.0007076998	-0.001627598	0.05836252	-0.09021817	
0.09834429	-0.04867314	-0.0007076998	-0.001627598	0.07749923	-0.03706823	-0.0002779405	-0.0008852847	
-0.0004975717	-0.001232772	0.05836252	-0.09021817	-0.0002779405	-0.0008852847	0.06196141	-0.1297882	

5.22e+09	0.07612916	-0.06570133	-0.001570283	-0.00130599	0.08736812	-0.06399767	-0.0008181827	-0.0009709352	
-0.001570283	-0.00130599	0.03354773	-0.1488873	-0.001160631	-0.001275069	0.03942017	-0.08949593	
0.08736812	-0.06399767	-0.001160631	-0.001275069	0.08189034	-0.07940993	-0.0004991415	-0.0007117897	
-0.0008181827	-0.0009709352	0.03942017	-0.08949593	-0.0004991415	-0.0007117897	0.03329626	-0.1551678	

5.24e+09	0.06288313	-0.09436775	-0.001806862	-0.0007499052	0.0766395	-0.07168536	-0.001005262	-0.000672202	
-0.001806862	-0.0007499052	0.002804458	-0.1538944	-0.001403936	-0.0008519294	0.02669961	-0.08616201	
0.0766395	-0.07168536	-0.001403936	-0.0008519294	0.06786528	-0.113148	-0.0006244129	-0.0005261771	
-0.001005262	-0.000672202	0.02669961	-0.08616201	-0.0006244129	-0.0005261771	0.005693143	-0.1647617	

5.26e+09	0.04921405	-0.1128343	-0.001889897	-0.0002464611	0.06989249	-0.07922728	-0.001123133	-0.0003825643	
-0.001889897	-0.0002464611	-0.0168193	-0.1556338	-0.00152894	-0.000471532	0.01437553	-0.08527377	
0.06989249	-0.07922728	-0.00152894	-0.000471532	0.05203172	-0.1327147	-0.0007176188	-0.0003566975	
-0.001123133	-0.0003825643	0.01437553	-0.08527377	-0.0007176188	-0.0003566975	-0.01423573	-0.1702057	

5.28e+09	0.03960085	-0.1311726	-0.001910767	0.0002393534	0.06087477	-0.09006734	-0.001196788	-6.942552e-05	
-0.001910767	0.0002393534	-0.03645681	-0.1639045	-0.001623172	-9.586558e-05	-0.001747539	-0.08159029	
0.06087477	-0.09006734	-0.001623172	-9.586558e-05	0.04349437	-0.150345	-0.0007975177	-0.0001631267	
-0.001196788	-6.942552e-05	-0.001747539	-0.08159029	-0.0007975177	-0.0001631267	-0.0341821	-0.1791888	

5.3e+09	0.02580385	-0.1557672	-0.00184312	0.0007808399	0.04487433	-0.1002005	-0.00119129	0.000292609	
-0.00184312	0.0007808399	-0.06754803	-0.1703462	-0.001660478	0.0003535513	-0.01860896	-0.0699376	
0.04487433	-0.1002005	-0.001660478	0.0003535513	0.03329835	-0.1769034	-0.0008272458	8.169528e-05	
-0.00119129	0.000292609	-0.01860896	-0.0699376	-0.0008272458	8.169528e-05	-0.0629748	-0.186051	

5.32e+09	-0.001971928	-0.1801892	-0.00157725	0.001359046	0.02365698	-0.1028134	-0.001045211	0.0006679265	
-0.00157725	0.001359046	-0.1058005	-0.1599077	-0.00153131	0.0008691984	-0.0291246	-0.05040464	
0.02365698	-0.1028134	-0.00153131	0.0008691984	0.00743207	-0.2072268	-0.0007510703	0.0003457714	
-0.001045211	0.0006679265	-0.0291246	-0.05040464	-0.0007510703	0.0003457714	-0.09793192	-0.1790246	

5.34e+09	-0.04109074	-0.1910204	-0.001064619	0.001821147	0.004690865	-0.09608356	-0.0007510561	0.0009578573	
-0.001064619	0.001821147	-0.1333277	-0.1305642	-0.001179584	0.001313745	-0.02908879	-0.02969412	
0.004690865	-0.09608356	-0.001179584	0.001313745	-0.0342798	-0.2242551	-0.0005666023	0.0005456346	
-0.0007510561	0.0009578573	-0.02908879	-0.02969412	-0.0005666023	0.0005456346	-0.1248905	-0.1556104	

5.36e+09	-0.07779438	-0.1844344	-0.0004235887	0.002022314	-0.007182566	-0.0856604	-0.0003939354	0.001091806	
-0.0004235887	0.002022314	-0.140139	-0.09819932	-0.0007027751	0.001554304	-0.02214254	-0.01476166	
-0.007182566	-0.0856604	-0.0007027751	0.001554304	-0.07601116	-0.2202528	-0.0003480941	0.0006321351	
-0.0003939354	0.001091806	-0.02214254	-0.01476166	-0.0003480941	0.0006321351	-0.1349286	-0.1279083	

5.38e+09	-0.1029621	-0.1704803	0.0001645874	0.001983684	-0.01534615	-0.0777887	-6.892781e-05	0.001102948	
0.0001645874	0.001983684	-0.1361151	-0.07785923	-0.0002566554	0.001606123	-0.01568584	-0.004717917	
-0.01534615	-0.0777887	-0.0002566554	0.001606123	-0.1042594	-0.2055954	-0.0001668107	0.0006454738	
-6.892781e-05	0.001102948	-0.01568584	-0.004717917	-0.0001668107	0.0006454738	-0.1347163	-0.1085859	

5.4e+09	-0.1227369	-0.1597806	0.0006519906	0.001843926	-0.0258435	-0.07058251	0.0002208491	0.001062796	
0.0006519906	0.001843926	-0.1370767	-0.06503019	0.0001191042	0.001590346	-0.00972879	0.006890917	
-0.0258435	-0.07058251	0.0001191042	0.001590346	-0.1239134	-0.1953316	-9.875627e-06	0.0006466146	
0.0002208491	0.001062796	-0.00972879	0.006890917	-9.875627e-06	0.0006466146	-0.1368447	-0.09507412	

5.42e+09	-0.1464338	-0.1493767	0.001111186	0.001648456	-0.03723028	-0.05826016	0.0005117044	0.0009686479	
0.001111186	0.001648456	-0.1422242	-0.04574535	0.0004970825	0.00154721	0.001925665	0.0198247	
-0.03723028	-0.05826016	0.0004970825	0.00154721	-0.1483584	-0.1886653	0.0001630048	0.0006256957	
0.0005117044	0.0009686479	0.001925665	0.0198247	0.0001630048	0.0006256957	-0.1412651	-0.07727628	

5.44e+09	-0.174117	-0.1288869	0.001587119	0.001329204	-0.04436716	-0.03983634	0.000802635	0.0007749603	
0.001587119	0.001329204	-0.137282	-0.01683179	0.0009284735	0.00140971	0.02171993	0.02848363	
-0.04436716	-0.03983634	0.0009284735	0.00140971	-0.1807272	-0.1723449	0.0003521857	0.0005369681	
0.000802635	0.0007749603	0.02171993	0.02848363	0.0003521857	0.0005369681	-0.1375108	-0.05201588	

5.46e+09	-0.194184	-0.09395584	0.001987369	0.0007958568	-0.04298777	-0.01968134	0.001016093	0.0004510344	
0.001987369	0.0007958568	-0.1134652	0.007456793	0.001339733	0.001082805	0.0453789	0.02609929	
-0.04298777	-0.01968134	0.001339733	0.001082805	-0.2081972	-0.137855	0.0004920313	0.000353873	
0.001016093	0.0004510344	0.0453789	0.02609929	0.0004920313	0.000353873	-0.1180333	-0.03021798	

5.48e+09	-0.1964745	-0.05445027	0.002139795	0.000103579	-0.03450456	-0.004114419	0.001061584	6.545743e-05	
0.002139795	0.000103579	-0.08159463	0.01165623	0.001576764	0.0005961553	0.06370175	0.01268262	
-0.03450456	-0.004114419	0.001576764	0.0005961553	-0.2161644	-0.09430515	0.0005127053	0.0001362479	
0.001061584	6.545743e-05	0.06370175	0.01268262	0.0005127053	0.0001362479	-0.09076582	-0.02483072	

5.5e+09	-0.1851576	-0.02394919	0.001996237	-0.0005499302	-0.02493828	0.005132703	0.0009520537	-0.0002608811	
0.001996237	-0.0005499302	-0.06055234	-0.0008983779	0.001585215	0.0001110465	0.07256593	-0.003676412	
-0.02493828	0.005132703	0.001585215	0.0001110465	-0.2061604	-0.05919342	0.0004382865	-2.101408e-05	
0.0009520537	-0.0002608811	0.07256593	-0.003676412	0.0004382865	-2.101408e-05	-0.0711879	-0.03435228	

5.52e+09	-0.1731526	-0.00405033	0.001687541	-0.001035667	-0.01764745	0.01329831	0.0007787217	-0.0004895146	
0.001687541	-0.001035667	-0.05438483	-0.01286605	0.001470332	-0.0002609	0.07785252	-0.01738498	
-0.01764745	0.01329831	0.001470332	-0.0002609	-0.1939103	-0.03790312	0.000352037	-0.0001041845	
0.0007787217	-0.0004895146	0.07785252	-0.01738498	0.000352037	-0.0001041845	-0.06373091	-0.04535819	

5.54e+09	-0.1646318	0.01602626	0.001340509	-0.001401538	-0.008027645	0.02338023	0.0005830969	-0.0006650585	
0.001340509	-0.001401538	-0.04924003	-0.01637043	0.001339058	-0.0005658331	0.0838202	-0.03323585	
-0.008027645	0.02338023	0.001339058	-0.0005658331	-0.1880822	-0.01787837	0.0002764189	-0.0001687732	
0.0005830969	-0.0006650585	0.0838202	-0.03323585	0.0002764189	-0.0001687732	-0.05834298	-0.05087789	

5.56e+09	-0.1511381	0.0409217	0.0009354538	-0.00171496	0.007502702	0.031215	0.0003372224	-0.0007958747	
0.0009354538	-0.00171496	-0.03656106	-0.02147599	0.001166239	-0.0008726803	0.08560282	-0.05555502	
0.007502702	0.031215	0.001166239	-0.0008726803	-0.1793094	0.01021332	0.0001718173	-0.0002232221	
0.0003372224	-0.0007958747	0.08560282	-0.05555502	0.0001718173	-0.0002232221	-0.04853689	-0.05784402	

5.58e+09	-0.1240469	0.06375145	0.00040215	-0.001946185	0.0272138	0.03157871	2.831866e-05	-0.0008343195	
0.00040215	-0.001946185	-0.02364905	-0.04011609	0.000872958	-0.001161531	0.07639397	-0.08150512	
0.0272138	0.03157871	0.000872958	-0.001161531	-0.1544904	0.04029932	2.152503e-05	-0.0002191354	
2.831866e-05	-0.0008343195	0.07639397	-0.08150512	2.152503e-05	-0.0002191354	-0.03925806	-0.07531772	

5.6e+09	-0.08745344	0.07152885	-0.0002396777	-0.001960504	0.04441146	0.02240953	-0.000279471	-0.000716806	
-0.0002396777	-0.001960504	-0.0263498	-0.0683937	0.000455673	-0.001308	0.05454599	-0.1016384	
0.04441146	0.02240953	0.000455673	-0.001308	-0.1147573	0.05537704	-0.0001132465	-0.000100545	
-0.000279471	-0.000716806	0.05454599	-0.1016384	-0.0001132465	-0.000100545	-0.04300579	-0.1006796	

5.62e+09	-0.05606345	0.06195963	-0.0008221054	-0.001690055	0.05344329	0.008695079	-0.0004754705	-0.0004649653	
-0.0008221054	-0.001690055	-0.04767831	-0.08884519	5.113238e-05	-0.001235442	0.02781095	-0.1095139	
0.05344329	0.008695079	5.113238e-05	-0.001235442	-0.07738542	0.04858144	-0.0001352624	9.972404e-05	
-0.0004754705	-0.0004649653	0.02781095	-0.1095139	-0.0001352624	9.972404e-05	-0.06291161	-0.1200325	

5.64e+09	-0.03817478	0.04692384	-0.001181899	-0.001239815	0.05646403	-0.002667418	-0.0005111415	-0.0001750029	
-0.001181899	-0.001239815	-0.07341101	-0.09114189	-0.0001968211	-0.001023039	0.004369255	-0.1088323	
0.05646403	-0.002667418	-0.0001968211	-0.001023039	-0.05585828	0.03245811	-2.126872e-05	0.0002868827	
-0.0005111415	-0.0001750029	0.004369255	-0.1088323	-2.126872e-05	0.0002868827	-0.08814508	-0.1242617	

5.66e+09	-0.02661382	0.03686028	-0.001303637	-0.000779284	0.06000971	-0.01229858	-0.0004086016	8.149834e-05	
-0.001303637	-0.000779284	-0.08969275	-0.08340601	-0.0002715937	-0.0008117081	-0.01703985	-0.1067891	
0.06000971	-0.01229858	-0.0002715937	-0.0008117081	-0.04398545	0.02246008	0.0001902933	0.0004123048	
-0.0004086016	8.149834e-05	-0.01703985	-0.1067891	0.0001902933	0.0004123048	-0.1073768	-0.1187529	

5.68e+09	-0.01124308	0.0278556	-0.001254754	-0.0003977905	0.06285389	-0.02575519	-0.0001688489	0.0002678164	
-0.001254754	-0.0003977905	-0.09962648	-0.07950231	-0.0002252272	-0.0006750903	-0.04214104	-0.101337	
0.06285389	-0.02575519	-0.0002252272	-0.0006750903	-0.02698066	0.01657266	0.0005102358	0.0004645882	
-0.0001688489	0.0002678164	-0.04214104	-0.101337	0.0005102358	0.0004645882	-0.1218153	-0.1137537	

5.7e+09	0.005566329	0.01032743	-0.001066592	-0.0001500895	0.05919065	-0.04295404	0.0002281395	0.0002840832	
-0.001066592	-0.0001500895	-0.1153398	-0.07867951	-7.258853e-05	-0.0006693857	-0.0696619	-0.08599459	
0.05919065	-0.04295404	-7.258853e-05	-0.0006693857	-0.004591172	0.001282742	0.0009875422	0.0003420444	
0.0002281395	0.0002840832	-0.0696619	-0.08599459	0.0009875422	0.0003420444	-0.1399146	-0.109274	

5.72e+09	0.01265427	-0.0173457	-0.0008071187	-0.0001768659	0.04571894	-0.0579609	0.000696557	-8.480092e-05	
-0.0008071187	-0.0001768659	-0.1402388	-0.06839905	0.0001286508	-0.0009583232	-0.09207947	-0.05814277	
0.04571894	-0.0579609	0.0001286508	-0.0009583232	0.009376597	-0.02896826	0.001556563	-0.0002117477	
0.000696557	-8.480092e-05	-0.09207947	-0.05814277	0.001556563	-0.0002117477	-0.1643934	-0.09629481	

5.74e+09	0.003230177	-0.04314124	-0.0008258014	-0.0006454189	0.02636223	-0.06318506	0.0008030482	-0.001054419	
-0.0008258014	-0.0006454189	-0.1613221	-0.03980368	-8.594629e-07	-0.0017587	-0.1017471	-0.02311637	
0.02636223	-0.06318506	-8.594629e-07	-0.0017587	0.003011563	-0.06118193	0.00174803	-0.001488163	
0.0008030482	-0.001054419	-0.1017471	-0.02311637	0.00174803	-0.001488163	-0.185392	-0.06747715	

5.76e+09	-0.01381393	-0.05515852	-0.001874435	-0.001051454	0.01053939	-0.05826038	-0.0003690847	-0.002126812	
-0.001874435	-0.001051454	-0.1637607	-0.001743546	-0.001355729	-0.002580095	-0.09870808	0.0100264	
0.01053939	-0.05826038	-0.001355729	-0.002580095	-0.0158302	-0.07815696	0.0004786132	-0.003032463	
-0.0003690847	-0.002126812	-0.09870808	0.0100264	0.0004786132	-0.003032463	-0.1903839	-0.02913283	

5.78e+09	-0.02488	-0.05741181	-0.003264002	0.0002213727	0.001937199	-0.05235617	-0.002337579	-0.001387401	
-0.003264002	0.0002213727	-0.1491353	0.02863795	-0.003372494	-0.001536223	-0.09021887	0.03755449	
0.001937199	-0.05235617	-0.003372494	-0.001536223	-0.02891818	-0.08125656	-0.001962852	-0.002662347	
-0.002337579	-0.001387401	-0.09021887	0.03755449	-0.001962852	-0.002662347	-0.1791326	0.004534326	

5.8e+09	-0.03059659	-0.06177172	-0.002943807	0.002233661	-0.007754224	-0.04975033	-0.00267221	0.000563123	
-0.002943807	0.002233661	-0.1320575	0.04743952	-0.003670814	0.0006301016	-0.08009416	0.06529993	
-0.007754224	-0.04975033	-0.003670814	0.0006301016	-0.03332551	-0.0859183	-0.002836331	-0.0007040227	
-0.00267221	0.000563123	-0.08009416	0.06529993	-0.002836331	-0.0007040227	-0.1630674	0.02919357	

5.82e+09	-0.04008387	-0.07013223	-0.001613942	0.003406622	-0.02165723	-0.04294851	-0.001793441	0.001852628	
-0.001613942	0.003406622	-0.1187045	0.06525835	-0.002782994	0.002123145	-0.06153763	0.09552432	
-0.02165723	-0.04294851	-0.002782994	0.002123145	-0.04066011	-0.0981622	-0.002342307	0.0007705643	
-0.001793441	0.001852628	-0.06153763	0.09552432	-0.002342307	0.0007705643	-0.1471928	0.05206589	

5.84e+09	-0.05833955	-0.07426962	-5.905832e-05	0.003797441	-0.03475382	-0.02744691	-0.0006066158	0.002385066	
-5.905832e-05	0.003797441	-0.1001677	0.08930888	-0.001543961	0.002904991	-0.03019152	0.121907	
-0.03475382	-0.02744691	-0.001543961	0.002904991	-0.06034829	-0.1087816	-0.001435693	0.001542289	
-0.0006066158	0.002385066	-0.03019152	0.121907	-0.001435693	0.001542289	-0.125457	0.07836376	

5.86e+09	-0.07907323	-0.06460554	0.001502423	0.00351388	-0.04006164	-0.004670722	0.000600875	0.002314577	
0.001502423	0.00351388	-0.06525156	0.1125649	-0.0001976732	0.003075955	0.01107226	0.1360703	
-0.04006164	-0.004670722	-0.0001976732	0.003075955	-0.08740114	-0.1037922	-0.0004480478	0.001761615	
0.000600875	0.002314577	0.01107226	0.1360703	-0.0004480478	0.001761615	-0.08923128	0.1029388	

5.88e+09	-0.08875331	-0.04313458	0.002828791	0.002532965	-0.03414313	0.01829971	0.001649538	0.001667311	
0.002828791	0.002532965	-0.01626503	0.1189229	0.001031521	0.002633485	0.05349334	0.1347719	
-0.03414313	0.01829971	0.001031521	0.002633485	-0.1047349	-0.08168079	0.000448536	0.001495902	
0.001649538	0.001667311	0.05349334	0.1347719	0.000448536	0.001495902	-0.03967358	0.112722	

5.9e+09	-0.08287407	-0.02331046	0.003475542	0.0009020728	-0.02095813	0.03501849	0.00218317	0.0004162645	
0.003475542	0.0009020728	0.03040538	0.1023909	0.001816321	0.001625691	0.09015806	0.1226725	
-0.02095813	0.03501849	0.001816321	0.001625691	-0.1032008	-0.05760611	0.001026291	0.0007463832	
0.00218317	0.0004162645	0.09015806	0.1226725	0.001026291	0.0007463832	0.01024278	0.1013839	

5.92e+09	-0.0712901	-0.0144005	0.002885375	-0.000606361	-0.007194173	0.04648763	0.001578182	-0.0007936394	
0.002885375	-0.000606361	0.06240154	0.07402026	0.001710312	0.0005441862	0.122251	0.1062038	
-0.007194173	0.04648763	0.001710312	0.0005441862	-0.09219058	-0.04548337	0.0008123254	-0.0001206072	
0.001578182	-0.0007936394	0.122251	0.1062038	0.0008123254	-0.0001206072	0.04914483	0.07660386	

5.94e+09	-0.06406048	-0.01014618	0.002031471	-0.001051126	0.00778234	0.05827162	0.0006969793	-0.000951918	
0.002031471	-0.001051126	0.08510947	0.04651695	0.001278749	0.00016461	0.1546604	0.08330737	
0.00778234	0.05827162	0.001278749	0.00016461	-0.08628207	-0.04096974	0.0002585573	-0.0003045461	
0.0006969793	-0.000951918	0.1546604	0.08330737	0.0002585573	-0.0003045461	0.07981119	0.04867682	

5.96e+09	-0.05770405	-0.002226852	0.001621645	-0.001231743	0.02963051	0.06862976	0.0003069927	-0.000796335	
0.001621645	-0.001231743	0.1079904	0.01750514	0.001134617	2.035947e-05	0.1827733	0.04803493	
0.02963051	0.06862976	0.001134617	2.035947e-05	-0.08441507	-0.03136015	-2.011776e-06	-0.0001946996	
0.0003069927	-0.000796335	0.1827733	0.04803493	-2.011776e-06	-0.0001946996	0.1083058	0.01646364	

5.98e+09	-0.0428686	0.008317284	0.001281052	-0.001514848	0.05886793	0.07120211	8.811177e-05	-0.0007083106	
0.001281052	-0.001514848	0.129797	-0.0227174	0.001055737	-0.0002129507	0.1982131	0.002585514	
0.05886793	0.07120211	0.001055737	-0.0002129507	-0.07370995	-0.01459496	-0.0001278657	-9.617886e-05	
8.811177e-05	-0.0007083106	0.1982131	0.002585514	-0.0001278657	-9.617886e-05	0.1336011	-0.02653128	

6e+09	-0.01700413	0.01028185	0.0008092114	-0.001775488	0.08950112	0.06067658	-0.0001116562	-0.0006230542	
0.0008092114	-0.001775488	0.1384471	-0.07656887	0.0008690815	-0.0004620015	0.1970876	-0.04436861	
0.08950112	0.06067658	0.0008690815	-0.0004620015	-0.0470993	-0.003681982	-0.0002174765	1.70012e-05	
-0.0001116562	-0.0006230542	0.1970876	-0.04436861	-0.0002174765	1.70012e-05	0.146311	-0.08203539	

6.02e+09	0.009433498	-0.004590227	0.0002406084	-0.001863531	0.1129616	0.03898624	-0.0002802725	-0.0004933688	
0.0002406084	-0.001863531	0.1245487	-0.1326402	0.0005940986	-0.0005996826	0.1836193	-0.08505021	
0.1129616	0.03898624	0.0005940986	-0.0005996826	-0.01482878	-0.01209837	-0.000249449	0.0001601434	
-0.0002802725	-0.0004933688	0.1836193	-0.08505021	-0.000249449	0.0001601434	0.1382727	-0.141091	

6.04e+09	0.02392107	-0.03087445	-0.0003009583	-0.001748183	0.1267739	0.01377429	-0.0003979954	-0.0003338394	
-0.0003009583	-0.001748183	0.09289439	-0.1764511	0.0003345802	-0.0006047681	0.164373	-0.1190387	
0.1267739	0.01377429	0.0003345802	-0.0006047681	0.006180395	-0.03662621	-0.0002161685	0.000292562	
-0.0003979954	-0.0003338394	0.164373	-0.1190387	-0.0002161685	0.000292562	0.1122338	-0.1914357	

6.06e+09	0.02573311	-0.05648444	-0.0007467883	-0.001496517	0.1360227	-0.01128469	-0.0004798602	-0.0001588844	
-0.0007467883	-0.001496517	0.05681185	-0.2051489	0.0001350069	-0.0005424107	0.1404855	-0.1504731	
0.1360227	-0.01128469	0.0001350069	-0.0005424107	0.01191542	-0.06208595	-0.0001606644	0.0003927161	
-0.0004798602	-0.0001588844	0.1404855	-0.1504731	-0.0001606644	0.0003927161	0.0783431	-0.2291477	

6.08e+09	0.02395973	-0.07750192	-0.001106018	-0.001144515	0.1425186	-0.04056792	-0.0005308269	6.263962e-05	
-0.001106018	-0.001144515	0.02233025	-0.2280694	-3.606921e-05	-0.000437596	0.1075067	-0.178413	
0.1425186	-0.04056792	-3.606921e-05	-0.000437596	0.01367618	-0.08097014	-0.0001094288	0.0005069848	
-0.0005308269	6.263962e-05	0.1075067	-0.178413	-0.0001094288	0.0005069848	0.04222803	-0.2600335	

6.1e+09	0.02200393	-0.1000796	-0.001345406	-0.0006740227	0.140484	-0.07582324	-0.0004886682	0.0003507559	
-0.001345406	-0.0006740227	-0.01709221	-0.250267	-0.0001640684	-0.0002493907	0.06575183	-0.1962269	
0.140484	-0.07582324	-0.0001640684	-0.0002493907	0.0186497	-0.1012162	-4.769415e-06	0.0006763932	
-0.0004886682	0.0003507559	0.06575183	-0.1962269	-4.769415e-06	0.0006763932	0.0002961029	-0.2875498	

6.12e+09	0.01424961	-0.1292368	-0.001383093	-0.0001154123	0.1247077	-0.1118074	-0.0002832314	0.0006464451	
-0.001383093	-0.0001154123	-0.06825205	-0.2656317	-0.0001698942	2.01083e-05	0.02149447	-0.2004006	
0.1247077	-0.1118074	-0.0001698942	2.01083e-05	0.02054489	-0.1319805	0.0002314	0.0008535184	
-0.0002832314	0.0006464451	0.02149447	-0.2004006	0.0002314	0.0008535184	-0.05211573	-0.3076369	

6.14e+09	-0.007844682	-0.1597675	-0.001152228	0.0004211995	0.09650277	-0.1397478	9.455152e-05	0.0008456103	
-0.001152228	0.0004211995	-0.127161	-0.2632796	1.745445e-05	0.000283914	-0.0188336	-0.1935056	
0.09650277	-0.1397478	1.745445e-05	0.000283914	0.006630841	-0.1695204	0.0006063789	0.0009368888	
9.455152e-05	0.0008456103	-0.0188336	-0.1935056	0.0006063789	0.0009368888	-0.112244	-0.3119404	

6.16e+09	-0.04364327	-0.180262	-0.0006736765	0.0007834978	0.06352267	-0.1559921	0.0005881502	0.0008636523	
-0.0006736765	0.0007834978	-0.1809607	-0.2409294	0.0003864963	0.0004170859	-0.05413889	-0.1807982	
0.06352267	-0.1559921	0.0003864963	0.0004170859	-0.02563602	-0.1992375	0.001056592	0.0008629338	
0.0005881502	0.0008636523	-0.05413889	-0.1807982	0.001056592	0.0008629338	-0.1702023	-0.2977922	

6.18e+09	-0.08315383	-0.1851985	-4.886363e-05	0.0008663932	0.03106133	-0.1645134	0.001126236	0.0006747591	
-4.886363e-05	0.0008663932	-0.2213006	-0.2079605	0.0008666437	0.0003416072	-0.08757524	-0.1640138	
0.03106133	-0.1645134	0.0008666437	0.0003416072	-0.06497448	-0.2118605	0.001533407	0.0006402432	
0.001126236	0.0006747591	-0.08757524	-0.1640138	0.001533407	0.0006402432	-0.2185484	-0.2714312	

6.2e+09	-0.1183545	-0.179767	0.0006511719	0.0006149651	-0.003275057	-0.1694884	0.001725868	0.0002715507	
0.0006511719	0.0006149651	-0.2522445	-0.1740768	0.001438587	6.001119e-06	-0.1206916	-0.1397732	
-0.003275057	-0.1694884	0.001438587	6.001119e-06	-0.09989575	-0.2125781	0.002107696	0.0002729825	
0.001725868	0.0002715507	-0.1206916	-0.1397732	0.002107696	0.0002729825	-0.2589993	-0.2404244	

6.22e+09	-0.1512629	-0.1707312	0.001419421	-0.0002407882	-0.04364151	-0.1665884	0.002553662	-0.0006231767	
0.001419421	-0.0002407882	-0.2826081	-0.1372881	0.002167185	-0.0008857357	-0.1486553	-0.1050203	
-0.04364151	-0.1665884	0.002167185	-0.0008857357	-0.132067	-0.2115978	0.003027195	-0.0005291848	
0.002553662	-0.0006231767	-0.1486553	-0.1050203	0.003027195	-0.0005291848	-0.2977182	-0.2043102	

6.24e+09	-0.1868365	-0.1537425	0.001140778	-0.002766637	-0.08616167	-0.1469765	0.002918587	-0.003594395	
0.001140778	-0.002766637	-0.3097957	-0.08766335	0.002083511	-0.003643321	-0.1659916	-0.06153392	
-0.08616167	-0.1469765	0.002083511	-0.003643321	-0.17083	-0.2053278	0.00384357	-0.003555947	
0.002918587	-0.003594395	-0.1659916	-0.06153392	0.00384357	-0.003555947	-0.3340643	-0.1550675	

6.26e+09	-0.2148996	-0.1244226	-0.002933425	-0.001260299	-0.1121993	-0.1116134	-0.002468258	-0.00384766	
-0.002933425	-0.001260299	-0.3188488	-0.02615812	-0.002707791	-0.002843461	-0.1661347	-0.01617256	
-0.1121993	-0.1116134	-0.002707791	-0.002843461	-0.2070597	-0.1833199	-0.001821131	-0.00479416	
-0.002468258	-0.00384766	-0.1661347	-0.01617256	-0.001821131	-0.00479416	-0.3527947	-0.08933629	

6.28e+09	-0.2386386	-0.09294535	-0.0004126201	-0.00105777	-0.1268338	-0.0828397	-0.0006988192	-0.002513046	
-0.0004126201	-0.00105777	-0.3095018	0.0319839	-0.000452912	-0.001940137	-0.1585299	0.01862298	
-0.1268338	-0.0828397	-0.000452912	-0.001940137	-0.2383009	-0.1566535	-0.000427119	-0.002876462	
-0.0006988192	-0.002513046	-0.1585299	0.01862298	-0.000427119	-0.002876462	-0.3492744	-0.02730448	

6.3e+09	-0.2547248	-0.04886787	-0.002095549	-0.002981665	-0.140302	-0.05087171	-0.002484671	-0.00433848	
-0.002095549	-0.002981665	-0.2858095	0.08390154	-0.001875171	-0.003804144	-0.1498916	0.05375754	
-0.140302	-0.05087171	-0.001875171	-0.003804144	-0.2636849	-0.1159692	-0.001845217	-0.004677174	
-0.002484671	-0.00433848	-0.1498916	0.05375754	-0.001845217	-0.004677174	-0.3339387	0.02950952	

6.32e+09	-0.2515753	-0.002722413	-0.007070809	-0.00277814	-0.1454692	-0.01469928	-0.007653216	-0.004107059	
-0.007070809	-0.00277814	-0.2535298	0.1232716	-0.006402721	-0.004032008	-0.1323072	0.08900732	
-0.1454692	-0.01469928	-0.006402721	-0.004032008	-0.2703577	-0.0706245	-0.006465879	-0.004954275	
-0.007653216	-0.004107059	-0.1323072	0.08900732	-0.006465879	-0.004954275	-0.3076923	0.07785811	

6.34e+09	-0.2371042	0.02772749	-0.01050605	0.006463366	-0.1407242	0.01685508	-0.01158295	0.005070101	
-0.01050605	0.006463366	-0.2230415	0.1535216	-0.01052825	0.003707583	-0.1076773	0.1171392	
-0.1407242	0.01685508	-0.01052825	0.003707583	-0.2646429	-0.03738156	-0.01094853	0.002604269	
-0.01158295	0.005070101	-0.1076773	0.1171392	-0.01094853	0.002604269	-0.2792128	0.1171409	

6.36e+09	-0.2370209	0.05298045	0.0001345205	0.01373834	-0.1401287	0.0453684	-0.001552681	0.01283442	
0.0001345205	0.01373834	-0.1923803	0.1900442	-0.002166018	0.01136544	-0.08234033	0.1429632	
-0.1401287	0.0453684	-0.002166018	0.01136544	-0.2701752	-0.01052076	-0.003130652	0.0105284	
-0.001552681	0.01283442	-0.08234033	0.1429632	-0.003130652	0.0105284	-0.2497802	0.160664	

6.38e+09	-0.2313551	0.1005481	0.006776601	0.007274139	-0.1313268	0.08745169	0.004976058	0.007042003	
0.006776601	0.007274139	-0.1384781	0.2270417	0.004149574	0.006560174	-0.04462689	0.1667827	
-0.1313268	0.08745169	0.004149574	0.006560174	-0.274642	0.03771894	0.00302582	0.006200828	
0.004976058	0.007042003	-0.04462689	0.1667827	0.00302582	0.006200828	-0.1980992	0.2057836	

6.4e+09	-0.2017027	0.1488168	0.007215866	0.002801458	-0.1052889	0.1240646	0.005493112	0.003112031	
0.007215866	0.002801458	-0.06956243	0.2406893	0.004860796	0.002941832	-0.001632878	0.1775225	
-0.1052889	0.1240646	0.004860796	0.002941832	-0.2558638	0.09302568	0.003737659	0.002973388	
0.005493112	0.003112031	-0.001632878	0.1775225	0.003737659	0.002973388	-0.1296076	0.2305806	

6.42e+09	-0.1542688	0.1844379	0.006525275	1.808653e-05	-0.07176754	0.1508702	0.005019179	0.000799145	
0.006525275	1.808653e-05	-0.003011941	0.2294702	0.004485527	0.0007334722	0.04197052	0.1782145	
-0.07176754	0.1508702	0.004485527	0.0007334722	-0.2153298	0.1393564	0.003476373	0.001113665	
0.005019179	0.000799145	0.04197052	0.1782145	0.003476373	0.001113665	-0.05867381	0.2317066	

6.44e+09	-0.09976586	0.2016836	0.005435534	-0.001832745	-0.03437657	0.1698766	0.004260053	-0.0007007333	
0.005435534	-0.001832745	0.05096367	0.2033304	0.003759019	-0.000685434	0.08548343	0.1692358	
-0.03437657	0.1698766	0.003759019	-0.000685434	-0.163741	0.1672652	0.002959568	-4.429938e-05	
0.004260053	-0.0007007333	0.08548343	0.1692358	0.002959568	-4.429938e-05	0.004561075	0.2152317	

6.46e+09	-0.04744945	0.2045486	0.004222831	-0.003042466	0.007632675	0.1821101	0.003416535	-0.001693679	
0.004222831	-0.003042466	0.09538246	0.1728492	0.002950482	-0.001582963	0.1271111	0.1490755	
0.007632675	0.1821101	0.002950482	-0.001582963	-0.1131989	0.1797568	0.002388231	-0.000784887	
0.003416535	-0.001693679	0.1271111	0.1490755	0.002388231	-0.000784887	0.05980045	0.1896974	

6.48e+09	0.002934805	0.1999285	0.003000428	-0.003846458	0.05496176	0.1840487	0.00255871	-0.002367236	
0.003000428	-0.003846458	0.1382042	0.1363307	0.002156612	-0.002180152	0.1621134	0.1173851	
0.05496176	0.1840487	0.002156612	-0.002180152	-0.06432883	0.1862962	0.001818336	-0.00128108	
0.00255871	-0.002367236	0.1621134	0.1173851	0.001818336	-0.00128108	0.112205	0.1552217	

6.5e+09	0.05583998	0.1867399	0.001732417	-0.004356692	0.1027425	0.1715342	0.001674323	-0.00280336	
0.001732417	-0.004356692	0.1765301	0.0853722	0.001332968	-0.002581803	0.1860333	0.07830057	
0.1027425	0.1715342	0.001332968	-0.002581803	-0.009631223	0.1870222	0.001234921	-0.001602594	
0.001674323	-0.00280336	0.1860333	0.07830057	0.001234921	-0.001602594	0.1595127	0.10598	

6.52e+09	0.1099161	0.1581191	0.0003898001	-0.004546822	0.1445055	0.1457873	0.0007581823	-0.003008226	
0.0003898001	-0.004546822	0.198351	0.01993268	0.0004431336	-0.002764104	0.1988445	0.03657371	
0.1445055	0.1457873	0.0004431336	-0.002764104	0.05201264	0.1721439	0.000636173	-0.001756546	
0.0007581823	-0.003008226	0.1988445	0.03657371	0.000636173	-0.001756546	0.1920647	0.0413715	

6.54e+09	0.1556966	0.1107706	-0.0009495838	-0.004333378	0.1766049	0.1114294	-0.0001472639	-0.00295293	
-0.0009495838	-0.004333378	0.1958285	-0.04827047	-0.0004550104	-0.002656616	0.2021305	-0.005301446	
0.1766049	0.1114294	-0.0004550104	-0.002656616	0.1100215	0.1345685	5.709902e-05	-0.001731259	
-0.0001472639	-0.00295293	0.2021305	-0.005301446	5.709902e-05	-0.001731259	0.2019632	-0.02952588	

6.56e+09	0.1833553	0.05138695	-0.002102903	-0.003715356	0.1993962	0.07265312	-0.0009456196	-0.002641013	
-0.002102903	-0.003715356	0.1743311	-0.1055995	-0.001219507	-0.002258257	0.1966746	-0.04642667	
0.1993962	0.07265312	-0.001219507	-0.002258257	0.1508578	0.07977061	-0.0004387233	-0.001541171	
-0.0009456196	-0.002641013	0.1966746	-0.04642667	-0.0004387233	-0.001541171	0.1916308	-0.09448937	

6.58e+09	0.1922713	-0.008743766	-0.002924769	-0.002842228	0.2142569	0.0304513	-0.001553663	-0.002151831	
-0.002924769	-0.002842228	0.1463782	-0.1499208	-0.001741449	-0.001688171	0.1820012	-0.08558509	
0.2142569	0.0304513	-0.001741449	-0.001688171	0.1715652	0.02144316	-0.0008038426	-0.001246364	
-0.001553663	-0.002151831	0.1820012	-0.08558509	-0.0008038426	-0.001246364	0.1705311	-0.149357	

6.6e+09	0.1894513	-0.06446867	-0.003429785	-0.001899596	0.2199901	-0.01598329	-0.001968712	-0.001589685	
-0.003429785	-0.001899596	0.116615	-0.1895624	-0.002042267	-0.001088637	0.1574912	-0.1200022	
0.2199901	-0.01598329	-0.002042267	-0.001088637	0.1804744	-0.03312976	-0.001046128	-0.0009142047	
-0.001968712	-0.001589685	0.1574912	-0.1200022	-0.001046128	-0.0009142047	0.1436327	-0.1988881	

6.62e+09	0.1788971	-0.1193772	-0.003718706	-0.0009458129	0.2125835	-0.06393588	-0.002236801	-0.001000101	
-0.003718706	-0.0009458129	0.07753016	-0.2283049	-0.002207677	-0.0004991413	0.1255795	-0.1455674	
0.2125835	-0.06393588	-0.002207677	-0.0004991413	0.1837635	-0.08888221	-0.001196087	-0.000571017	
-0.002236801	-0.001000101	0.1255795	-0.1455674	-0.001196087	-0.000571017	0.1064234	-0.2459417	

6.64e+09	0.1564473	-0.1752474	-0.003809024	4.587342e-05	0.1920082	-0.1067958	-0.002371531	-0.0003832548	
-0.003809024	4.587342e-05	0.02425029	-0.2575006	-0.002255285	0.0001106964	0.09098954	-0.1615595	
0.1920082	-0.1067958	-0.002255285	0.0001106964	0.175882	-0.1505096	-0.001262696	-0.0002210571	
-0.002371531	-0.0003832548	0.09098954	-0.1615595	-0.001262696	-0.0002210571	0.05532884	-0.2841127	

6.66e+09	0.1171613	-0.2267725	-0.00364726	0.001066533	0.1628988	-0.1406849	-0.002357852	0.000254063	
-0.00364726	0.001066533	-0.03678753	-0.2669269	-0.002145447	0.0007425084	0.05588249	-0.1699376	
0.1628988	-0.1406849	-0.002145447	0.0007425084	0.1484954	-0.2126179	-0.001245156	0.0001297726	
-0.002357852	0.000254063	0.05588249	-0.1699376	-0.001245156	0.0001297726	-0.005307365	-0.3049738	

6.68e+09	0.06326351	-0.2642835	-0.003178684	0.00201492	0.1297872	-0.1660066	-0.002167189	0.0008681302	
-0.003178684	0.00201492	-0.09239897	-0.2563672	-0.001835414	0.001329595	0.02045359	-0.1716054	
0.1297872	-0.1660066	-0.001835414	0.001329595	0.1019303	-0.2629553	-0.001133595	0.0004600749	
-0.002167189	0.0008681302	0.02045359	-0.1716054	-0.001133595	0.0004600749	-0.06496	-0.3066654	

6.7e+09	0.004396431	-0.2833259	-0.00245184	0.002742233	0.09395676	-0.1847511	-0.001812325	0.001381122	
-0.00245184	0.002742233	-0.1355307	-0.2362674	-0.001355598	0.001765373	-0.01470464	-0.1659398	
0.09395676	-0.1847511	-0.001355598	0.001765373	0.04681025	-0.2943512	-0.0009354476	0.0007308517	
-0.001812325	0.001381122	-0.01470464	-0.1659398	-0.0009354476	0.0007308517	-0.116499	-0.296053	

6.72e+09	-0.05127301	-0.2884281	-0.001621496	0.003185113	0.05450442	-0.1968434	-0.001366264	0.001746224	
-0.001621496	0.003185113	-0.1716027	-0.2156569	-0.0008182333	0.002003021	-0.04768539	-0.1522574	
0.05450442	-0.1968434	-0.0008182333	0.002003021	-0.00643562	-0.3111234	-0.0006917437	0.0009163101	
-0.001366264	0.001746224	-0.04768539	-0.1522574	-0.0006917437	0.0009163101	-0.161902	-0.2806488	

6.74e+09	-0.1040521	-0.2861915	-0.0008022423	0.003420377	0.01181585	-0.1995304	-0.0008949634	0.001990455	
-0.0008022423	0.003420377	-0.2087635	-0.1913636	-0.000312753	0.002103982	-0.07567	-0.1310643	
0.01181585	-0.1995304	-0.000312753	0.002103982	-0.05771524	-0.3217343	-0.0004416693	0.001033479	
-0.0008949634	0.001990455	-0.07567	-0.1310643	-0.0004416693	0.001033479	-0.2067956	-0.2595125	

6.76e+09	-0.1587218	-0.2762487	2.444586e-05	0.003528015	-0.02942081	-0.1909063	-0.0003999491	0.002151644	
2.444586e-05	0.003528015	-0.2439679	-0.1542301	0.0001773863	0.002140663	-0.09680654	-0.1055348	
-0.02942081	-0.1909063	0.0001773863	0.002140663	-0.1139896	-0.3265992	-0.0001894911	0.001107405	
-0.0003999491	0.002151644	-0.09680654	-0.1055348	-0.0001894911	0.001107405	-0.2496733	-0.2261518	

6.78e+09	-0.2141415	-0.2526858	0.0009073682	0.003478711	-0.0651351	-0.173934	0.000140329	0.00222057	
0.0009073682	0.003478711	-0.2660064	-0.1047827	0.0007020667	0.002101425	-0.1120566	-0.07782334	
-0.0651351	-0.173934	0.0007020667	0.002101425	-0.1757448	-0.3175747	7.878156e-05	0.001142387	
0.000140329	0.00222057	-0.1120566	-0.07782334	7.878156e-05	0.001142387	-0.2820019	-0.1800705	

6.8e+09	-0.2626743	-0.2130133	0.001825114	0.003185153	-0.09536482	-0.1522015	0.000725474	0.002153589	
0.001825114	0.003185153	-0.2686871	-0.05354269	0.001264628	0.001921483	-0.1218399	-0.04779761	
-0.09536482	-0.1522015	0.001264628	0.001921483	-0.2345794	-0.289578	0.0003742581	0.001119709	
0.000725474	0.002153589	-0.1218399	-0.04779761	0.0003742581	0.001119709	-0.2975238	-0.1283803	

6.82e+09	-0.2967014	-0.1625066	0.002645192	0.002593078	-0.1216314	-0.1265705	0.00129354	0.001904316	
0.002645192	0.002593078	-0.2577065	-0.01165731	0.001781267	0.001546141	-0.1249319	-0.01598198	
-0.1216314	-0.1265705	0.001781267	0.001546141	-0.2804403	-0.2470674	0.0006739169	0.001006039	
0.00129354	0.001904316	-0.1249319	-0.01598198	0.0006739169	0.001006039	-0.298395	-0.0806808	

6.84e+09	-0.3159121	-0.1101359	0.003218185	0.001788351	-0.143795	-0.09589931	0.001752315	0.001495931	
0.003218185	0.001788351	-0.2443945	0.0208231	0.002137303	0.001022969	-0.1204367	0.01557788	
-0.143795	-0.09589931	0.002137303	0.001022969	-0.3113863	-0.2002904	0.0009242524	0.0008019971	
0.001752315	0.001495931	-0.1204367	0.01557788	0.0009242524	0.0008019971	-0.2927007	-0.03947065	

6.86e+09	-0.326253	-0.05964323	0.003533096	0.0009329566	-0.1594351	-0.05976897	0.002070292	0.001011091	
0.003533096	0.0009329566	-0.2314083	0.05299958	0.002316102	0.0004744587	-0.1086722	0.0445254	
-0.1594351	-0.05976897	0.002316102	0.0004744587	-0.334099	-0.1545169	0.001099255	0.0005538535	
0.002070292	0.001011091	-0.1086722	0.0445254	0.001099255	0.0005538535	-0.2839193	0.0006441935	

6.88e+09	-0.3309025	-0.007162537	0.003693053	7.911886e-05	-0.1657771	-0.02050173	0.002289026	0.0004895965	
0.003693053	7.911886e-05	-0.2098375	0.08825067	0.002404122	-5.271841e-05	-0.0908444	0.06890468	
-0.1657771	-0.02050173	0.002404122	-5.271841e-05	-0.3536083	-0.1051465	0.001224554	0.000290759	
0.002289026	0.0004895965	-0.0908444	0.06890468	0.001224554	0.000290759	-0.2663053	0.0428459	

6.9e+09	-0.3250788	0.05038296	0.003719798	-0.0008433424	-0.1631189	0.01754757	0.002418432	-9.507118e-05	
0.003719798	-0.0008433424	-0.1734965	0.1169808	0.002437054	-0.0006204726	-0.06915416	0.08810053	
-0.1631189	0.01754757	0.002437054	-0.0006204726	-0.3647701	-0.04640462	0.001316197	-2.705873e-06	
0.002418432	-9.507118e-05	-0.06915416	0.08810053	0.001316197	-2.705873e-06	-0.2343887	0.08047779	

6.92e+09	-0.3027867	0.1079366	0.00350837	-0.001858449	-0.1540072	0.05320938	0.002404873	-0.0007609771	
0.00350837	-0.001858449	-0.1297411	0.1284344	0.002342708	-0.001276066	-0.04413107	0.1019809	
-0.1540072	0.05320938	0.002342708	-0.001276066	-0.3586558	0.01785495	0.001351717	-0.0003528015	
0.002404873	-0.0007609771	-0.04413107	0.1019809	0.001351717	-0.0003528015	-0.1921839	0.1040436	

6.94e+09	-0.264338	0.156516	0.002938906	-0.002856664	-0.1390652	0.08726929	0.002167333	-0.001459244	
0.002938906	-0.002856664	-0.09184035	0.1229444	0.002011477	-0.001965593	-0.01663364	0.10916	
-0.1390652	0.08726929	0.002011477	-0.001965593	-0.3330309	0.07719242	0.001274079	-0.0007522884	
0.002167333	-0.001459244	-0.01663364	0.10916	0.001274079	-0.0007522884	-0.1501945	0.1110164	

6.96e+09	-0.2173236	0.1906548	0.002026536	-0.003618345	-0.1169684	0.1191527	0.001684375	-0.002057465	
0.002026536	-0.003618345	-0.06583296	0.1120751	0.001418476	-0.002524596	0.01080325	0.1089658	
-0.1169684	0.1191527	0.001418476	-0.002524596	-0.2952645	0.1232092	0.001043489	-0.001126314	
0.001684375	-0.002057465	0.01080325	0.1089658	0.001043489	-0.001126314	-0.1156814	0.1087461	

6.98e+09	-0.1691071	0.2129779	0.0009644542	-0.00402126	-0.0870526	0.1461481	0.001051695	-0.002452842	
0.0009644542	-0.00402126	-0.04418398	0.1043948	0.0006963489	-0.002835239	0.03605712	0.1024183	
-0.0870526	0.1461481	0.0006963489	-0.002835239	-0.2546279	0.157876	0.0007038192	-0.001394111	
0.001051695	-0.002452842	0.03605712	0.1024183	0.0007038192	-0.001394111	-0.08544666	0.1049174	

7e+09	-0.1194401	0.2288569	-8.53783e-05	-0.004145021	-0.05082134	0.1650948	0.0003755982	-0.00266274	
-8.53783e-05	-0.004145021	-0.0182776	0.09464733	-1.719022e-05	-0.00294885	0.05794367	0.09035711	
-0.05082134	0.1650948	-1.719022e-05	-0.00294885	-0.2115555	0.1884228	0.0003282942	-0.001554103	
0.0003755982	-0.00266274	0.05794367	0.09035711	0.0003282942	-0.001554103	-0.05287811	0.09747049	

7.02e+09	-0.0634469	0.2367871	-0.001147364	-0.004084613	-0.01174431	0.1744251	-0.0003382085	-0.002734363	
-0.001147364	-0.004084613	0.007221115	0.07274447	-0.000738112	-0.002958206	0.07499373	0.07390483	
-0.01174431	0.1744251	-0.000738112	-0.002958206	-0.1586672	0.2145047	-7.352399e-05	-0.001644457	
-0.0003382085	-0.002734363	0.07499373	0.07390483	-7.352399e-05	-0.001644457	-0.02046618	0.07845859	

7.04e+09	-0.002485435	0.2293065	-0.002269806	-0.003768647	0.0272024	0.1752716	-0.001106422	-0.002629505	
-0.002269806	-0.003768647	0.01970611	0.04074589	-0.001534475	-0.00282028	0.08678002	0.05507228	
0.0272024	0.1752716	-0.001534475	-0.00282028	-0.09426488	0.2263455	-0.0005257212	-0.001650285	
-0.001106422	-0.002629505	0.08678002	0.05507228	-0.0005257212	-0.001650285	0.001670151	0.04814004	

7.06e+09	0.05450043	0.2026907	-0.003359952	-0.003064834	0.0656855	0.1684138	-0.0018796	-0.002270432	
-0.003359952	-0.003064834	0.01537903	0.01193522	-0.002370335	-0.002408704	0.0928818	0.0350471	
0.0656855	0.1684138	-0.002370335	-0.002408704	-0.02793406	0.2162029	-0.001021999	-0.001511758	
-0.0018796	-0.002270432	0.0928818	0.0350471	-0.001021999	-0.001511758	0.008203424	0.01627883	

7.08e+09	0.09827965	0.1618707	-0.004183032	-0.001956805	0.1027136	0.1528194	-0.002517884	-0.001628269	
-0.004183032	-0.001956805	0.003870158	-0.003880574	-0.003067257	-0.001660536	0.0933734	0.01586133	
0.1027136	0.1528194	-0.003067257	-0.001660536	0.02797042	0.1873334	-0.001479032	-0.001177318	
-0.002517884	-0.001628269	0.0933734	0.01586133	-0.001479032	-0.001177318	0.004563857	-0.00736534	

7.1e+09	0.1272792	0.1164461	-0.004544195	-0.0006475439	0.1352407	0.1280877	-0.002879931	-0.0008078852	
-0.004544195	-0.0006475439	-0.00239886	-0.01105779	-0.003432552	-0.000706475	0.08974216	-0.001108086	
0.1352407	0.1280877	-0.003432552	-0.000706475	0.06951197	0.1508662	-0.001779658	-0.0006909987	
-0.002879931	-0.0008078852	0.08974216	-0.001108086	-0.001779658	-0.0006909987	0.001003791	-0.02325134	

7.12e+09	0.1471307	0.07082503	-0.0044855	0.0006048692	0.1601136	0.09602351	-0.002960487	2.583578e-05	
-0.0044855	0.0006048692	-0.003621211	-0.02119386	-0.003467357	0.000233341	0.08300369	-0.01578876	
0.1601136	0.09602351	-0.003467357	0.000233341	0.1032992	0.113135	-0.001894282	-0.0001700599	
-0.002960487	2.583578e-05	0.08300369	-0.01578876	-0.001894282	-0.0001700599	-0.000250239	-0.03960621	

7.14e+09	0.1607117	0.02154916	-0.00417487	0.001730995	0.1754451	0.05956243	-0.002848711	0.0008087898	
-0.00417487	0.001730995	-0.01037982	-0.03641452	-0.00331369	0.001084361	0.07322877	-0.02734562	
0.1754451	0.05956243	-0.00331369	0.001084361	0.1342788	0.06917592	-0.001883857	0.0003274305	
-0.002848711	0.0008087898	0.07322877	-0.02734562	-0.001883857	0.0003274305	-0.006437882	-0.05941624	

7.16e+09	0.1624015	-0.03413456	-0.003644661	0.002808794	0.1813539	0.02213734	-0.002569632	0.001567895	
-0.003644661	0.002808794	-0.02718505	-0.04580306	-0.003017655	0.001922458	0.06203409	-0.03484181	
0.1813539	0.02213734	-0.003017655	0.001922458	0.155729	0.01287139	-0.001778019	0.0008238207	
-0.002569632	0.001567895	0.06203409	-0.03484181	-0.001778019	0.0008238207	-0.02220206	-0.07490488	

7.18e+09	0.1461986	-0.08950292	-0.002792798	0.003797765	0.1792736	-0.01438748	-0.002071916	0.002274612	
-0.002792798	0.003797765	-0.04415036	-0.04169258	-0.002482346	0.002751125	0.05096782	-0.03895515	
0.1792736	-0.01438748	-0.002482346	0.002751125	0.157384	-0.04981634	-0.001536823	0.001320477	
-0.002071916	0.002274612	0.05096782	-0.03895515	-0.001536823	0.001320477	-0.04089752	-0.07893304	

7.2e+09	0.1139174	-0.1344219	-0.001582399	0.004516095	0.1692378	-0.04939884	-0.001329173	0.002825916	
-0.001582399	0.004516095	-0.04968926	-0.02983272	-0.001632352	0.003433085	0.04080968	-0.04014138	
0.1692378	-0.04939884	-0.001632352	0.003433085	0.1384702	-0.1058608	-0.00111583	0.00175691	
-0.001329173	0.002825916	0.04080968	-0.04014138	-0.00111583	0.00175691	-0.05264399	-0.07369527	

7.22e+09	0.07484621	-0.1640529	-0.0001694059	0.004758285	0.1510033	-0.08075361	-0.000422916	0.003086561	
-0.0001694059	0.004758285	-0.04385068	-0.02321774	-0.000556971	0.00376816	0.0321211	-0.03944477	
0.1510033	-0.08075361	-0.000556971	0.00376816	0.1089884	-0.1473163	-0.0005446346	0.002021311	
-0.000422916	0.003086561	0.0321211	-0.03944477	-0.0005446346	0.002021311	-0.05481631	-0.06903712	

7.24e+09	0.03680673	-0.1826891	0.001159737	0.004513278	0.1260952	-0.1058289	0.0004723747	0.00302585	
0.001159737	0.004513278	-0.0381925	-0.0269818	0.0005032782	0.003702855	0.02448023	-0.03772651	
0.1260952	-0.1058289	0.0005032782	0.003702855	0.07906944	-0.1781952	5.348646e-05	0.002063207	
0.0004723747	0.00302585	0.02448023	-0.03772651	5.348646e-05	0.002063207	-0.05486404	-0.07103701	

7.26e+09	-0.001043063	-0.1965872	0.002254809	0.003973864	0.09721386	-0.1232311	0.001245852	0.002745446	
0.002254809	0.003973864	-0.04067079	-0.0325718	0.00139484	0.003389844	0.01786099	-0.03462578	
0.09721386	-0.1232311	0.00139484	0.003389844	0.04799583	-0.2068548	0.0005822951	0.001947929	
0.001245852	0.002745446	0.01786099	-0.03462578	0.0005822951	0.001947929	-0.06002905	-0.07500895	

7.28e+09	-0.04373882	-0.2045458	0.003185224	0.003277497	0.06699126	-0.1326317	0.001919598	0.002330648	
0.003185224	0.003277497	-0.04523797	-0.03072062	0.002172856	0.002964704	0.01355614	-0.03029095	
0.06699126	-0.1326317	0.002172856	0.002964704	0.008065674	-0.2326002	0.00105517	0.001748485	
0.001919598	0.002330648	0.01355614	-0.03029095	0.00105517	0.001748485	-0.06726751	-0.07322978	

7.3e+09	-0.08979136	-0.1993294	0.004009336	0.002364036	0.03718603	-0.1356037	0.002517999	0.001756123	
0.004009336	0.002364036	-0.04086191	-0.02523683	0.002920324	0.002378704	0.01106956	-0.026644	
0.03718603	-0.1356037	0.002920324	0.002378704	-0.04159106	-0.2453802	0.001508457	0.00144848	
0.002517999	0.001756123	0.01106956	-0.026644	0.001508457	0.00144848	-0.06781553	-0.06703881	

7.32e+09	-0.1304372	-0.179268	0.004599954	0.001158928	0.007978132	-0.1330711	0.002966478	0.0009852062	
0.004599954	0.001158928	-0.02886625	-0.02812026	0.003553055	0.001527027	0.009155572	-0.02415935	
0.007978132	-0.1330711	0.003553055	0.001527027	-0.09057547	-0.2399543	0.0019032	0.0009982281	
0.002966478	0.0009852062	0.009155572	-0.02415935	0.0019032	0.0009982281	-0.06070634	-0.06562578	

7.34e+09	-0.1586466	-0.15055	0.00476027	-0.000255099	-0.01976547	-0.1240654	0.00314692	6.040747e-05	
0.00476027	-0.000255099	-0.02077337	-0.0436699	0.003881561	0.000429941	0.007311309	-0.0224326	
-0.01976547	-0.1240654	0.003881561	0.000429941	-0.1288727	-0.2219598	0.002143467	0.0003968811	
0.00314692	6.040747e-05	0.007311309	-0.0224326	0.002143467	0.0003968811	-0.05378701	-0.07441316	

7.36e+09	-0.1753189	-0.1221223	0.004409685	-0.001616684	-0.04375857	-0.1089078	0.002994315	-0.0008651705	
0.004409685	-0.001616684	-0.02560579	-0.06262006	0.003784241	-0.0007019825	0.005020233	-0.02077813	
-0.04375857	-0.1089078	0.003784241	-0.0007019825	-0.1557687	-0.2021968	0.002148848	-0.0002547817	
0.002994315	-0.0008651705	0.005020233	-0.02077813	0.002148848	-0.0002547817	-0.0555938	-0.08821316	

7.38e+09	-0.1875746	-0.09664871	0.003702013	-0.002704208	-0.06249549	-0.08958519	0.002581994	-0.001644088	
0.003702013	-0.002704208	-0.03887953	-0.07339967	0.003363622	-0.001649715	0.00265601	-0.01850234	
-0.06249549	-0.08958519	0.003363622	-0.001649715	-0.1796873	-0.1847765	0.001950776	-0.000830749	
0.002581994	-0.001644088	0.00265601	-0.01850234	0.001950776	-0.000830749	-0.06503769	-0.09763061	

7.4e+09	-0.1985698	-0.06907161	0.00283783	-0.003523122	-0.07579926	-0.06805857	0.002025016	-0.002254067	
0.00283783	-0.003523122	-0.04926621	-0.07618311	0.002802948	-0.002396991	0.0008394299	-0.01608711	
-0.07579926	-0.06805857	0.002802948	-0.002396991	-0.2056028	-0.1631341	0.001639097	-0.001296712	
0.002025016	-0.002254067	0.0008394299	-0.01608711	0.001639097	-0.001296712	-0.07380727	-0.1006604	

7.42e+09	-0.2028069	-0.03601585	0.001834217	-0.00417134	-0.08402824	-0.04556666	0.001346691	-0.002730459	
0.001834217	-0.00417134	-0.05426807	-0.0812793	0.002130687	-0.003045085	-0.001196404	-0.01422377	
-0.08402824	-0.04556666	0.002130687	-0.003045085	-0.227042	-0.1308715	0.001243946	-0.001685214	
0.001346691	-0.002730459	-0.001196404	-0.01422377	0.001243946	-0.001685214	-0.0783537	-0.1045472	

7.44e+09	-0.1943771	-0.002985652	0.0006129718	-0.004591565	-0.08795447	-0.02271382	0.0005276116	-0.003032138	
0.0006129718	-0.004591565	-0.06354007	-0.0932861	0.001252902	-0.003573526	-0.003991252	-0.01168411	
-0.08795447	-0.02271382	0.001252902	-0.003573526	-0.2343154	-0.09281933	0.0007417766	-0.001984605	
0.0005276116	-0.003032138	-0.003991252	-0.01168411	0.0007417766	-0.001984605	-0.08502013	-0.1140217	

7.46e+09	-0.1759923	0.02132858	-0.0007719584	-0.004608594	-0.08692411	0.0003944518	-0.0003890132	-0.003069447	
-0.0007719584	-0.004608594	-0.08429823	-0.1035442	0.0001637314	-0.003818892	-0.006685206	-0.007860648	
-0.08692411	0.0003944518	0.0001637314	-0.003818892	-0.2277327	-0.06029716	0.0001341847	-0.002127473	
-0.0003890132	-0.003069447	-0.006685206	-0.007860648	0.0001341847	-0.002127473	-0.1005234	-0.1240032	

7.48e+09	-0.1561531	0.03413254	-0.002102772	-0.004121587	-0.08030374	0.02178795	-0.001278666	-0.002786421	
-0.002102772	-0.004121587	-0.1117462	-0.1014675	-0.0009672263	-0.003642778	-0.008668562	-0.002903825	
-0.08030374	0.02178795	-0.0009672263	-0.003642778	-0.2167698	-0.03888588	-0.0005010663	-0.002044597	
-0.001278666	-0.002786421	-0.008668562	-0.002903825	-0.0005010663	-0.002044597	-0.1233125	-0.1257469	

7.5e+09	-0.1410938	0.04128544	-0.003124087	-0.003243006	-0.06963268	0.03957295	-0.001987028	-0.002241193	
-0.003124087	-0.003243006	-0.133691	-0.08662104	-0.001894453	-0.00310605	-0.00922334	0.002795233	
-0.06963268	0.03957295	-0.001894453	-0.00310605	-0.2098772	-0.02268878	-0.001036403	-0.001755958	
-0.001987028	-0.002241193	-0.00922334	0.002795233	-0.001036403	-0.001755958	-0.1443797	-0.1164997	

7.52e+09	-0.1279826	0.04938436	-0.003775612	-0.002216024	-0.05678406	0.05371679	-0.002463858	-0.001575097	
-0.003775612	-0.002216024	-0.1448888	-0.06923264	-0.002541105	-0.002424093	-0.008189678	0.008357187	
-0.05678406	0.05371679	-0.002541105	-0.002424093	-0.2042101	-0.002851496	-0.001417701	-0.001374327	
-0.002463858	-0.001575097	-0.008189678	0.008357187	-0.001417701	-0.001374327	-0.1577077	-0.1028476	

7.54e+09	-0.1105069	0.056866	-0.004177251	-0.001157669	-0.04242658	0.06456373	-0.002766836	-0.0008660133	
-0.004177251	-0.001157669	-0.1522104	-0.05684857	-0.003020905	-0.001707754	-0.006326321	0.01349912	
-0.04242658	0.06456373	-0.003020905	-0.001707754	-0.1905223	0.01962135	-0.001692907	-0.0009617048	
-0.002766836	-0.0008660133	-0.006326321	0.01349912	-0.001692907	-0.0009617048	-0.1667859	-0.09165343	

7.56e+09	-0.08958448	0.05617445	-0.0043814	7.646986e-07	-0.02699316	0.07204311	-0.002922913	-8.675003e-05	
-0.0043814	7.646986e-07	-0.1640409	-0.04469194	-0.003402321	-0.0008792666	-0.00352015	0.01886438	
-0.02699316	0.07204311	-0.003402321	-0.0008792666	-0.1672919	0.03434009	-0.001901774	-0.0004900619	
-0.002922913	-8.675003e-05	-0.00352015	0.01886438	-0.001901774	-0.0004900619	-0.1785354	-0.0809497	

7.58e+09	-0.07359239	0.04584288	-0.004259628	0.00127795	-0.01082306	0.07613254	-0.002862696	0.0007617045	
-0.004259628	0.00127795	-0.1771227	-0.02353883	-0.003566216	0.000127651	0.001259155	0.02370158	
-0.01082306	0.07613254	-0.003566216	0.000127651	-0.1445397	0.03576996	-0.001990311	6.88076e-05	
-0.002862696	0.0007617045	0.001259155	0.02370158	-0.001990311	6.88076e-05	-0.192026	-0.06361809	

7.6e+09	-0.06803821	0.03306693	-0.003682721	0.002513124	0.004913675	0.07612859	-0.002514316	0.001589484	
-0.003682721	0.002513124	-0.1807265	0.006405854	-0.003350056	0.001198834	0.007623362	0.02700875	
0.004913675	0.07612859	-0.003350056	0.001198834	-0.1314981	0.03098792	-0.001878561	0.0006641266	
-0.002514316	0.001589484	0.007623362	0.02700875	-0.001878561	0.0006641266	-0.1994601	-0.03801296	

7.62e+09	-0.06955863	0.02604843	-0.002694556	0.003453842	0.01848557	0.07288842	-0.001893735	0.00224729	
-0.002694556	0.003453842	-0.1700017	0.03511284	-0.002749268	0.002095139	0.01494816	0.02817862	
0.01848557	0.07288842	-0.002749268	0.002095139	-0.1260605	0.03063701	-0.001554491	0.001175652	
-0.001893735	0.00224729	0.01494816	0.02817862	-0.001554491	0.001175652	-0.1951758	-0.01053618	

7.64e+09	-0.06968099	0.02522417	-0.001526616	0.003962494	0.02990771	0.06812844	-0.001130995	0.002637537	
-0.001526616	0.003962494	-0.1515473	0.05330879	-0.001959764	0.002670825	0.02223424	0.02675655	
0.02990771	0.06812844	-0.001959764	0.002670825	-0.1178495	0.03659323	-0.001111603	0.001516035	
-0.001130995	0.002637537	0.02223424	0.02675655	-0.001111603	0.001516035	-0.1822201	0.01028339	

7.66e+09	-0.06570322	0.02366757	-0.0003858409	0.00411937	0.0399779	0.06222181	-0.0003548372	0.002790026	
-0.0003858409	0.00411937	-0.1358667	0.06292315	-0.001159368	0.00298903	0.0283854	0.02319019	
0.0399779	0.06222181	-0.001159368	0.00298903	-0.1022183	0.03995604	-0.0006488159	0.00170802	
-0.0003548372	0.002790026	0.0283854	0.02319019	-0.0006488159	0.00170802	-0.1687541	0.02362674	

7.68e+09	-0.06343447	0.01761578	0.0007151455	0.004052483	0.04839901	0.0549907	0.000410625	0.002771041	
0.0007151455	0.004052483	-0.1240888	0.07335666	-0.0003493691	0.003168094	0.03341666	0.01834287	
0.04839901	0.0549907	-0.0003493691	0.003168094	-0.08658332	0.03379225	-0.0001740778	0.001807537	
0.000410625	0.002771041	0.03341666	0.01834287	-0.0001740778	0.001807537	-0.1576176	0.03592558	

7.7e+09	-0.06821494	0.01255671	0.001838814	0.003731536	0.05492236	0.04689321	0.001184627	0.002565062	
0.001838814	0.003731536	-0.1073663	0.08728535	0.0005554094	0.003174174	0.03738993	0.01172088	
0.05492236	0.04689321	0.0005554094	0.003174174	-0.08049172	0.02350693	0.000345524	0.001796983	
0.001184627	0.002565062	0.03738993	0.01172088	0.000345524	0.001796983	-0.143011	0.05078335	

7.72e+09	-0.07586429	0.01540719	0.002895033	0.003041997	0.0595585	0.0382124	0.00190531	0.002115467	
0.002895033	0.003041997	-0.08117794	0.09612916	0.001497937	0.002869557	0.03883746	0.003235471	
0.0595585	0.0382124	0.001497937	0.002869557	-0.08143067	0.01989583	0.0008734008	0.001614042	
0.00190531	0.002115467	0.03883746	0.003235471	0.0008734008	0.001614042	-0.120336	0.06258958	

7.74e+09	-0.07799905	0.02573532	0.003673283	0.001982658	0.0622722	0.02983183	0.00244915	0.001430079	
0.003673283	0.001982658	-0.05222134	0.09155376	0.002284022	0.002212753	0.03693855	-0.005939346	
0.0622722	0.02983183	0.002284022	0.002212753	-0.07872405	0.0248367	0.001313202	0.001241269	
0.00244915	0.001430079	0.03693855	-0.005939346	0.001313202	0.001241269	-0.09299387	0.06398464	

7.76e+09	-0.07110693	0.03570088	0.003999405	0.0007422567	0.06396616	0.02199785	0.002712611	0.0006056445	
0.003999405	0.0007422567	-0.03169115	0.07583447	0.002738483	0.001350767	0.03133918	-0.01435878	
0.06396616	0.02199785	0.002738483	0.001350767	-0.06645829	0.02935317	0.001572537	0.0007536358	
0.002712611	0.0006056445	0.03133918	-0.01435878	0.001572537	0.0007536358	-0.06990031	0.05429844	

7.78e+09	-0.06046339	0.03901082	0.003911896	-0.0004239386	0.06487256	0.01398091	0.002701919	-0.0001943491	
0.003911896	-0.0004239386	-0.02258753	0.059966	0.002875476	0.000499281	0.02254649	-0.02032591	
0.06487256	0.01398091	0.002875476	0.000499281	-0.050644	0.02458048	0.00165663	0.0002637865	
0.002701919	-0.0001943491	0.02254649	-0.02032591	0.00165663	0.0002637865	-0.05591897	0.04116679	

7.8e+09	-0.0530422	0.03810065	0.003583787	-0.00143363	0.06436354	0.005706362	0.002511007	-0.000912592	
0.003583787	-0.00143363	-0.01673445	0.05030561	0.00283552	-0.0002716211	0.01201688	-0.02307438	
0.06436354	0.005706362	0.00283552	-0.0002716211	-0.04144301	0.01297951	0.001633062	-0.0001910519	
0.002511007	-0.000912592	0.01201688	-0.02307438	0.001633062	-0.0001910519	-0.04653663	0.03120063	

7.82e+09	-0.04804688	0.0397761	0.003078378	-0.002365881	0.06245908	-0.00211869	0.002174575	-0.001580733	
0.003078378	-0.002365881	-0.00680147	0.04120037	0.002668743	-0.001041305	0.0005115927	-0.02304032	
0.06245908	-0.00211869	0.002668743	-0.001041305	-0.03954235	0.004694142	0.001520787	-0.0006452224	
0.002174575	-0.001580733	0.0005115927	-0.02304032	0.001520787	-0.0006452224	-0.03530538	0.02194148	

7.84e+09	-0.03832377	0.04453977	0.002292757	-0.003223481	0.05931193	-0.009557256	0.001639012	-0.002183991	
0.002292757	-0.003223481	0.002966458	0.02429658	0.00226514	-0.001830154	-0.01218348	-0.01937703	
0.05931193	-0.009557256	0.00226514	-0.001830154	-0.03522062	0.003236321	0.001264815	-0.001094304	
0.001639012	-0.002183991	-0.01218348	-0.01937703	0.001264815	-0.001094304	-0.0238149	0.006738936	

7.86e+09	-0.02154552	0.04506986	0.001180277	-0.003820648	0.05472778	-0.01631194	0.0008893613	-0.002608452	
0.001180277	-0.003820648	0.002854154	0.002312981	0.001546948	-0.002474674	-0.02450518	-0.01073153	
0.05472778	-0.01631194	0.001546948	-0.002474674	-0.02286098	2.792997e-05	0.0008372863	-0.001447829	
0.0008893613	-0.002608452	-0.02450518	-0.01073153	0.0008372863	-0.001447829	-0.01955345	-0.01398858	

7.88e+09	-0.003222776	0.03552913	-0.0001134223	-0.003959076	0.04918743	-0.02218005	1.198358e-05	-0.002735474	
-0.0001134223	-0.003959076	-0.008827923	-0.01417714	0.0006152813	-0.002778797	-0.03431109	0.002748551	
0.04918743	-0.02218005	0.0006152813	-0.002778797	-0.008067464	-0.01361421	0.0002950482	-0.001606328	
1.198358e-05	-0.002735474	-0.03431109	0.002748551	0.0002950482	-0.001606328	-0.02584593	-0.03278541	

7.9e+09	0.00838453	0.01814662	-0.001310601	-0.003616549	0.04249586	-0.02726615	-0.0008229824	-0.00254042	
-0.001310601	-0.003616549	-0.02280909	-0.01859601	-0.0002915388	-0.002697692	-0.03966158	0.0199824	
0.04249586	-0.02726615	-0.0002915388	-0.002697692	-0.001644866	-0.03587731	-0.0002330712	-0.00154421	
-0.0008229824	-0.00254042	-0.03966158	0.0199824	-0.0002330712	-0.00154421	-0.03714919	-0.04266001	

7.92e+09	0.0116487	0.0008544666	-0.00223724	-0.002974315	0.03435863	-0.03096489	-0.001494854	-0.002123022	
-0.00223724	-0.002974315	-0.02938362	-0.01636815	-0.001017113	-0.002377687	-0.03939595	0.03901277	
0.03435863	-0.03096489	-0.001017113	-0.002377687	-0.006442259	-0.05634188	-0.0006575221	-0.00133685	
-0.001494854	-0.002123022	-0.03939595	0.03901277	-0.0006575221	-0.00133685	-0.04499376	-0.04537228	

7.94e+09	0.01253769	-0.01254338	-0.002925935	-0.00219925	0.02534162	-0.03263022	-0.002003283	-0.001586644	
-0.002925935	-0.00219925	-0.02990909	-0.01740751	-0.001595159	-0.001961444	-0.03375207	0.05801515	
0.02534162	-0.03263022	-0.001595159	-0.001961444	-0.01437101	-0.06885017	-0.000986841	-0.001061967	
-0.002003283	-0.001586644	-0.03375207	0.05801515	-0.000986841	-0.001061967	-0.04800817	-0.04841206	

7.96e+09	0.0153957	-0.02682375	-0.003447441	-0.001286888	0.01604299	-0.03235384	-0.002376344	-0.0009413411	
-0.003447441	-0.001286888	-0.0333752	-0.02276702	-0.002103094	-0.001431409	-0.02307399	0.07642473	
0.01604299	-0.03235384	-0.002103094	-0.001431409	-0.01781407	-0.078983	-0.001252456	-0.0007178688	
-0.002376344	-0.0009413411	-0.02307399	0.07642473	-0.001252456	-0.0007178688	-0.05232196	-0.05442757	

7.98e+09	0.01591113	-0.04717818	-0.003721391	-0.0001852618	0.006725947	-0.0296907	-0.00256291	-0.0001796656	
-0.003721391	-0.0001852618	-0.04242945	-0.02403476	-0.002477419	-0.0007094527	-0.00620348	0.0930785	
0.006725947	-0.0296907	-0.002477419	-0.0007094527	-0.02046053	-0.09535865	-0.001418068	-0.0002828431	
-0.00256291	-0.0001796656	-0.00620348	0.0930785	-0.001418068	-0.0002828431	-0.06132739	-0.05805529	

8e+09	0.007107199	-0.07055695	-0.003595605	0.001008648	-0.001643064	-0.02472447	-0.0024845	0.0006319059	
-0.003595605	0.001008648	-0.04880557	-0.01659576	-0.002566234	0.0001497657	0.01679978	0.1051666	
-0.001643064	-0.02472447	-0.002566234	0.0001497657	-0.03205768	-0.1161471	-0.001419058	0.0002029727	
-0.0024845	0.0006319059	0.01679978	0.1051666	-0.001419058	0.0002029727	-0.07005115	-0.05441561	

8.02e+09	-0.01196316	-0.08894912	-0.003031417	0.002074877	-0.00880265	-0.01803213	-0.002120918	0.001363697	
-0.003031417	0.002074877	-0.04457093	-0.006462477	-0.002310128	0.0009663473	0.04424797	0.1103708	
-0.00880265	-0.01803213	-0.002310128	0.0009663473	-0.05494975	-0.131555	-0.001234621	0.0006498409	
-0.002120918	0.001363697	0.04424797	0.1103708	-0.001234621	0.0006498409	-0.07142478	-0.04620676	

8.04e+09	-0.03449226	-0.09740315	-0.002176899	0.002821663	-0.01443447	-0.009499714	-0.001555388	0.001897609	
-0.002176899	0.002821663	-0.03180702	-0.004407931	-0.001815643	0.001574424	0.07349039	0.1071614	
-0.01443447	-0.009499714	-0.001815643	0.001574424	-0.08107409	-0.1346104	-0.0009228532	0.0009741856	
-0.001555388	0.001897609	0.07349039	0.1071614	-0.0009228532	0.0009741856	-0.06453935	-0.04172043	

8.06e+09	-0.05363646	-0.09932283	-0.001236388	0.003239476	-0.01766923	0.0006170231	-0.0009094257	0.002214106	
-0.001236388	0.003239476	-0.02089441	-0.01319869	-0.001246086	0.001962761	0.1015867	0.09562002	
-0.01766923	0.0006170231	-0.001246086	0.001962761	-0.1009705	-0.1294225	-0.0005671863	0.001169632	
-0.0009094257	0.002214106	0.1015867	0.09562002	-0.0005671863	0.001169632	-0.05625682	-0.04555587	

8.08e+09	-0.07036066	-0.1010098	-0.0002827847	0.003427855	-0.01806541	0.01136319	-0.0002342748	0.002358794	
-0.0002827847	0.003427855	-0.0179319	-0.02537305	-0.0006516474	0.002219828	0.1268713	0.07686627	
-0.01806541	0.01136319	-0.0006516474	0.002219828	-0.115008	-0.1250703	-0.0001950223	0.001275072	
-0.0002342748	0.002358794	0.1268713	0.07686627	-0.0001950223	0.001275072	-0.05289187	-0.05378559	

8.1e+09	-0.09058275	-0.1023132	0.0007286479	0.00339826	-0.01567936	0.02203855	0.0004780619	0.002329349	
0.0007286479	0.00339826	-0.01826872	-0.0340996	2.72416e-05	0.002357643	0.1484632	0.0509114	
-0.01567936	0.02203855	2.72416e-05	0.002357643	-0.1314619	-0.1234077	0.0002143113	0.001287992	
0.0004780619	0.002329349	0.1484632	0.0509114	0.0002143113	0.001287992	-0.05266691	-0.06039449	

8.12e+09	-0.114989	-0.09686406	0.001760536	0.003046021	-0.01025803	0.03175946	0.00118223	0.002070906	
0.001760536	0.003046021	-0.01537552	-0.04256724	0.0007883159	0.002271391	0.163396	0.01730655	
-0.01025803	0.03175946	0.0007883159	0.002271391	-0.1536806	-0.1164387	0.0006372531	0.001158728	
0.00118223	0.002070906	0.163396	0.01730655	0.0006372531	0.001158728	-0.05050979	-0.06627958	

8.14e+09	-0.1371309	-0.08116362	0.002639178	0.002321024	-0.002481676	0.03971053	0.001769205	0.001569891	
0.002639178	0.002321024	-0.01172309	-0.05840305	0.001497158	0.001886507	0.1681197	-0.02158763	
-0.002481676	0.03971053	0.001497158	0.001886507	-0.1743473	-0.09823966	0.0009968176	0.0008682017	
0.001769205	0.001569891	0.1681197	-0.02158763	0.0009968176	0.0008682017	-0.04642423	-0.07717133	

8.16e+09	-0.1503772	-0.0591442	0.00317862	0.00133271	0.007283211	0.04569015	0.00212875	0.0008995255	
0.00317862	0.00133271	-0.01644855	-0.08201891	0.001989987	0.001265516	0.1609395	-0.06155661	
0.007283211	0.04569015	0.001989987	0.001265516	-0.1846354	-0.07269261	0.001212728	0.0004632654	
0.00212875	0.0008995255	0.1609395	-0.06155661	0.001212728	0.0004632654	-0.0469076	-0.09541289	

8.18e+09	-0.1547562	-0.03852769	0.003330631	0.0002953409	0.01890934	0.04885739	0.002230388	0.0001915764	
0.003330631	0.0002953409	-0.03487978	-0.1043657	0.002207455	0.0005733536	0.1427192	-0.09834147	
0.01890934	0.04885739	0.002207455	0.0005733536	-0.1835944	-0.04988149	0.001261995	3.571802e-05	
0.002230388	0.0001915764	0.1427192	-0.09834147	0.001261995	3.571802e-05	-0.05797593	-0.1156744	

8.2e+09	-0.1563979	-0.02223087	0.003196754	-0.0006516654	0.03142658	0.04826903	0.002127412	-0.0004657571	
0.003196754	-0.0006516654	-0.0617404	-0.1164107	0.002224528	-7.522947e-05	0.1156762	-0.1296862	
0.03142658	0.04826903	0.002224528	-7.522947e-05	-0.1792882	-0.03446057	0.001184239	-0.0003553339	
0.002127412	-0.0004657571	0.1156762	-0.1296862	0.001184239	-0.0003553339	-0.07799323	-0.1299052	

8.22e+09	-0.1590201	-0.005914377	0.002867481	-0.001510508	0.043463	0.04399881	0.001865774	-0.001056636	
0.002867481	-0.001510508	-0.08798807	-0.1185192	0.002115472	-0.0006904622	0.08105827	-0.1548132	
0.043463	0.04399881	0.002115472	-0.0006904622	-0.1780387	-0.02122983	0.001010918	-0.0007062762	
0.001865774	-0.001056636	0.08105827	-0.1548132	0.001010918	-0.0007062762	-0.1001751	-0.1359735	

8.24e+09	-0.1586864	0.01463709	0.002315896	-0.002296095	0.0542719	0.03623045	0.001437774	-0.001561214	
0.002315896	-0.002296095	-0.1114379	-0.1174721	0.001847164	-0.001303707	0.03873842	-0.1715608	
0.0542719	0.03623045	0.001847164	-0.001303707	-0.1759732	-0.003071624	0.0007274137	-0.001006324	
0.001437774	-0.001561214	0.03873842	-0.1715608	0.0007274137	-0.001006324	-0.1210561	-0.1381839	

8.26e+09	-0.1501208	0.03601309	0.001503843	-0.002904806	0.06265335	0.02504053	0.0008554684	-0.001903503	
0.001503843	-0.002904806	-0.1373728	-0.1153512	0.001357302	-0.001837572	-0.008791772	-0.1758604	
0.06265335	0.02504053	0.001357302	-0.001837572	-0.1651464	0.01729931	0.0003363947	-0.001194122	
0.0008554684	-0.001903503	-0.008791772	-0.1758604	0.0003363947	-0.001194122	-0.1435804	-0.139042	

8.28e+09	-0.1339389	0.05128027	0.0005067466	-0.003190102	0.06773153	0.01122272	0.0001919639	-0.002012767	
0.0005067466	-0.003190102	-0.1687124	-0.106285	0.0006800314	-0.002154424	-0.05613848	-0.1663318	
0.06773153	0.01122272	0.0006800314	-0.002154424	-0.1449652	0.03060182	-0.0001054299	-0.001212625	
0.0001919639	-0.002012767	-0.05613848	-0.1663318	-0.0001054299	-0.001212625	-0.1709393	-0.1354363	

8.3e+09	-0.1168763	0.05730768	-0.0004905188	-0.003091426	0.06862531	-0.004550269	-0.0004351411	-0.001874353	
-0.0004905188	-0.003091426	-0.2000777	-0.08426933	-3.821832e-05	-0.002176464	-0.09873569	-0.1450672	
0.06862531	-0.004550269	-3.821832e-05	-0.002176464	-0.1239233	0.0317259	-0.000505216	-0.00105164	
-0.0004351411	-0.001874353	-0.09873569	-0.1450672	-0.000505216	-0.00105164	-0.2006651	-0.1218625	

8.32e+09	-0.1048177	0.05848463	-0.001312826	-0.002695272	0.06425824	-0.02091721	-0.000922066	-0.001549854	
-0.001312826	-0.002695272	-0.2224227	-0.05102332	-0.0006389042	-0.001960522	-0.1349204	-0.1150294	
0.06425824	-0.02091721	-0.0006389042	-0.001960522	-0.1106758	0.02591801	-0.0007807177	-0.0007629354	
-0.000922066	-0.001549854	-0.1349204	-0.1150294	-0.0007807177	-0.0007629354	-0.2256743	-0.09728409	

8.34e+09	-0.09615785	0.0611414	-0.00191193	-0.002156489	0.05453417	-0.03588906	-0.001228401	-0.001141501	
-0.00191193	-0.002156489	-0.2325924	-0.01475575	-0.001071875	-0.001642373	-0.1644208	-0.07747575	
0.05453417	-0.03588906	-0.001071875	-0.001642373	-0.1040694	0.02238656	-0.0009001508	-0.0004336004	
-0.001228401	-0.001141501	-0.1644208	-0.07747575	-0.0009001508	-0.0004336004	-0.241258	-0.06704282	

8.36e+09	-0.08512132	0.0652451	-0.002349403	-0.001565672	0.04026001	-0.04813335	-0.00138365	-0.0007378694	
-0.002349403	-0.001565672	-0.2352265	0.01909117	-0.001402672	-0.001307555	-0.1856889	-0.03237451	
0.04026001	-0.04813335	-0.001402672	-0.001307555	-0.09599978	0.02249887	-0.0008929892	-0.0001455925	
-0.00138365	-0.0007378694	-0.1856889	-0.03237451	-0.0008929892	-0.0001455925	-0.2492367	-0.03667074	

8.38e+09	-0.07071494	0.06500295	-0.00267555	-0.0009004221	0.02172605	-0.05644512	-0.001451197	-0.0003682874	
-0.00267555	-0.0009004221	-0.2353364	0.05290589	-0.001697552	-0.0009247667	-0.1949516	0.01873737	
0.02172605	-0.05644512	-0.001697552	-0.0009247667	-0.08358478	0.01883664	-0.0008287831	6.959486e-05	
-0.001451197	-0.0003682874	-0.1949516	0.01873737	-0.0008287831	6.959486e-05	-0.2538831	-0.006249107	

8.4e+09	-0.05868251	0.05811175	-0.002834227	-0.0001341545	9.162701e-05	-0.05898693	-0.001462657	-1.123262e-05	
-0.002834227	-0.0001341545	-0.2303296	0.09128694	-0.00191204	-0.0004354578	-0.1901681	0.07068511	
9.162701e-05	-0.05898693	-0.00191204	-0.0004354578	-0.07400278	0.00695623	-0.0007515249	0.0002423015	
-0.001462657	-1.123262e-05	-0.1901681	0.07068511	-0.0007515249	0.0002423015	-0.2547318	0.02785268	

8.42e+09	-0.05401436	0.04880572	-0.002743849	0.0006688783	-0.02266003	-0.05495014	-0.001398693	0.0003495112	
-0.002743849	0.0006688783	-0.2137064	0.1327102	-0.001952854	0.0001273123	-0.1732442	0.1189339	
-0.02266003	-0.05495014	-0.001952854	0.0001273123	-0.07472442	-0.007708836	-0.0006651092	0.0003985328	
-0.001398693	0.0003495112	-0.1732442	0.1189339	-0.0006651092	0.0003985328	-0.2470143	0.0662335	

8.44e+09	-0.0549522	0.04399353	-0.00241203	0.001378589	-0.04452861	-0.04404936	-0.001243773	0.0006795356	
-0.00241203	0.001378589	-0.1832428	0.1693879	-0.001805609	0.0006472127	-0.1468946	0.1618886	
-0.04452861	-0.04404936	-0.001805609	0.0006472127	-0.08392058	-0.01547802	-0.0005382659	0.0005365775	
-0.001243773	0.0006795356	-0.1468946	0.1618886	-0.0005382659	0.0005365775	-0.2269995	0.103689	

8.46e+09	-0.05457199	0.04493771	-0.001936105	0.001929359	-0.06341232	-0.02661702	-0.00102263	0.0009502863	
-0.001936105	0.001929359	-0.1439928	0.1950219	-0.001552018	0.001063087	-0.1119772	0.1992964	
-0.06341232	-0.02661702	-0.001552018	0.001063087	-0.09211481	-0.01373378	-0.0003908149	0.0006352605	
-0.00102263	0.0009502863	-0.1119772	0.1992964	-0.0003908149	0.0006352605	-0.1969084	0.1337184	

8.48e+09	-0.0496415	0.04619435	-0.001386924	0.002348901	-0.07770079	-0.003786609	-0.0007583477	0.001164191	
-0.001386924	0.002348901	-0.1029722	0.2101923	-0.001252398	0.001408133	-0.06821366	0.229403	
-0.07770079	-0.003786609	-0.001252398	0.001408133	-0.09374916	-0.00935741	-0.000236068	0.0007038993	
-0.0007583477	0.001164191	-0.06821366	0.229403	-0.000236068	0.0007038993	-0.1624265	0.1547307	

8.5e+09	-0.04415937	0.04356226	-0.0007464057	0.002662557	-0.08629637	0.02352709	-0.0004456404	0.001321904	
-0.0007464057	0.002662557	-0.06138768	0.21957	-0.0008781732	0.00171684	-0.01651877	0.248702	
-0.08629637	0.02352709	-0.0008781732	0.00171684	-0.09328793	-0.008884019	-6.34856e-05	0.0007468064	
-0.0004456404	0.001321904	-0.01651877	0.248702	-6.34856e-05	0.0007468064	-0.1262919	0.1698663	

8.52e+09	-0.04292485	0.04007011	1.912026e-06	0.002808999	-0.08725928	0.05427187	-8.863773e-05	0.001394486	
1.912026e-06	0.002808999	-0.01526636	0.22382	-0.0003851155	0.001925566	0.0390967	0.2538975	
-0.08725928	0.05427187	-0.0003851155	0.001925566	-0.09764766	-0.009368	0.0001255178	0.0007416334	
-8.863773e-05	0.001394486	0.0390967	0.2538975	0.0001255178	0.0007416334	-0.08602482	0.1808419	

8.54e+09	-0.04394109	0.0413212	0.0007855123	0.002712762	-0.07921879	0.08563842	0.0002756611	0.001356372	
0.0007855123	0.002712762	0.03649318	0.2169116	0.0001760508	0.001968343	0.09342811	0.2454607	
-0.07921879	0.08563842	0.0001760508	0.001968343	-0.1050011	-0.002859585	0.0003036224	0.0006726057	
0.0002756611	0.001356372	0.09342811	0.2454607	0.0003036224	0.0006726057	-0.03937265	0.183657	

8.56e+09	-0.04089877	0.04798797	0.001480543	0.002375726	-0.06245726	0.1149363	0.0005939096	0.001206771	
0.001480543	0.002375726	0.08795484	0.1938055	0.0006874031	0.001821082	0.1438874	0.2257189	
-0.06245726	0.1149363	0.0006874031	0.001821082	-0.1067358	0.0121044	0.0004285044	0.0005489345	
0.0005939096	0.001206771	0.1438874	0.2257189	0.0004285044	0.0005489345	0.01039316	0.1728979	

8.58e+09	-0.02995046	0.05425516	0.001991838	0.001888665	-0.03762913	0.1400427	0.000793674	0.000979127	
0.001991838	0.001888665	0.1305913	0.1562796	0.001061993	0.001578626	0.1895683	0.195797	
-0.03762913	0.1400427	0.001061993	0.001578626	-0.09697616	0.02800907	0.0004455047	0.0004201896	
0.000793674	0.000979127	0.1895683	0.195797	0.0004455047	0.0004201896	0.05588265	0.1476164	

8.6e+09	-0.01366786	0.05354304	0.002267798	0.00144753	-0.005098521	0.1582779	0.0007654962	0.0008919533	
0.002267798	0.00144753	0.1609639	0.1113943	0.00131807	0.001441146	0.2288891	0.1555646	
-0.005098521	0.1582779	0.00131807	0.001441146	-0.07899215	0.03548391	0.0003286328	0.0005045643	
0.0007654962	0.0008919533	0.2288891	0.1555646	0.0003286328	0.0005045643	0.0923037	0.112745	

8.62e+09	-0.0005296196	0.04462286	0.002874211	0.001242055	0.03104102	0.1667352	0.001197881	0.00120838	
0.002874211	0.001242055	0.1816846	0.06325151	0.002007679	0.001459467	0.2581921	0.1048514	
0.03104102	0.1667352	0.002007679	0.001459467	-0.06377507	0.03363901	0.0007554073	0.0009295616	
0.001197881	0.00120838	0.2581921	0.1048514	0.0007554073	0.0009295616	0.1202189	0.0723291	

8.64e+09	0.007759644	0.03601147	0.003878067	0.0002181824	0.06912109	0.1673686	0.002225751	0.0008185639	
0.003878067	0.0002181824	0.1945905	0.01166749	0.003102659	0.0005594864	0.2726821	0.04803116	
0.06912109	0.1673686	0.003102659	0.0005594864	-0.05278692	0.03248743	0.001749986	0.0005648927	
0.002225751	0.0008185639	0.2726821	0.04803116	0.001749986	0.0005648927	0.1409624	0.02734414	

8.66e+09	0.01758596	0.02926332	0.003666022	-0.001875029	0.1085401	0.1583884	0.002479006	-0.0007368572	
0.003666022	-0.001875029	0.1985314	-0.04590758	0.002874157	-0.001364012	0.2731354	-0.008888556	
0.1085401	0.1583884	0.002874157	-0.001364012	-0.03819521	0.03417446	0.001842751	-0.0009097838	
0.002479006	-0.0007368572	0.2731354	-0.008888556	0.001842751	-0.0009097838	0.1543479	-0.02378674	

8.68e+09	0.03178129	0.01794586	0.002278843	-0.002774111	0.1462053	0.1379312	0.001542691	-0.001498107	
0.002278843	-0.002774111	0.1856717	-0.1084022	0.001633757	-0.00196752	0.2609882	-0.0643319	
0.1462053	0.1379312	0.001633757	-0.00196752	-0.01561169	0.03048167	0.0008486619	-0.001411518	
0.001542691	-0.001498107	0.2609882	-0.0643319	0.0008486619	-0.001411518	0.1546227	-0.08191344	

8.7e+09	0.04489803	-0.002595723	0.001240694	-0.002968884	0.1776557	0.1073295	0.0008646149	-0.00161196	
0.001240694	-0.002968884	0.1535984	-0.1649217	0.0008732108	-0.001995946	0.2367549	-0.1153043	
0.1776557	0.1073295	0.0008732108	-0.001995946	0.00865492	0.01435819	0.0002606534	-0.001310632	
0.0008646149	-0.00161196	0.2367549	-0.1153043	0.0002606534	-0.001310632	0.1370671	-0.1392615	

8.72e+09	0.0498046	-0.0304701	0.0004017469	-0.002969043	0.2007094	0.06900401	0.000384103	-0.001596957	
0.0004017469	-0.002969043	0.1089533	-0.2084085	0.0003211393	-0.001941317	0.2014606	-0.1599564	
0.2007094	0.06900401	0.0003211393	-0.001941317	0.02511373	-0.01309121	-9.20841e-05	-0.001154835	
0.000384103	-0.001596957	0.2014606	-0.1599564	-9.20841e-05	-0.001154835	0.1052337	-0.1881161	

8.74e+09	0.04397216	-0.05887944	-0.0003277858	-0.002841657	0.2138711	0.02510895	-3.5939e-06	-0.001525296	
-0.0003277858	-0.002841657	0.05909712	-0.2390329	-0.0001338018	-0.00183563	0.1557418	-0.1952551	
0.2138711	0.02510895	-0.0001338018	-0.00183563	0.02963788	-0.04368622	-0.0003361129	-0.0009861966	
-3.5939e-06	-0.001525296	0.1557418	-0.1952551	-0.0003361129	-0.0009861966	0.0653682	-0.2264438	

8.76e+09	0.03113671	-0.08307994	-0.0009902089	-0.002605373	0.2158585	-0.02222837	-0.0003376772	-0.001408693	
-0.0009902089	-0.002605373	0.006124623	-0.260468	-0.0005432184	-0.001688889	0.1024778	-0.21753	
0.2158585	-0.02222837	-0.0005432184	-0.001688889	0.02641002	-0.07129993	-0.0005154303	-0.0008118749	
-0.0003376772	-0.001408693	0.1024778	-0.21753	-0.0005154303	-0.0008118749	0.02043923	-0.2563866	

8.78e+09	0.01531999	-0.1042503	-0.00159759	-0.002234785	0.2050111	-0.07027095	-0.0006301057	-0.001244697	
-0.00159759	-0.002234785	-0.05233461	-0.2727953	-0.0009325058	-0.001467129	0.04693886	-0.2250368	
0.2050111	-0.07027095	-0.0009325058	-0.001467129	0.02065092	-0.09768298	-0.0006458349	-0.0006265136	
-0.0006301057	-0.001244697	0.04693886	-0.2250368	-0.0006458349	-0.0006265136	-0.03087037	-0.2785949	

8.8e+09	-0.004771388	-0.124999	-0.002095894	-0.001712417	0.1808203	-0.1143805	-0.0008749125	-0.001031661	
-0.002095894	-0.001712417	-0.1157952	-0.2709538	-0.001260442	-0.001139696	-0.006003779	-0.219748	
0.1808203	-0.1143805	-0.001260442	-0.001139696	0.01021216	-0.1272308	-0.0007243699	-0.0004345574	
-0.0008749125	-0.001031661	-0.006003779	-0.219748	-0.0007243699	-0.0004345574	-0.0888791	-0.2890856	

8.82e+09	-0.03290086	-0.1435376	-0.00242067	-0.001072693	0.1457276	-0.1504002	-0.001058026	-0.000776345	
-0.00242067	-0.001072693	-0.1776014	-0.2513933	-0.001467322	-0.000733179	-0.05496648	-0.2047089	
0.1457276	-0.1504002	-0.001467322	-0.000733179	-0.01128214	-0.1581681	-0.0007528212	-0.0002501385	
-0.001058026	-0.000776345	-0.05496648	-0.2047089	-0.0007528212	-0.0002501385	-0.1490284	-0.2838572	

8.84e+09	-0.0693148	-0.1539449	-0.002539993	-0.0004000235	0.1031355	-0.176368	-0.001167945	-0.000500582	
-0.002539993	-0.0004000235	-0.2303124	-0.2169596	-0.001535992	-0.000316691	-0.09997255	-0.1806526	
0.1031355	-0.176368	-0.001535992	-0.000316691	-0.0454108	-0.1822683	-0.0007409437	-8.756533e-05	
-0.001167945	-0.000500582	-0.09997255	-0.1806526	-0.0007409437	-8.756533e-05	-0.2043922	-0.2635009	

8.86e+09	-0.1083683	-0.1518706	-0.002487341	0.0002294302	0.05568662	-0.1916746	-0.001212044	-0.0002312098	
-0.002487341	0.0002294302	-0.2712214	-0.1745224	-0.001502351	5.6139e-05	-0.1392035	-0.1469979	
0.05568662	-0.1916746	-0.001502351	5.6139e-05	-0.08595159	-0.1930504	-0.0007052667	4.622562e-05	
-0.001212044	-0.0002312098	-0.1392035	-0.1469979	-0.0007052667	4.622562e-05	-0.2511253	-0.2328704	

8.88e+09	-0.1435705	-0.139081	-0.002313722	0.0007953237	0.00521187	-0.1956406	-0.001209212	2.131799e-05	
-0.002313722	0.0007953237	-0.3031713	-0.1280646	-0.001412309	0.000382922	-0.1691528	-0.1049201	
0.00521187	-0.1956406	-0.001412309	0.000382922	-0.1248416	-0.1917991	-0.0006609958	0.0001541834	
-0.001209212	2.131799e-05	-0.1691528	-0.1049201	-0.0006609958	0.0001541834	-0.2900978	-0.1961895	

8.9e+09	-0.173264	-0.120646	-0.002040167	0.001304741	-0.04592723	-0.1869822	-0.001171666	0.0002606105	
-0.002040167	0.001304741	-0.3281857	-0.07612973	-0.001275643	0.0006860015	-0.1874227	-0.05819628	
-0.04592723	-0.1869822	-0.001275643	0.0006860015	-0.1599373	-0.1843114	-0.0006174423	0.0002465844	
-0.001171666	0.0002606105	-0.1874227	-0.05819628	-0.0006174423	0.0002465844	-0.3231588	-0.153378	

8.92e+09	-0.2002067	-0.09860075	-0.001657223	0.00174757	-0.0936662	-0.1648823	-0.001098778	0.0004915074	
-0.001657223	0.00174757	-0.34305	-0.01677794	-0.001073765	0.0009603941	-0.1946627	-0.01129236	
-0.0936662	-0.1648823	-0.001073765	0.0009603941	-0.1948924	-0.1727297	-0.0005765426	0.0003297883	
-0.001098778	0.0004915074	-0.1946627	-0.01129236	-0.0005765426	0.0003297883	-0.3485066	-0.1024389	

8.94e+09	-0.2252418	-0.07024126	-0.001173436	0.002083364	-0.13331	-0.1317372	-0.0009841196	0.0007123838	
-0.001173436	0.002083364	-0.3424071	0.04672131	-0.0008116564	0.001173931	-0.1935463	0.03405778	
-0.13331	-0.1317372	-0.0008116564	0.001173931	-0.2311065	-0.15285	-0.0005409665	0.0004131515	
-0.0009841196	0.0007123838	-0.1935463	0.03405778	-0.0005409665	0.0004131515	-0.3613258	-0.04494147	

8.96e+09	-0.2446075	-0.03342008	-0.0006251748	0.002280562	-0.1632891	-0.09148374	-0.0008185054	0.0009112788	
-0.0006251748	0.002280562	-0.3254509	0.1070028	-0.000519329	0.001310339	-0.1848977	0.0786749	
-0.1632891	-0.09148374	-0.000519329	0.001310339	-0.2636487	-0.1209305	-0.0005030032	0.0005077664	
-0.0008185054	0.0009112788	-0.1848977	0.0786749	-0.0005030032	0.0005077664	-0.3591722	0.01360967	

8.98e+09	-0.2531815	0.009239495	-5.267403e-05	0.002330105	-0.1839523	-0.04654708	-0.0005952848	0.001060785	
-5.267403e-05	0.002330105	-0.2964841	0.1591733	-0.0002218561	0.001377549	-0.1670094	0.1218747	
-0.1839523	-0.04654708	-0.0002218561	0.001377549	-0.2855188	-0.07961086	-0.0004442413	0.0006116701	
-0.0005952848	0.001060785	-0.1670094	0.1218747	-0.0004442413	0.0006116701	-0.3441726	0.06771115	

9e+09	-0.2499109	0.05139026	0.0005204417	0.002214568	-0.1949889	0.00207603	-0.0003246219	0.001095203	
0.0005204417	0.002214568	-0.2603588	0.203122	7.910262e-05	0.001372723	-0.1390024	0.1600168	
-0.1949889	0.00207603	7.910262e-05	0.001372723	-0.2946003	-0.03606799	-0.0003518328	0.0006845927	
-0.0003246219	0.001095203	-0.1390024	0.1600168	-0.0003518328	0.0006845927	-0.32039	0.1157266	

9.02e+09	-0.2385174	0.08922544	0.001018238	0.001810626	-0.1948364	0.05289937	-0.0001518594	0.0008508138	
0.001018238	0.001810626	-0.2175534	0.2407712	0.00033342	0.001209484	-0.1034257	0.188911	
-0.1948364	0.05289937	0.00033342	0.001209484	-0.294902	0.004735657	-0.0003292714	0.0006130605	
-0.0001518594	0.0008508138	-0.1034257	0.188911	-0.0003292714	0.0006130605	-0.2897079	0.1584133	

9.04e+09	-0.2229586	0.1236897	0.0007149922	0.001112561	-0.1825324	0.1024743	-0.000988424	0.0005474414	
0.0007149922	0.001112561	-0.1668951	0.2702261	1.450309e-06	0.0009662389	-0.06609434	0.2073508	
-0.1825324	0.1024743	1.450309e-06	0.0009662389	-0.2909305	0.04420688	-0.001032101	0.0006699982	
-0.000988424	0.0005474414	-0.06609434	0.2073508	-0.001032101	0.0006699982	-0.2526019	0.1957969	

9.06e+09	-0.2025856	0.1584481	1.22843e-05	0.002597171	-0.1594361	0.1473812	-0.001549441	0.003103627	
1.22843e-05	0.002597171	-0.1098609	0.2889069	-0.0002301467	0.002567104	-0.03019828	0.2210266	
-0.1594361	0.1473812	-0.0002301467	0.002567104	-0.2815042	0.08665577	-0.001006828	0.003016088	
-0.001549441	0.003103627	-0.03019828	0.2210266	-0.001006828	0.003016088	-0.2073803	0.2287086	

9.08e+09	-0.1725751	0.1921356	0.002831235	0.003235575	-0.1279224	0.1858501	0.002024571	0.003580896	
0.002831235	0.003235575	-0.05062891	0.2945505	0.002579086	0.00279307	0.007564046	0.2327971	
-0.1279224	0.1858501	0.002579086	0.00279307	-0.260516	0.1310259	0.002350158	0.002810857	
0.002024571	0.003580896	0.007564046	0.2327971	0.002350158	0.002810857	-0.1540218	0.2533214	

9.1e+09	-0.1313162	0.2184605	0.003666367	0.001230664	-0.08876652	0.2171906	0.002452654	0.001455469	
0.003666367	0.001230664	0.01058497	0.2882557	0.003063668	0.0008458887	0.05544183	0.238511	
-0.08876652	0.2171906	0.003063668	0.0008458887	-0.2251034	0.1696276	0.002248154	0.0007211973	
0.002452654	0.001455469	0.05544183	0.238511	0.002248154	0.0007211973	-0.08986379	0.2639731	

9.12e+09	-0.08471235	0.2321148	0.003629572	0.0004686294	-0.04388141	0.2397981	0.002186985	0.001215361	
0.003629572	0.0004686294	0.06790245	0.2676406	0.002951878	0.0002911351	0.1049224	0.2279081	
-0.04388141	0.2397981	0.002951878	0.0002911351	-0.1816223	0.1958598	0.001825739	0.000682398	
0.002186985	0.001215361	0.1049224	0.2279081	0.001825739	0.000682398	-0.02779716	0.2557941	

9.14e+09	-0.03873561	0.2347456	0.004330374	-0.0002128058	0.005623702	0.2524774	0.00301271	0.001270636	
0.004330374	-0.0002128058	0.1194683	0.2373712	0.003660144	-0.0003222231	0.1479124	0.2049499	
0.005623702	0.2524774	0.003660144	-0.0003222231	-0.13687	0.2112452	0.00262119	0.000786694	
0.00301271	0.001270636	0.1479124	0.2049499	0.00262119	0.000786694	0.02880895	0.2361291	

9.16e+09	0.005240037	0.2307305	0.005044084	-0.00233422	0.05724128	0.2540409	0.004487325	-0.0001397342	
0.005044084	-0.00233422	0.1667906	0.1973351	0.004186925	-0.00242981	0.1829472	0.1753481	
0.05724128	0.2540409	0.004186925	-0.00242981	-0.09198121	0.220862	0.003884772	-0.0007031814	
0.004487325	-0.0001397342	0.1829472	0.1753481	0.003884772	-0.0007031814	0.08144722	0.2067023	

9.18e+09	0.05113584	0.220878	0.003460036	-0.00498242	0.1089235	0.243947	0.004014469	-0.002893729	
0.003460036	-0.00498242	0.2069932	0.143623	0.00232629	-0.004710822	0.2127925	0.1407322	
0.1089235	0.243947	0.00232629	-0.004710822	-0.04169913	0.2249884	0.00298308	-0.003222674	
0.004014469	-0.002893729	0.2127925	0.1407322	0.00298308	-0.003222674	0.1297373	0.1647365	

9.2e+09	0.09899588	0.1992861	0.0007880718	-0.005509018	0.156842	0.2215651	0.001876879	-0.004008893	
0.0007880718	-0.005509018	0.2309264	0.07776918	-0.0002006496	-0.004697216	0.2365173	0.09881611	
0.156842	0.2215651	-0.0002006496	-0.004697216	0.01416088	0.2162268	0.0007626566	-0.003788498	
0.001876879	-0.004008893	0.2365173	0.09881611	0.0007626566	-0.003788498	0.166609	0.10864	

9.22e+09	0.1418612	0.1636132	-0.001018541	-0.004879734	0.1980526	0.1898791	0.0002792366	-0.003834546	
-0.001018541	-0.004879734	0.2349878	0.009751535	-0.001629684	-0.003773202	0.2502112	0.0503151	
0.1980526	0.1898791	-0.001629684	-0.003773202	0.06816239	0.1908108	-0.0006185991	-0.003218389	
0.0002792366	-0.003834546	0.2502112	0.0503151	-0.0006185991	-0.003218389	0.1860429	0.04539022	

9.24e+09	0.1739236	0.1169732	-0.002204003	-0.004027363	0.2324366	0.1501572	-0.0007790766	-0.003371867	
-0.002204003	-0.004027363	0.2230976	-0.05378756	-0.002424798	-0.002818093	0.2505952	-0.001555836	
0.2324366	0.1501572	-0.002424798	-0.002818093	0.1129813	0.1512012	-0.001390652	-0.002526453	
-0.0007790766	-0.003371867	0.2505952	-0.001555836	-0.001390652	-0.002526453	0.189223	-0.01802913	

9.26e+09	0.1929611	0.06495359	-0.003017465	-0.003089952	0.2579309	0.1023617	-0.001540633	-0.002804719	
-0.003017465	-0.003089952	0.1995985	-0.111561	-0.002876802	-0.001896902	0.2367542	-0.0510713	
0.2579309	0.1023617	-0.002876802	-0.001896902	0.1453766	0.1035928	-0.001849773	-0.001839471	
-0.001540633	-0.002804719	0.2367542	-0.0510713	-0.001849773	-0.001839471	0.1792803	-0.07876574	

9.28e+09	0.2006494	0.01169657	-0.003541459	-0.002117841	0.2710725	0.0485734	-0.002075689	-0.002175123	
-0.003541459	-0.002117841	0.1650489	-0.1642214	-0.00307605	-0.001033412	0.2118243	-0.09346981	
0.2710725	0.0485734	-0.00307605	-0.001033412	0.1673514	0.05248966	-0.002078766	-0.001179944	
-0.002075689	-0.002175123	0.2118243	-0.09346981	-0.002078766	-0.001179944	0.1571233	-0.1364168	

9.3e+09	0.1987283	-0.04253835	-0.003842482	-0.001146224	0.2700396	-0.006592079	-0.002428886	-0.001530736	
-0.003842482	-0.001146224	0.117548	-0.2092541	-0.00310096	-0.0002522211	0.1798811	-0.1277167	
0.2700396	-0.006592079	-0.00310096	-0.0002522211	0.1808238	-0.002418123	-0.002136636	-0.0005937466	
-0.002428886	-0.001530736	0.1798811	-0.1277167	-0.002136636	-0.0005937466	0.121593	-0.1886609	

9.32e+09	0.1855176	-0.09804004	-0.003959039	-0.0001631642	0.2559695	-0.0584133	-0.002651267	-0.0008835011	
-0.003959039	-0.0001631642	0.05835355	-0.2402139	-0.003010511	0.0004714335	0.1425769	-0.1547528	
0.2559695	-0.0584133	-0.003010511	0.0004714335	0.1832076	-0.06294757	-0.002098596	-8.942493e-05	
-0.002651267	-0.0008835011	0.1425769	-0.1547528	-0.002098596	-8.942493e-05	0.07289378	-0.2303202	

9.34e+09	0.1578195	-0.151518	-0.003862262	0.0008392851	0.2317754	-0.1045143	-0.002753437	-0.0002147661	
-0.003862262	0.0008392851	-0.005625929	-0.2525774	-0.002797966	0.001170414	0.09951935	-0.173862	
0.2317754	-0.1045143	-0.002797966	0.001170414	0.1691294	-0.1257578	-0.00200324	0.0003676633	
-0.002753437	-0.0002147661	0.09951935	-0.173862	-0.00200324	0.0003676633	0.01592228	-0.2565063	

9.36e+09	0.115944	-0.1965044	-0.00350984	0.001807686	0.198996	-0.1446427	-0.002708471	0.0004761144	
-0.00350984	0.001807686	-0.06654428	-0.2481734	-0.002426653	0.001827287	0.05177685	-0.1817279	
0.198996	-0.1446427	-0.002426653	0.001827287	0.1375415	-0.182756	-0.001838636	0.0008086361	
-0.002708471	0.0004761144	0.05177685	-0.1817279	-0.001838636	0.0008086361	-0.04273282	-0.2668197	

9.38e+09	0.06475074	-0.2283678	-0.002903276	0.002649197	0.1575103	-0.177327	-0.002483297	0.00114797	
-0.002903276	0.002649197	-0.1212943	-0.231916	-0.001885847	0.002378494	0.004121923	-0.1760818	
0.1575103	-0.177327	-0.001885847	0.002378494	0.09353526	-0.2278699	-0.00157033	0.001217634	
-0.002483297	0.00114797	0.004121923	-0.1760818	-0.00157033	0.001217634	-0.09892532	-0.2640257	

9.4e+09	0.009823015	-0.2470448	-0.002106073	0.003280546	0.1085169	-0.1991995	-0.002084189	0.001726643	
-0.002106073	0.003280546	-0.1707215	-0.206587	-0.001223663	0.00275486	-0.03805246	-0.1588663	
0.1085169	-0.1991995	-0.001223663	0.00275486	0.04339636	-0.2606116	-0.001198231	0.001537534	
-0.002084189	0.001726643	-0.03805246	-0.1588663	-0.001198231	0.001537534	-0.1517767	-0.2506132	

9.42e+09	-0.04625815	-0.2547949	-0.001212633	0.003677425	0.05611672	-0.2075888	-0.00157068	0.002161855	
-0.001212633	0.003677425	-0.2146312	-0.1710927	-0.0005221516	0.002943242	-0.07275593	-0.1345032	
0.05611672	-0.2075888	-0.0005221516	0.002943242	-0.01068733	-0.2836187	-0.0007775269	0.001730884	
-0.00157068	0.002161855	-0.07275593	-0.1345032	-0.0007775269	0.001730884	-0.2008721	-0.2265661	

9.44e+09	-0.1038379	-0.2519295	-0.0002762151	0.003866647	0.005260534	-0.2029218	-0.0009996435	0.002460593	
-0.0002762151	0.003866647	-0.2489185	-0.1245948	0.0001712962	0.002981684	-0.1011658	-0.1054211	
0.005260534	-0.2029218	0.0001712962	0.002981684	-0.0698085	-0.2966982	-0.0003647696	0.001818884	
-0.0009996435	0.002460593	-0.1011658	-0.1054211	-0.0003647696	0.001818884	-0.2432578	-0.1910129	

9.46e+09	-0.1617767	-0.2357389	0.0006947054	0.003851753	-0.04093844	-0.188076	-0.0003843763	0.002641581	
0.0006947054	0.003851753	-0.2680796	-0.07102994	0.000861806	0.002894007	-0.1238682	-0.07131372	
-0.04093844	-0.188076	0.000861806	0.002894007	-0.1333299	-0.2958435	3.348158e-05	0.001842596	
-0.0003843763	0.002641581	-0.1238682	-0.07131372	3.348158e-05	0.001842596	-0.2740799	-0.1459764	

9.48e+09	-0.2147908	-0.2047571	0.00166601	0.003594037	-0.08225524	-0.1654845	0.0002768363	0.002688987	
0.00166601	0.003594037	-0.2714818	-0.0180318	0.001546957	0.002654421	-0.1385929	-0.03169109	
-0.08225524	-0.1654845	0.001546957	0.002654421	-0.1954065	-0.2779323	0.0004400537	0.00180668	
0.0002768363	0.002688987	-0.1385929	-0.03169109	0.0004400537	0.00180668	-0.2910021	-0.09708564	

9.5e+09	-0.2572568	-0.1620659	0.002557278	0.003077195	-0.1186163	-0.135256	0.0009597938	0.002567358	
0.002557278	0.003077195	-0.263517	0.02965132	0.002180034	0.002236617	-0.1419948	0.01060187	
-0.1186163	-0.135256	0.002180034	0.002236617	-0.2490597	-0.2455205	0.0008594698	0.00168013	
0.0009597938	0.002567358	-0.1419948	0.01060187	0.0008594698	0.00168013	-0.2957414	-0.04922486	

9.52e+09	-0.2874663	-0.1130042	0.003278731	0.002333261	-0.1478125	-0.09709469	0.001600984	0.002254469	
0.003278731	0.002333261	-0.2482203	0.07220864	0.002687561	0.001654304	-0.1339688	0.05035558	
-0.1478125	-0.09709469	0.002687561	0.001654304	-0.2916697	-0.2043811	0.001249471	0.001434821	
0.001600984	0.002254469	-0.1339688	0.05035558	0.001249471	0.001434821	-0.2912016	-0.004066206	

9.54e+09	-0.3071026	-0.06114223	0.003773075	0.001443288	-0.16664	-0.05324572	0.002126364	0.001781008	
0.003773075	0.001443288	-0.2256801	0.1112931	0.003020038	0.0009732925	-0.1181983	0.08424778	
-0.16664	-0.05324572	0.003020038	0.0009732925	-0.3250875	-0.1582749	0.001550664	0.0010929	
0.002126364	0.001781008	-0.1181983	0.08424778	0.001550664	0.0010929	-0.2784489	0.03858844	

9.56e+09	-0.3175603	-0.006651941	0.004044697	0.0004827162	-0.174145	-0.008029708	0.002509066	0.001212552	
0.004044697	0.0004827162	-0.1938051	0.1451431	0.003189554	0.0002620385	-0.09792974	0.1129735	
-0.174145	-0.008029708	0.003189554	0.0002620385	-0.35079	-0.1069795	0.001747798	0.0007147582	
0.002509066	0.001212552	-0.09792974	0.1129735	0.001747798	0.0007147582	-0.2563631	0.07784019	

9.58e+09	-0.3171246	0.05062484	0.00411374	-0.0005217872	-0.172267	0.03526735	0.002768294	0.0005829168	
0.00411374	-0.0005217872	-0.1535333	0.1684354	0.003230617	-0.0004656311	-0.07298301	0.1378409	
-0.172267	0.03526735	0.003230617	-0.0004656311	-0.3665668	-0.04917095	0.001875686	0.0003283008	
0.002768294	0.0005829168	-0.07298301	0.1378409	0.001875686	0.0003283008	-0.2245836	0.109828	

9.6e+09	-0.3029374	0.1078116	0.003953563	-0.001565965	-0.163464	0.07598152	0.00290185	-0.0001168192	
0.003953563	-0.001565965	-0.1107012	0.1777106	0.003132659	-0.001227865	-0.04188179	0.1574033	
-0.163464	0.07598152	0.003132659	-0.001227865	-0.3679702	0.0127212	0.001953963	-8.702035e-05	
0.00290185	-0.0001168192	-0.04188179	0.1574033	0.001953963	-8.702035e-05	-0.186592	0.1303621	

9.62e+09	-0.2753592	0.1593634	0.003512768	-0.002590404	-0.1479827	0.1149941	0.002862221	-0.0008808623	
0.003512768	-0.002590404	-0.07170404	0.1754427	0.002843767	-0.002002194	-0.005752322	0.1676614	
-0.1479827	0.1149941	0.002843767	-0.002002194	-0.3537781	0.07229852	0.001951577	-0.00055478	
0.002862221	-0.0008808623	-0.005752322	0.1676614	0.001951577	-0.00055478	-0.1479904	0.1392155	

9.64e+09	-0.2379478	0.2018658	0.002777809	-0.003494562	-0.1242221	0.1512843	0.00259423	-0.001653916	
0.002777809	-0.003494562	-0.03818472	0.166323	0.002332866	-0.002714218	0.0303939	0.1664376	
-0.1242221	0.1512843	0.002332866	-0.002714218	-0.3275818	0.124633	0.001813187	-0.00105166	
0.00259423	-0.001653916	0.0303939	0.1664376	0.001813187	-0.00105166	-0.112032	0.1390413	

9.66e+09	-0.1946868	0.2350017	0.00180511	-0.004169965	-0.0921383	0.1813791	0.00209256	-0.002332115	
0.00180511	-0.004169965	-0.008420353	0.1525678	0.001632247	-0.003272637	0.06162617	0.1564071	
-0.0921383	0.1813791	0.001632247	-0.003272637	-0.2936591	0.1694075	0.001519747	-0.001502236	
0.00209256	-0.002332115	0.06162617	0.1564071	0.001519747	-0.001502236	-0.07901103	0.1322796	

9.68e+09	-0.1467912	0.2599816	0.0006923932	-0.004568529	-0.05483978	0.2024023	0.001425161	-0.002836947	
0.0006923932	-0.004568529	0.01815507	0.1325525	0.0008219076	-0.003635551	0.08740222	0.1418206	
-0.05483978	0.2024023	0.0008219076	-0.003635551	-0.2531753	0.2081086	0.001122038	-0.001843833	
0.001425161	-0.002836947	0.08740222	0.1418206	0.001122038	-0.001843833	-0.04863363	0.1188764	

9.7e+09	-0.09364178	0.2761765	-0.0004906381	-0.004700463	-0.01597355	0.2146966	0.0006629946	-0.00316337	
-0.0004906381	-0.004700463	0.03792974	0.1050949	-4.590016e-05	-0.003822324	0.1096234	0.1236672	
-0.01597355	0.2146966	-4.590016e-05	-0.003822324	-0.2041811	0.2401667	0.0006777472	-0.00208354	
0.0006629946	-0.00316337	0.1096234	0.1236672	0.0006777472	-0.00208354	-0.02287863	0.0976969	

9.72e+09	-0.03617925	0.2803653	-0.00172874	-0.004555729	0.02321212	0.2202201	-0.000181733	-0.003319128	
-0.00172874	-0.004555729	0.04604625	0.07385567	-0.0009772736	-0.003836795	0.1277702	0.1003071	
0.02321212	0.2202201	-0.0009772736	-0.003836795	-0.1464722	0.2610103	0.0001874002	-0.002249106	
-0.000181733	-0.003319128	0.1277702	0.1003071	0.0001874002	-0.002249106	-0.006199462	0.07022489	

9.74e+09	0.0211178	0.270196	-0.002967723	-0.004069764	0.06339916	0.2195078	-0.001101475	-0.003256038	
-0.002967723	-0.004069764	0.04243835	0.04622417	-0.001963676	-0.003619655	0.1382537	0.07211148	
0.06339916	0.2195078	-0.001963676	-0.003619655	-0.08463169	0.2661481	-0.0003746324	-0.00231792	
-0.001101475	-0.003256038	0.1382537	0.07211148	-0.0003746324	-0.00231792	-0.0007493385	0.0418823	

9.76e+09	0.07319359	0.2470974	-0.004078574	-0.003202611	0.1047634	0.2103895	-0.002026941	-0.002905552	
-0.004078574	-0.003202611	0.03279618	0.02624558	-0.002918624	-0.003105846	0.1383945	0.04350022	
0.1047634	0.2103895	-0.002918624	-0.003105846	-0.02524651	0.2561488	-0.0009906917	-0.002223041	
-0.002026941	-0.002905552	0.1383945	0.04350022	-0.0009906917	-0.002223041	-0.003898472	0.0177018	

9.78e+09	0.1176969	0.2143645	-0.004907606	-0.00199976	0.1439837	0.1907609	-0.002827795	-0.002250942	
-0.004907606	-0.00199976	0.02198886	0.01231385	-0.003709834	-0.002305576	0.1301958	0.0199802	
0.1439837	0.1907609	-0.003709834	-0.002305576	0.02822878	0.23492	-0.001571644	-0.001925654	
-0.002827795	-0.002250942	0.1301958	0.0199802	-0.001571644	-0.001925654	-0.01155633	-0.0009338603	

9.8e+09	0.1544464	0.1744839	-0.005349055	-0.0005999927	0.1765109	0.1620544	-0.00338124	-0.00137573	
-0.005349055	-0.0005999927	0.01032241	0.00142275	-0.004240132	-0.001319842	0.118723	0.002962279	
0.1765109	0.1620544	-0.004240132	-0.001319842	0.07639274	0.2050414	-0.002021722	-0.001475346	
-0.00338124	-0.00137573	0.118723	0.002962279	-0.002021722	-0.001475346	-0.02148469	-0.01556947	

9.82e+09	0.1832819	0.1276264	-0.005400135	0.0008562636	0.2005776	0.128186	-0.003657606	-0.0004044497	
-0.005400135	0.0008562636	-0.004403379	-0.005881837	-0.004510971	-0.0002624708	0.1066115	-0.01011192	
0.2005776	0.128186	-0.004510971	-0.0002624708	0.1194533	0.16548	-0.00232732	-0.0009716305	
-0.003657606	-0.0004044497	0.1066115	-0.01011192	-0.00232732	-0.0009716305	-0.03438187	-0.02691041	

9.84e+09	0.2017049	0.07388139	-0.005091828	0.002299048	0.2173829	0.09161605	-0.003689108	0.0005994876	
-0.005091828	0.002299048	-0.02103213	-0.005619809	-0.004570886	0.000831495	0.09274924	-0.02066733	
0.2173829	0.09161605	-0.004570886	0.000831495	0.1538327	0.1147219	-0.002555536	-0.0004496903	
-0.003689108	0.0005994876	0.09274924	-0.02066733	-0.002555536	-0.0004496903	-0.05045745	-0.03241799	

9.86e+09	0.2060415	0.01597702	-0.004402809	0.003682625	0.2277112	0.05216538	-0.003470401	0.001620488	
-0.004402809	0.003682625	-0.03343299	0.003531648	-0.004411834	0.001987386	0.07639531	-0.02686408	
0.2277112	0.05216538	-0.004411834	0.001987386	0.1736863	0.0554404	-0.002743753	0.0001490766	
-0.003470401	0.001620488	0.07639531	-0.02686408	-0.002743753	0.0001490766	-0.06588986	-0.02946016	

9.88e+09	0.1951978	-0.04022815	-0.003303195	0.004884305	0.2296261	0.009439109	-0.002956205	0.00260258	
-0.003303195	0.004884305	-0.03654567	0.0162559	-0.003942823	0.00318828	0.05990752	-0.02668006	
0.2296261	0.009439109	-0.003942823	0.00318828	0.1765243	-0.005500932	-0.002817732	0.0009046747	
-0.002956205	0.00260258	0.05990752	-0.02668006	-0.002817732	0.0009046747	-0.0754134	-0.02023518	

9.9e+09	0.1718197	-0.09014233	-0.001835416	0.005744194	0.2200173	-0.03394213	-0.002122296	0.00343495	
-0.001835416	0.005744194	-0.03206594	0.02570804	-0.003074812	0.004305957	0.04726592	-0.02104909	
0.2200173	-0.03394213	-0.003074812	0.004305957	0.1652111	-0.06219424	-0.002616774	0.001783035	
-0.002122296	0.00343495	0.04726592	-0.02104909	-0.002616774	0.001783035	-0.07763243	-0.01011025	

9.92e+09	0.1392616	-0.1321313	-0.0001301572	0.006126818	0.1987364	-0.07265249	-0.001018591	0.003975793	
-0.0001301572	0.006126818	-0.02520365	0.03020745	-0.001829408	0.0051461	0.04011245	-0.0140079	
0.1987364	-0.07265249	-0.001829408	0.0051461	0.1435124	-0.1132579	-0.002052565	0.002602732	
-0.001018591	0.003975793	0.04011245	-0.0140079	-0.002052565	0.002602732	-0.07526983	-0.002549565	

9.94e+09	0.09945303	-0.1659044	0.001619854	0.00598227	0.169676	-0.102804	0.0002129446	0.004129413	
0.001619854	0.00598227	-0.01849424	0.03267515	-0.0003619495	0.005577468	0.0360117	-0.008654287	
0.169676	-0.102804	-0.0003619495	0.005577468	0.1124786	-0.1589357	-0.001211774	0.003181651	
0.0002129446	0.004129413	0.0360117	-0.008654287	-0.001211774	0.003181651	-0.07146333	0.002945224	

9.96e+09	0.05279105	-0.1904487	0.003261544	0.005349773	0.1368691	-0.1247336	0.001425161	0.0038957	
0.003261544	0.005349773	-0.009555076	0.03495144	0.001186874	0.005587638	0.03210634	-0.004200887	
0.1368691	-0.1247336	0.001186874	0.005587638	0.0709732	-0.19759	-0.0002279196	0.003464411	
0.001425161	0.0038957	0.03210634	-0.004200887	-0.0002279196	0.003464411	-0.06586411	0.008355612	

9.98e+09	0.0007537318	-0.2027486	0.004691253	0.004270059	0.1012597	-0.1399362	0.002515382	0.003308854	
0.004691253	0.004270059	0.004085365	0.03366603	0.002736383	0.005166601	0.02885373	0.001525037	
0.1012597	-0.1399362	0.002736383	0.005166601	0.01980678	-0.2244076	0.000819844	0.003439747	
0.002515382	0.003308854	0.02885373	0.001525037	0.000819844	0.003439747	-0.05580539	0.01265819	

1e+10	-0.05187103	-0.200282	0.00577302	0.002781594	0.06233266	-0.1476411	0.003378046	0.002407047	
0.00577302	0.002781594	0.019454	0.02369633	0.004162541	0.004265961	0.02855778	0.008208233	
0.06233266	-0.1476411	0.004162541	0.004265961	-0.03573977	-0.2351799	0.001844707	0.003067319	
0.003378046	0.002407047	0.02855778	0.008208233	0.001844707	0.003067319	-0.04135829	0.01131435	

1.002e+10	-0.09945801	-0.1846364	0.006352132	0.00100983	0.02160449	-0.1451308	0.00390585	0.001287881	
0.006352132	0.00100983	0.02949759	0.005254853	0.005254445	0.002920024	0.03181949	0.01299825	
0.02160449	-0.1451308	0.005254445	0.002920024	-0.08836113	-0.2309111	0.002690863	0.002352936	
0.00390585	0.001287881	0.03181949	0.01299825	0.002690863	0.002352936	-0.02740362	0.001820146	

1.004e+10	-0.1392076	-0.1597455	0.006355596	-0.0008440664	-0.01632038	-0.1311585	0.004051897	8.555434e-05	
0.006355596	-0.0008440664	0.03074813	-0.0160802	0.005845592	0.001303217	0.03600498	0.01346099	
-0.01632038	-0.1311585	0.005845592	0.001303217	-0.1348242	-0.2161834	0.003219482	0.00140649	
0.004051897	8.555434e-05	0.03600498	0.01346099	0.003219482	0.00140649	-0.01862993	-0.01359514	

1.006e+10	-0.1709204	-0.1289381	0.005817611	-0.002568783	-0.04685784	-0.1086461	0.003830026	-0.00105849	
0.005817611	-0.002568783	0.02539854	-0.035458	0.00591008	-0.0003511028	0.03747745	0.01091658	
-0.04685784	-0.1086461	0.00591008	-0.0003511028	-0.1755788	-0.1941806	0.003389935	0.0004021012	
0.003830026	-0.00105849	0.03747745	0.01091658	0.003389935	0.0004021012	-0.01600915	-0.03064874	

1.008e+10	-0.1951894	-0.09322607	0.004858588	-0.004021802	-0.06930918	-0.08227815	0.003319932	-0.002035015	
0.004858588	-0.004021802	0.01705852	-0.05294686	0.005545383	-0.001882188	0.03589375	0.00892204	
-0.06930918	-0.08227815	0.005545383	-0.001882188	-0.2112751	-0.1645916	0.003273457	-0.0005238013	
0.003319932	-0.002035015	0.03589375	0.00892204	0.003273457	-0.0005238013	-0.01721148	-0.04728815	

1.01e+10	-0.2106936	-0.05280531	0.003599041	-0.005161024	-0.0858349	-0.05411591	0.00262113	-0.002814361	
0.003599041	-0.005161024	0.005211662	-0.07120753	0.004852198	-0.003245934	0.03385545	0.008790295	
-0.0858349	-0.05411591	0.004852198	-0.003245934	-0.2392177	-0.1266592	0.002969015	-0.001337569	
0.00262113	-0.002814361	0.03385545	0.008790295	0.002969015	-0.001337569	-0.02115926	-0.06496713	

1.012e+10	-0.2147959	-0.01024224	0.002094642	-0.005967666	-0.09710225	-0.02336597	0.001772896	-0.003412097	
0.002094642	-0.005967666	-0.01408557	-0.08924528	0.003845032	-0.004427572	0.0327008	0.008675348	
-0.09710225	-0.02336597	0.003845032	-0.004427572	-0.2550399	-0.08291669	0.002502249	-0.00206563	
0.001772896	-0.003412097	0.0327008	0.008675348	0.002502249	-0.00206563	-0.03053466	-0.08462786	

1.014e+10	-0.2071474	0.02951833	0.0003777168	-0.006365203	-0.1010852	0.01021439	0.0007685676	-0.003797302	
0.0003777168	-0.006365203	-0.04232009	-0.101219	0.002509188	-0.005330123	0.03094224	0.00713846	
-0.1010852	0.01021439	0.002509188	-0.005330123	-0.2572349	-0.03950032	0.0018396	-0.00268034	
0.0007685676	-0.003797302	0.03094224	0.00713846	0.0018396	-0.00268034	-0.04850174	-0.1027919	

1.016e+10	-0.1910898	0.06275322	-0.001427405	-0.006247408	-0.09547912	0.04359287	-0.000348338	-0.003883911	
-0.001427405	-0.006247408	-0.07443318	-0.1020734	0.0009357942	-0.005803437	0.02641532	0.005471312	
-0.09547912	0.04359287	0.0009357942	-0.005803437	-0.2494256	-0.001480139	0.0009941682	-0.003081497	
-0.000348338	-0.003883911	0.02641532	0.005471312	0.0009941682	-0.003081497	-0.07333082	-0.1140493	

1.018e+10	-0.1703905	0.08892656	-0.00312508	-0.005584804	-0.08122346	0.07208821	-0.001459678	-0.003609203	
-0.00312508	-0.005584804	-0.1039556	-0.09278395	-0.0006882461	-0.005775235	0.01941624	0.006789202	
-0.08122346	0.07208821	-0.0006882461	-0.005775235	-0.2360756	0.03082847	6.520103e-05	-0.003184333	
-0.001459678	-0.003609203	0.01941624	0.006789202	6.520103e-05	-0.003184333	-0.1002167	-0.1163894	

1.02e+10	-0.1468815	0.1093226	-0.004525218	-0.004465588	-0.06260587	0.09355485	-0.002410533	-0.003004536	
-0.004525218	-0.004465588	-0.1287861	-0.07771942	-0.002180747	-0.005301391	0.01324676	0.01231956	
-0.06260587	0.09355485	-0.002180747	-0.005301391	-0.2182964	0.05930981	-0.0008057787	-0.002998831	
-0.002410533	-0.003004536	0.01324676	0.01231956	-0.0008057787	-0.002998831	-0.1253618	-0.111811	

1.022e+10	-0.1204052	0.1243353	-0.005533206	-0.003053234	-0.04281178	0.1098632	-0.003112841	-0.002188553	
-0.005533206	-0.003053234	-0.1507452	-0.05913712	-0.003455501	-0.004500043	0.0104407	0.01979083	
-0.04281178	0.1098632	-0.003455501	-0.004500043	-0.1945086	0.08376863	-0.001544336	-0.002614452	
-0.003112841	-0.002188553	0.0104407	0.01979083	-0.001544336	-0.002614452	-0.148695	-0.103115	

1.024e+10	-0.09135115	0.1321248	-0.006152893	-0.001462422	-0.02135247	0.1229395	-0.003574687	-0.001257444	
-0.006152893	-0.001462422	-0.1709039	-0.03489507	-0.004506278	-0.003432864	0.01014487	0.0264877	
-0.02135247	0.1229395	-0.004506278	-0.003432864	-0.1647713	0.100419	-0.002158812	-0.002094228	
-0.003574687	-0.001257444	0.01014487	0.0264877	-0.002158812	-0.002094228	-0.1717524	-0.08990451	

1.026e+10	-0.06270428	0.1308739	-0.006366517	0.0002690624	0.003367587	0.1315869	-0.00380603	-0.0002287864	
-0.006366517	0.0002690624	-0.1856096	-0.002753775	-0.005282625	-0.002092606	0.01027277	0.03244872	
0.003367587	0.1315869	-0.005282625	-0.002092606	-0.1333223	0.1060873	-0.002650294	-0.001425843	
-0.00380603	-0.0002287864	0.01027277	0.03244872	-0.002650294	-0.001425843	-0.1932584	-0.06942493	

1.028e+10	-0.03894968	0.1220455	-0.00608643	0.002056592	0.02995465	0.1328652	-0.003751281	0.0008715701	
-0.00608643	0.002056592	-0.1895099	0.03447396	-0.005650278	-0.0005291341	0.010597	0.03930969	
0.02995465	0.1328652	-0.005650278	-0.0005291341	-0.106048	0.1022307	-0.002946697	-0.0006021907	
-0.003751281	0.0008715701	0.010597	0.03930969	-0.002946697	-0.0006021907	-0.2086203	-0.0414593	

1.03e+10	-0.02164657	0.1097252	-0.005262429	0.003716363	0.05394252	0.1260639	-0.00334934	0.001940764	
-0.005262429	0.003716363	-0.1816594	0.07027873	-0.005511022	0.001079222	0.01302294	0.04776759	
0.05394252	0.1260639	-0.005511022	0.001079222	-0.0851093	0.09406024	-0.002957863	0.0002915847	
-0.00334934	0.001940764	0.01302294	0.04776759	-0.002957863	0.0002915847	-0.2145316	-0.01011705	

1.032e+10	-0.009479087	0.09679698	-0.003962809	0.005037641	0.07208682	0.1145562	-0.002611921	0.00282754	
-0.003962809	0.005037641	-0.1658534	0.1006027	-0.004896195	0.002528197	0.0194531	0.05585541	
0.07208682	0.1145562	-0.004896195	0.002528197	-0.06823257	0.08450118	-0.002671198	0.001117934	
-0.002611921	0.00282754	0.0194531	0.05585541	-0.002671198	0.001117934	-0.2117864	0.01990783	

1.034e+10	-0.0005479946	0.08372621	-0.002376938	0.005886085	0.08520628	0.1024603	-0.001662007	0.003412154	
-0.002376938	0.005886085	-0.1459714	0.1259991	-0.003945305	0.003686788	0.02879887	0.06053027	
0.08520628	0.1024603	-0.003945305	0.003686788	-0.05349807	0.07274893	-0.002174639	0.001767912	
-0.001662007	0.003412154	0.02879887	0.06053027	-0.002174639	0.001767912	-0.2035264	0.04698778	

1.036e+10	0.005100477	0.06950511	-0.0006804506	0.00627079	0.09629264	0.09030154	-0.0006440251	0.003691238	
-0.0006804506	0.00627079	-0.1219111	0.1485755	-0.002781598	0.004544494	0.03790115	0.06123802	
0.09629264	0.09030154	-0.002781598	0.004544494	-0.04262621	0.05718745	-0.001575362	0.002231563	
-0.0006440251	0.003691238	0.03790115	0.06123802	-0.001575362	0.002231563	-0.1912758	0.07242976	

1.038e+10	0.005441614	0.05509191	0.001043668	0.006234041	0.105603	0.07598692	0.000377949	0.003719547	
0.001043668	0.006234041	-0.09128398	0.1670796	-0.00144142	0.005104071	0.04520635	0.06012392	
0.105603	0.07598692	-0.00144142	0.005104071	-0.03903933	0.03962974	-0.0009064572	0.002545628	
0.000377949	0.003719547	0.04520635	0.06012392	-0.0009064572	0.002545628	-0.1732128	0.09672602	

1.04e+10	0.0002132807	0.04411548	0.002757114	0.00574296	0.1105041	0.05927908	0.00140208	0.003501197	
0.002757114	0.00574296	-0.05430049	0.176726	5.296829e-05	0.005287035	0.05183476	0.05876604	
0.1105041	0.05927908	5.296829e-05	0.005287035	-0.04318919	0.02550134	-0.0001543377	0.002693882	
0.00140208	0.003501197	0.05183476	0.05876604	-0.0001543377	0.002693882	-0.1475303	0.1167216	

1.042e+10	-0.007014872	0.03934149	0.004308806	0.004742794	0.1093602	0.04338048	0.002371883	0.002990212	
0.004308806	0.004742794	-0.01626378	0.1742928	0.001563388	0.004996417	0.05911367	0.05650999	
0.1093602	0.04338048	0.001563388	0.004996417	-0.05044263	0.01840948	0.0006426992	0.002611683	
0.002371883	0.002990212	0.05911367	0.05650999	0.0006426992	0.002611683	-0.116653	0.1280652	

1.044e+10	-0.01210015	0.03952846	0.005490696	0.003289368	0.1043123	0.03179394	0.003166781	0.002176305	
0.005490696	0.003289368	0.01710581	0.1619893	0.002886144	0.004249703	0.06657175	0.05134494	
0.1043123	0.03179394	0.002886144	0.004249703	-0.05574578	0.01645975	0.001379947	0.002267741	
0.003166781	0.002176305	0.06657175	0.05134494	0.001379947	0.002267741	-0.08554958	0.129792	

1.046e+10	-0.01374066	0.04140242	0.006155104	0.001560339	0.09951603	0.02455217	0.003659578	0.001141583	
0.006155104	0.001560339	0.04446976	0.1442824	0.00388032	0.003177476	0.07142739	0.04287211	
0.09951603	0.02455217	0.00388032	0.003177476	-0.05860942	0.01584696	0.001947897	0.001712896	
0.003659578	0.001141583	0.07142739	0.04287211	0.001947897	0.001712896	-0.05753547	0.1245753	

1.048e+10	-0.01366521	0.04302607	0.006287725	-0.0002319011	0.09649952	0.0183943	0.003805752	3.359359e-05	
0.006287725	-0.0002319011	0.06772208	0.1232726	0.004517561	0.00193315	0.07169874	0.03391634	
0.09649952	0.0183943	0.004517561	0.00193315	-0.0615528	0.01556382	0.002306077	0.001051523	
0.003805752	3.359359e-05	0.07169874	0.03391634	0.002306077	0.001051523	-0.03247832	0.1153135	

1.05e+10	-0.0131718	0.04545607	0.005951496	-0.001965965	0.0932042	0.01129413	0.003645264	-0.001044299	
0.005951496	-0.001965965	0.08770924	0.09723678	0.004822098	0.0005870395	0.06896822	0.02743603	
0.0932042	0.01129413	0.004822098	0.0005870395	-0.0652027	0.0181436	0.002480783	0.0003438532	
0.003645264	-0.001044299	0.06896822	0.02743603	0.002480783	0.0003438532	-0.00874896	0.101885	

1.052e+10	-0.01046815	0.05010822	0.005161409	-0.003572197	0.0876725	0.004947704	0.003203637	-0.002047787	
0.005161409	-0.003572197	0.1010408	0.06497668	0.004753484	-0.0008264872	0.06593128	0.02335915	
0.0876725	0.004947704	0.004753484	-0.0008264872	-0.06620307	0.02526726	0.002468247	-0.0004040538	
0.003203637	-0.002047787	0.06593128	0.02335915	0.002468247	-0.0004040538	0.01236203	0.08212783	

1.054e+10	-0.002541173	0.05486218	0.00389617	-0.004916977	0.08118587	0.001567637	0.002465396	-0.002907301	
0.00389617	-0.004916977	0.1032754	0.02962349	0.004229722	-0.002190326	0.06322223	0.01971211	
0.08118587	0.001567637	0.004229722	-0.002190326	-0.0603645	0.03399977	0.002211376	-0.001149944	
0.002465396	-0.002907301	0.06322223	0.01971211	0.002211376	-0.001149944	0.02664521	0.05634547	

1.056e+10	0.009936744	0.05545375	0.002250845	-0.005790732	0.07653825	0.0007572081	0.001468142	-0.003491377	
0.002250845	-0.005790732	0.09450434	-0.002286531	0.003277	-0.00328777	0.05921086	0.01582453	
0.07653825	0.0007572081	0.003277	-0.00328777	-0.04831924	0.03854513	0.001693455	-0.001768574	
0.001468142	-0.003491377	0.05921086	0.01582453	0.001693455	-0.001768574	0.03165513	0.02899744	

1.058e+10	0.02319093	0.049715	0.00045453	-0.006066296	0.07475734	-0.0004983742	0.0003489319	-0.003689939	
0.00045453	-0.006066296	0.07940711	-0.02730641	0.002068508	-0.003959889	0.0525441	0.01366126	
0.07475734	-0.0004983742	0.002068508	-0.003959889	-0.03496549	0.03669172	0.001004333	-0.002132093	
0.0003489319	-0.003689939	0.0525441	0.01366126	0.001004333	-0.002132093	0.0291534	0.004675881	

1.06e+10	0.03377952	0.03923767	-0.001236682	-0.005778447	0.0733832	-0.004499236	-0.0006975522	-0.003503636	
-0.001236682	-0.005778447	0.06186049	-0.04672195	0.0008233084	-0.004197214	0.04502447	0.0158203	
0.0733832	-0.004499236	0.0008233084	-0.004197214	-0.02356834	0.03079268	0.0003073164	-0.002210742	
-0.0006975522	-0.003503636	0.04502447	0.0158203	0.0003073164	-0.002210742	0.02290307	-0.01563337	

1.062e+10	0.04133489	0.02684832	-0.002657173	-0.005087027	0.06938163	-0.009868909	-0.001527513	-0.003062378	
-0.002657173	-0.005087027	0.04198578	-0.06263954	-0.000320314	-0.004106627	0.04034511	0.02186277	
0.06938163	-0.009868909	-0.000320314	-0.004106627	-0.01329405	0.02357389	-0.0002723345	-0.00209457	
-0.001527513	-0.003062378	0.04034511	0.02186277	-0.0002723345	-0.00209457	0.01457859	-0.03383486	

1.064e+10	0.0476086	0.01286808	-0.003778395	-0.004149491	0.06288526	-0.01352851	-0.002125056	-0.002532543	
-0.003778395	-0.004149491	0.01779267	-0.07420878	-0.001326711	-0.003796989	0.03975154	0.02843727	
0.06288526	-0.01352851	-0.001326711	-0.003796989	-0.001839569	0.01402588	-0.0007092645	-0.00191945	
-0.002125056	-0.002532543	0.03975154	0.02843727	-0.0007092645	-0.00191945	0.002630079	-0.05070984	

1.066e+10	0.05230726	-0.00484319	-0.004616074	-0.003086693	0.05657115	-0.01485488	-0.002578003	-0.002042567	
-0.004616074	-0.003086693	-0.00929749	-0.0774308	-0.002197522	-0.003353055	0.04134157	0.03351958	
0.05657115	-0.01485488	-0.002197522	-0.003353055	0.009690054	-0.001603309	-0.001083036	-0.001806758	
-0.002578003	-0.002042567	0.04134157	0.03351958	-0.001083036	-0.001806758	-0.01412314	-0.06381076	

1.068e+10	0.05167702	-0.02715866	-0.005284604	-0.001996885	0.05150013	-0.0159922	-0.003097468	-0.001632419	
-0.005284604	-0.001996885	-0.03414712	-0.07101589	-0.003042404	-0.002880078	0.04330709	0.03775523	
0.05150013	-0.0159922	-0.003042404	-0.002880078	0.01605041	-0.02433803	-0.001621073	-0.001815621	
-0.003097468	-0.001632419	0.04330709	0.03775523	-0.001621073	-0.001815621	-0.03321626	-0.0698903	

1.07e+10	0.04252705	-0.05023142	-0.00601998	-0.0007082504	0.04576141	-0.01842659	-0.003948932	-0.0009619158	
-0.00601998	-0.0007082504	-0.05239837	-0.05874868	-0.00418325	-0.002170244	0.04591608	0.04279497	
0.04576141	-0.01842659	-0.00418325	-0.002170244	0.01293945	-0.04951937	-0.002699805	-0.001564393	
-0.003948932	-0.0009619158	0.04591608	0.04279497	-0.002699805	-0.001564393	-0.05035436	-0.06943417	

1.072e+10	0.02577124	-0.06933011	-0.006486716	0.001269116	0.03697285	-0.0205746	-0.004652759	0.0005712869	
-0.006486716	0.001269116	-0.06434505	-0.04527281	-0.005286361	-0.0005099499	0.05177994	0.04853284	
0.03697285	-0.0205746	-0.005286361	-0.0005099499	0.001815997	-0.07149594	-0.003827183	-0.0001999044	
-0.004652759	0.0005712869	0.05177994	0.04853284	-0.003827183	-0.0001999044	-0.0631488	-0.06562131	

1.074e+10	0.005147902	-0.08260575	-0.005952762	0.003657868	0.02573432	-0.0192959	-0.004342233	0.002627679	
-0.005952762	0.003657868	-0.07293233	-0.03251733	-0.005328785	0.001931097	0.06151777	0.05130199	
0.02573432	-0.0192959	-0.005328785	0.001931097	-0.0130689	-0.08911582	-0.003806387	0.002022188	
-0.004342233	0.002627679	0.06151777	0.05130199	-0.003806387	0.002022188	-0.07312052	-0.06205461	

1.076e+10	-0.01726681	-0.09138201	-0.004145102	0.005696875	0.01504536	-0.01349375	-0.00270736	0.004317575	
-0.004145102	0.005696875	-0.08027324	-0.01829658	-0.003782375	0.004193388	0.07140136	0.04921237	
0.01504536	-0.01349375	-0.003782375	0.004193388	-0.03071911	-0.1046443	-0.002072843	0.003943167	
-0.00270736	0.004317575	0.07140136	0.04921237	-0.002072843	0.003943167	-0.08383654	-0.0576408	

1.078e+10	-0.0420975	-0.09631154	-0.001586524	0.006311553	0.007193631	-0.004726051	-0.000447144	0.004414311	
-0.001586524	0.006311553	-0.08308268	-0.0002320112	-0.001213119	0.004794198	0.07936062	0.04528302	
0.007193631	-0.004726051	-0.001213119	0.004794198	-0.05338568	-0.1177974	0.0005476447	0.003861964	
-0.000447144	0.004414311	0.07936062	0.04528302	0.0005476447	0.003861964	-0.0932589	-0.04807269	

1.08e+10	-0.06991379	-0.09545515	0.0002032032	0.005761318	0.002245406	0.004611933	0.0006503928	0.003436189	
0.0002032032	0.005761318	-0.07652076	0.01727277	0.0003696982	0.003966408	0.08780765	0.04008846	
0.002245406	0.004611933	0.0003696982	0.003966408	-0.08156575	-0.1250262	0.00165817	0.002340186	
0.0006503928	0.003436189	0.08780765	0.04008846	0.00165817	0.002340186	-0.09515612	-0.03608942	

1.082e+10	-0.0985814	-0.08618	0.001350258	0.005299592	-0.001696079	0.01383341	0.0009503212	0.002958307	
0.001350258	0.005299592	-0.06366726	0.0269596	0.001079021	0.003334147	0.09626318	0.03157713	
-0.001696079	0.01383341	0.001079021	0.003334147	-0.1123026	-0.1230733	0.001637508	0.001426025	
0.0009503212	0.002958307	0.09626318	0.03157713	0.001637508	0.001426025	-0.09075094	-0.02861366	

1.084e+10	-0.123844	-0.06828096	0.002553363	0.004884134	-0.005171267	0.02477506	0.001435544	0.002864967	
0.002553363	0.004884134	-0.05170314	0.02833011	0.001760394	0.002917662	0.1030431	0.01899933	
-0.005171267	0.02477506	0.001760394	0.002917662	-0.1405448	-0.1119146	0.001658906	0.001050785	
0.001435544	0.002864967	0.1030431	0.01899933	0.001658906	0.001050785	-0.08553869	-0.02766122	

1.086e+10	-0.1425869	-0.04460204	0.003822272	0.004132161	-0.005851908	0.03853925	0.00220409	0.002609666	
0.003822272	0.004132161	-0.0440469	0.02563591	0.002478177	0.002331155	0.1056326	0.002407468	
-0.005851908	0.03853925	0.002478177	0.002331155	-0.1635663	-0.0948542	0.001868924	0.0006788661	
0.00220409	0.002609666	0.1056326	0.002407468	0.001868924	0.0006788661	-0.08367353	-0.03093518	

1.088e+10	-0.1548828	-0.01846865	0.004894801	0.002951102	-0.001349896	0.05285476	0.002967412	0.001993943	
0.004894801	0.002951102	-0.03929846	0.022625	0.003045142	0.001498329	0.1014232	-0.01569226	
-0.001349896	0.05285476	0.003045142	0.001498329	-0.1821879	-0.07494369	0.002028947	0.0001389566	
0.002967412	0.001993943	0.1014232	-0.01569226	0.002028947	0.0001389566	-0.08575107	-0.03445433	

1.09e+10	-0.162358	0.009048798	0.005589109	0.00146492	0.00748137	0.06428614	0.003514525	0.001101183	
0.005589109	0.00146492	-0.03482958	0.01898971	0.003326267	0.0004977312	0.09066159	-0.03134124	
0.00748137	0.06428614	0.003326267	0.0004977312	-0.1980933	-0.05178409	0.002010821	-0.0004910034	
0.003514525	0.001101183	0.09066159	-0.03134124	0.002010821	-0.0004910034	-0.08924122	-0.03632785	

1.092e+10	-0.1648876	0.03909935	0.005835014	-0.0002045993	0.01778547	0.07203485	0.003776758	4.27265e-05	
0.005835014	-0.0002045993	-0.03130618	0.01197972	0.003257509	-0.0005396101	0.07618379	-0.04270166	
0.01778547	0.07203485	0.003257509	-0.0005396101	-0.2100013	-0.0234812	0.001748229	-0.001106552	
0.003776758	4.27265e-05	0.07618379	-0.04270166	0.001748229	-0.001106552	-0.09234751	-0.03823271	

1.094e+10	-0.1597667	0.07116612	0.005556841	-0.001925532	0.02824116	0.07782855	0.00369933	-0.001106616	
0.005556841	-0.001925532	-0.0327958	0.001603982	0.002858731	-0.001459174	0.06002287	-0.05048132	
0.02824116	0.07782855	0.002858731	-0.001459174	-0.2139745	0.009379746	0.001282951	-0.001570869	
0.00369933	-0.001106616	0.06002287	-0.05048132	0.001282951	-0.001570869	-0.09699523	-0.04235601	

1.096e+10	-0.1452014	0.1014824	0.004720541	-0.00349442	0.03979893	0.0828107	0.003221466	-0.002213969	
0.004720541	-0.00349442	-0.04178721	-0.007707089	0.002236362	-0.002159328	0.04172558	-0.05540189	
0.03979893	0.0828107	0.002236362	-0.002159328	-0.2076828	0.0422158	0.0007294319	-0.001834286	
0.003221466	-0.002213969	0.04172558	-0.05540189	0.0007294319	-0.001834286	-0.1064657	-0.04697915	

1.098e+10	-0.1230559	0.126012	0.003432446	-0.004687439	0.05390185	0.08567426	0.002373346	-0.003095466	
0.003432446	-0.004687439	-0.05550682	-0.01089001	0.001502907	-0.0026272	0.02030272	-0.05622357	
0.05390185	0.08567426	0.001502907	-0.0026272	-0.193302	0.07050903	0.0001630838	-0.001922395	
0.002373346	-0.003095466	0.02030272	-0.05622357	0.0001630838	-0.001922395	-0.120825	-0.0476186	

1.1e+10	-0.09700217	0.1433794	0.001887311	-0.005391727	0.06969904	0.08373856	0.001297625	-0.003613788	
0.001887311	-0.005391727	-0.06927212	-0.007647713	0.0007177022	-0.002887132	-0.00307935	-0.05007441	
0.06969904	0.08373856	0.0007177022	-0.002887132	-0.1747119	0.0934835	-0.0003817088	-0.001857894	
0.001297625	-0.003613788	-0.00307935	-0.05007441	-0.0003817088	-0.001857894	-0.1365033	-0.04162908	

1.102e+10	-0.0695099	0.1548111	0.0002742519	-0.005611502	0.08385449	0.07626694	0.0001726662	-0.003751829	
0.0002742519	-0.005611502	-0.08112445	-0.0009486887	-8.983509e-05	-0.002958937	-0.02446415	-0.03575576	
0.08385449	0.07626694	-8.983509e-05	-0.002958937	-0.1531105	0.1128416	-0.0008748747	-0.001660752	
0.0001726662	-0.003751829	-0.02446415	-0.03575576	-0.0008748747	-0.001660752	-0.1496925	-0.03050969	

1.104e+10	-0.04027758	0.1615445	-0.001298728	-0.005397141	0.09392808	0.06570809	-0.0008895818	-0.003573231	
-0.001298728	-0.005397141	-0.09263481	0.007957892	-0.000906657	-0.002840932	-0.04033307	-0.01545012	
0.09392808	0.06570809	-0.000906657	-0.002840932	-0.1271768	0.1288751	-0.001297852	-0.00135765	
-0.0008895818	-0.003573231	-0.04033307	-0.01545012	-0.001297852	-0.00135765	-0.1601411	-0.01708588	

1.106e+10	-0.00870583	0.1622166	-0.00275055	-0.004764092	0.1006376	0.05467358	-0.001842288	-0.003125089	
-0.00275055	-0.004764092	-0.1046639	0.02150344	-0.00170637	-0.00249209	-0.05011774	0.007740724	
0.1006376	0.05467358	-0.00170637	-0.00249209	-0.09589933	0.1387548	-0.001649078	-0.0009517122	
-0.001842288	-0.003125089	-0.05011774	0.007740724	-0.001649078	-0.0009517122	-0.1695348	-0.00133155	

1.108e+10	0.02341954	0.1540904	-0.003956304	-0.003724323	0.1057679	0.04330529	-0.002625482	-0.002419333	
-0.003956304	-0.003724323	-0.1137164	0.04224558	-0.002389688	-0.001877799	-0.05467163	0.03244874	
0.1057679	0.04330529	-0.002389688	-0.001877799	-0.06221625	0.1388261	-0.001890529	-0.0004281299	
-0.002625482	-0.002419333	-0.05467163	0.03244874	-0.001890529	-0.0004281299	-0.1773235	0.01920087	

1.11e+10	0.05161619	0.13717	-0.004765244	-0.002384176	0.1092804	0.03013777	-0.003139545	-0.001512311	
-0.004765244	-0.002384176	-0.1146851	0.06804087	-0.002823783	-0.001055207	-0.05396732	0.05868902	
0.1092804	0.03013777	-0.002823783	-0.001055207	-0.03130152	0.1290892	-0.001945	0.0001852267	
-0.003139545	-0.001512311	-0.05396732	0.05868902	-0.001945	0.0001852267	-0.1794887	0.04498455	

1.112e+10	0.07295454	0.1145157	-0.005110524	-0.000926897	0.1089403	0.01479262	-0.003319308	-0.0005334497	
-0.005110524	-0.000926897	-0.1062588	0.09335064	-0.00294199	-0.0001665432	-0.04647564	0.08588322	
0.1089403	0.01479262	-0.00294199	-0.0001665432	-0.006190122	0.1133811	-0.001760311	0.0007837408	
-0.003319308	-0.0005334497	-0.04647564	0.08588322	-0.001760311	0.0007837408	-0.1728919	0.07242862	

1.114e+10	0.0874835	0.08964767	-0.005036946	0.0004761316	0.1027299	-0.0001665029	-0.003200565	0.0003657901	
-0.005036946	0.0004761316	-0.09149689	0.1146572	-0.00278317	0.0006497126	-0.03077233	0.111263	
0.1027299	-0.0001665029	-0.00278317	0.0006497126	0.01411647	0.09455708	-0.001374448	0.00124278	
-0.003200565	0.0003657901	-0.03077233	0.111263	-0.001374448	0.00124278	-0.1582757	0.09702948	

1.116e+10	0.09704391	0.06373139	-0.004649597	0.001743965	0.09191658	-0.01116334	-0.00290219	0.001116372	
-0.004649597	0.001743965	-0.07320175	0.1325501	-0.002445692	0.001328455	-0.008097317	0.1311503	
0.09191658	-0.01116334	-0.002445692	0.001328455	0.03100129	0.07259021	-0.0009079509	0.001498025	
-0.00290219	0.001116372	-0.008097317	0.1311503	-0.0009079509	0.001498025	-0.1389428	0.1170422	

1.118e+10	0.1017209	0.03583956	-0.004010048	0.002877269	0.0798634	-0.0174145	-0.002510497	0.001759175	
-0.004010048	0.002877269	-0.05094892	0.1483869	-0.002001451	0.001884753	0.0181821	0.1439059	
0.0798634	-0.0174145	-0.002001451	0.001884753	0.04318061	0.04595374	-0.00046994	0.001592613	
-0.002510497	0.001759175	0.0181821	0.1439059	-0.00046994	0.001592613	-0.1164958	0.1336829	

1.12e+10	0.09918233	0.006406185	-0.003099809	0.003855385	0.06823819	-0.02080392	-0.002000911	0.002344422	
-0.003099809	0.003855385	-0.02251079	0.1606404	-0.001453002	0.002341627	0.04562128	0.1504972	
0.06823819	-0.02080392	-0.001453002	0.002341627	0.04702375	0.0158746	-8.117904e-05	0.001608052	
-0.002000911	0.002344422	0.04562128	0.1504972	-8.117904e-05	0.001608052	-0.08970039	0.1475892	

1.122e+10	0.087676	-0.02107342	-0.001907674	0.004571643	0.0560255	-0.02258915	-0.001312782	0.002822984	
-0.001907674	0.004571643	0.01167752	0.164887	-0.000781313	0.002666698	0.07389791	0.1518426	
0.0560255	-0.02258915	-0.000781313	0.002666698	0.04082155	-0.01293211	0.000297816	0.001575092	
-0.001312782	0.002822984	0.07389791	0.1518426	0.000297816	0.001575092	-0.0570004	0.1560985	

1.124e+10	0.06935887	-0.04229033	-0.0005374037	0.004898308	0.04210431	-0.02133672	-0.0004747396	0.003084075	
-0.0005374037	0.004898308	0.04701697	0.1584828	-2.18919e-05	0.002793514	0.1031407	0.1474097	
0.04210431	-0.02133672	-2.18919e-05	0.002793514	0.02745127	-0.03583991	0.0006854118	0.001463996	
-0.0004747396	0.003084075	0.1031407	0.1474097	0.0006854118	0.001463996	-0.02068919	0.1553685	

1.126e+10	0.04832998	-0.05615904	0.000848523	0.004794595	0.02798685	-0.01462122	0.0004045426	0.003063303	
0.000848523	0.004794595	0.07890894	0.1428667	0.0007454485	0.002692928	0.1321359	0.1353574	
0.02798685	-0.01462122	0.0007454485	0.002692928	0.01132176	-0.05253385	0.001048509	0.001238198	
0.0004045426	0.003063303	0.1321359	0.1353574	0.001048509	0.001238198	0.01480093	0.1444336	

1.128e+10	0.0272651	-0.06432304	0.00210585	0.004314955	0.01745355	-0.002408872	0.001205087	0.002792142	
0.00210585	0.004314955	0.1061233	0.1213262	0.00143924	0.002388022	0.1574119	0.1153305	
0.01745355	-0.002408872	0.00143924	0.002388022	-0.006005996	-0.06508849	0.001326335	0.0009186376	
0.001205087	0.002792142	0.1574119	0.1153305	0.001326335	0.0009186376	0.04612573	0.1255554	

1.13e+10	0.005942618	-0.06860009	0.003165221	0.003546829	0.01281105	0.01188644	0.001878824	0.002346499	
0.003165221	0.003546829	0.1296293	0.09480829	0.002024882	0.001928943	0.1760582	0.08971774	
0.01281105	0.01188644	0.002024882	0.001928943	-0.02561217	-0.0742148	0.001505491	0.0005612333	
0.001878824	0.002346499	0.1760582	0.08971774	0.001505491	0.0005612333	0.07299717	0.1011015	

1.132e+10	-0.01639869	-0.06804383	0.003996525	0.002540971	0.01264919	0.02514573	0.002426917	0.001765071	
0.003996525	0.002540971	0.1490201	0.06193956	0.002496027	0.001334546	0.1878613	0.06175112	
0.01264919	0.02514573	0.002496027	0.001334546	-0.04781708	-0.0776041	0.001613209	0.0001869001	
0.002426917	0.001765071	0.1878613	0.06175112	0.001613209	0.0001869001	0.09594031	0.07127754	

1.134e+10	-0.03788163	-0.06050573	0.004537969	0.001325534	0.01473295	0.0373406	0.002826028	0.001043418	
0.004537969	0.001325534	0.1607434	0.02213259	0.002811219	0.0006003127	0.194116	0.03257339	
0.01473295	0.0373406	0.002811219	0.0006003127	-0.06956672	-0.07300121	0.001652009	-0.0002245467	
0.002826028	0.001043418	0.194116	0.03257339	0.001652009	-0.0002245467	0.1134349	0.03455067	

1.136e+10	-0.05445012	-0.04653767	0.004699761	-1.921969e-05	0.01919415	0.04986974	0.003007128	0.0002078107	
0.004699761	-1.921969e-05	0.1608708	-0.02156706	0.002893665	-0.0002326155	0.1948805	0.001925134	
0.01919415	0.04986974	0.002893665	-0.0002326155	-0.08616404	-0.06161918	0.001580412	-0.000672897	
0.003007128	0.0002078107	0.1948805	0.001925134	0.001580412	-0.000672897	0.121511	-0.008089286	

1.138e+10	-0.0638796	-0.03018211	0.004444411	-0.001339223	0.02804026	0.06227319	0.002917849	-0.0006501314	
0.004444411	-0.001339223	0.148953	-0.0636691	0.002703707	-0.001057884	0.1884757	-0.02988331	
0.02804026	0.06227319	0.002703707	-0.001057884	-0.09597282	-0.04818538	0.001360374	-0.001107045	
0.002917849	-0.0006501314	0.1884757	-0.02988331	0.001360374	-0.001107045	0.1175832	-0.05252119	

1.14e+10	-0.06760387	-0.01503694	0.003820956	-0.002491135	0.04220439	0.07151177	0.002572146	-0.001418378	
0.003820956	-0.002491135	0.1277475	-0.1009179	0.002273784	-0.0017692	0.1732386	-0.06007729	
0.04220439	0.07151177	0.002273784	-0.0017692	-0.101164	-0.03570488	0.001002145	-0.001451932	
0.002572146	-0.001418378	0.1732386	-0.06007729	0.001002145	-0.001451932	0.1025033	-0.09419392	

1.142e+10	-0.06848461	-0.001865101	0.002933421	-0.003387389	0.05914669	0.07449358	0.002049001	-0.002021436	
0.002933421	-0.003387389	0.09952618	-0.1330927	0.001681155	-0.002308654	0.150315	-0.08468775	
0.05914669	0.07449358	0.001681155	-0.002308654	-0.104092	-0.02389762	0.0005695796	-0.001660107	
0.002049001	-0.002021436	0.150315	-0.08468775	0.0005695796	-0.001660107	0.07892437	-0.130757	

1.144e+10	-0.06740417	0.01084467	0.00187178	-0.004009842	0.07495458	0.07143068	0.001423152	-0.002455956	
0.00187178	-0.004009842	0.06420351	-0.1600097	0.0009870577	-0.002671803	0.1231291	-0.1020315	
0.07495458	0.07143068	0.0009870577	-0.002671803	-0.1043062	-0.01123919	0.0001226974	-0.001744591	
0.001423152	-0.002455956	0.1231291	-0.1020315	0.0001226974	-0.001744591	0.04829901	-0.162233	

1.146e+10	-0.06270071	0.0233431	0.0006971444	-0.004340774	0.08810016	0.06494355	0.0007183536	-0.002734312	
0.0006971444	-0.004340774	0.02090818	-0.1792246	0.0002149706	-0.002855018	0.09400937	-0.1130099	
0.08810016	0.06494355	0.0002149706	-0.002855018	-0.09957314	0.001251339	-0.0003232063	-0.001733731	
0.0007183536	-0.002734312	0.09400937	-0.1130099	-0.0003232063	-0.001733731	0.01036064	-0.1876642	

1.148e+10	-0.05341219	0.0328337	-0.0005473043	-0.004333576	0.09968691	0.05636799	-5.591874e-05	-0.002824947	
-0.0005473043	-0.004333576	-0.02812438	-0.1863598	-0.0006076961	-0.002815463	0.06315824	-0.1183296	
0.09968691	0.05636799	-0.0006076961	-0.002815463	-0.08954415	0.009838312	-0.0007759828	-0.001619601	
-5.591874e-05	-0.002824947	0.06315824	-0.1183296	-0.0007759828	-0.001619601	-0.03490954	-0.2040148	

1.15e+10	-0.04209049	0.03639568	-0.001744456	-0.003949609	0.1102335	0.04461556	-0.0008425543	-0.002680395	
-0.001744456	-0.003949609	-0.07773635	-0.1793804	-0.00139694	-0.002517037	0.03055923	-0.1168087	
0.1102335	0.04461556	-0.00139694	-0.002517037	-0.0778779	0.01168062	-0.001205906	-0.001371688	
-0.0008425543	-0.002680395	0.03055923	-0.1168087	-0.001205906	-0.001371688	-0.08410939	-0.2077603	

1.152e+10	-0.03293174	0.03460591	-0.002748462	-0.00322829	0.1178489	0.02838876	-0.001539783	-0.002299232	
-0.002748462	-0.00322829	-0.1226548	-0.1603098	-0.002047212	-0.00198666	-0.001726002	-0.106556	
0.1178489	0.02838876	-0.002047212	-0.00198666	-0.06885596	0.008161826	-0.001548015	-0.0009892355	
-0.001539783	-0.002299232	-0.001726002	-0.106556	-0.001548015	-0.0009892355	-0.1321475	-0.1984468	

1.154e+10	-0.02772539	0.03061978	-0.00346371	-0.002276964	0.1192745	0.008952801	-0.002062865	-0.001747581	
-0.00346371	-0.002276964	-0.1611846	-0.1324928	-0.002489348	-0.001305275	-0.02981441	-0.08757926	
0.1192745	0.008952801	-0.002489348	-0.001305275	-0.06346874	0.002649032	-0.001745166	-0.0005245709	
-0.002062865	-0.001747581	-0.02981441	-0.08757926	-0.001745166	-0.0005245709	-0.1753223	-0.1784716	

1.156e+10	-0.02503797	0.02701016	-0.003871046	-0.001213854	0.1133608	-0.009758308	-0.002394152	-0.001117938	
-0.003871046	-0.001213854	-0.1934328	-0.09728655	-0.002714504	-0.0005611586	-0.05079843	-0.06291023	
0.1133608	-0.009758308	-0.002714504	-0.0005611586	-0.05999331	-0.003354147	-0.0017945	-5.357301e-05	
-0.002394152	-0.001117938	-0.05079843	-0.06291023	-0.0017945	-5.357301e-05	-0.2125041	-0.150517	

1.158e+10	-0.02298483	0.02322679	-0.003991424	-0.0001156738	0.1023047	-0.02468208	-0.002564832	-0.0004619482	
-0.003991424	-0.0001156738	-0.2180647	-0.05445049	-0.002744723	0.0001972257	-0.06487329	-0.03585631	
0.1023047	-0.02468208	-0.002744723	0.0001972257	-0.05763331	-0.01125498	-0.001736275	0.0003852409	
-0.002564832	-0.0004619482	-0.06487329	-0.03585631	-0.001736275	0.0003852409	-0.2436692	-0.1153901	

1.16e+10	-0.02244718	0.01753135	-0.003828946	0.0009695834	0.08877512	-0.03577379	-0.002586075	0.000212614	
-0.003828946	0.0009695834	-0.2316276	-0.005377709	-0.002581853	0.0009407384	-0.07338187	-0.007557391	
0.08877512	-0.03577379	-0.002581853	0.0009407384	-0.05868251	-0.0220573	-0.00159501	0.0007942002	
-0.002586075	0.000212614	-0.07338187	-0.007557391	-0.00159501	0.0007942002	-0.2669864	-0.0730893	

1.162e+10	-0.02639413	0.01085732	-0.003366649	0.001973622	0.07300254	-0.04426068	-0.002431166	0.0008834307	
-0.003366649	0.001973622	-0.2314992	0.04592206	-0.002209374	0.001621759	-0.0762894	0.02223633	
0.07300254	-0.04426068	-0.002209374	0.001621759	-0.06630108	-0.0335492	-0.001359154	0.001169883	
-0.002431166	0.0008834307	-0.0762894	0.02223633	-0.001359154	0.001169883	-0.2792338	-0.02521572	

1.164e+10	-0.03537485	0.007113549	-0.002633258	0.002785566	0.05392255	-0.04932442	-0.002091842	0.001481107	
-0.002633258	0.002785566	-0.2184525	0.0940805	-0.001648126	0.00215488	-0.0721263	0.0527305	
0.05392255	-0.04932442	-0.001648126	0.00215488	-0.08028946	-0.04094483	-0.001025287	0.001470808	
-0.002091842	0.001481107	-0.0721263	0.0527305	-0.001025287	0.001470808	-0.2786545	0.02369316	

1.166e+10	-0.04621406	0.009226092	-0.001732913	0.003317576	0.03198959	-0.04824131	-0.001619119	0.001932329	
-0.001732913	0.003317576	-0.1960048	0.136024	-0.0009826496	0.002474316	-0.06002807	0.08106409	
0.03198959	-0.04824131	-0.0009826496	0.002474316	-0.09666989	-0.04157264	-0.0006361144	0.001648529	
-0.001619119	0.001932329	-0.06002807	0.08106409	-0.0006361144	0.001648529	-0.266795	0.06914694	

1.168e+10	-0.05517156	0.01640542	-0.0007907565	0.003563928	0.01044957	-0.03902831	-0.00110666	0.002219616	
-0.0007907565	0.003563928	-0.1664397	0.1719926	-0.0003134826	0.002582544	-0.04168111	0.1040522	
0.01044957	-0.03902831	-0.0003134826	0.002582544	-0.1122048	-0.0367826	-0.0002711009	0.001698804	
-0.00110666	0.002219616	-0.04168111	0.1040522	-0.0002711009	0.001698804	-0.2465179	0.1093446	

1.17e+10	-0.06118113	0.02593205	9.144534e-05	0.003590336	-0.006600867	-0.02294437	-0.0006391212	0.002403682	
9.144534e-05	0.003590336	-0.1301264	0.2016847	0.0002733895	0.002543047	-0.02053749	0.1207966	
-0.006600867	-0.02294437	0.0002733895	0.002543047	-0.1265559	-0.02856702	-1.219537e-05	0.001687756	
-0.0006391212	0.002403682	-0.02053749	0.1207966	-1.219537e-05	0.001687756	-0.2196251	0.1442667	

1.172e+10	-0.06570137	0.03688497	0.000880901	0.003513761	-0.01774063	-0.003166477	-0.0002480118	0.002619787	
0.000880901	0.003513761	-0.08734542	0.2229938	0.0007454181	0.002472999	0.001173762	0.1329048	
-0.01774063	-0.003166477	0.0007454181	0.002472999	-0.1408943	-0.01635187	9.81277e-05	0.001762871	
-0.0002480118	0.002619787	0.001173762	0.1329048	9.81277e-05	0.001762871	-0.1864678	0.1733373	

1.174e+10	-0.06862413	0.05135609	0.001673409	0.003519751	-0.02365998	0.01873922	0.0001908931	0.003147216	
0.001673409	0.003519751	-0.04072313	0.233333	0.001175416	0.002592152	0.02357464	0.1418037	
-0.02365998	0.01873922	0.001175416	0.002592152	-0.1537761	0.002711019	0.0001382445	0.002254465	
0.0001908931	0.003147216	0.02357464	0.1418037	0.0001382445	0.002254465	-0.148026	0.1945231	

1.176e+10	-0.06567371	0.07000882	0.003114985	0.003695235	-0.0233019	0.04284541	0.001638036	0.004282413	
0.003114985	0.003695235	0.005465812	0.2327958	0.002231769	0.003160805	0.04708142	0.1481592	
-0.0233019	0.04284541	0.002231769	0.003160805	-0.1596037	0.02935036	0.00104796	0.003721255	
0.001638036	0.004282413	0.04708142	0.1481592	0.00104796	0.003721255	-0.1079576	0.2074729	

1.178e+10	-0.05375408	0.08666268	0.005887118	0.001975402	-0.01446049	0.06560626	0.005734255	0.003143577	
0.005887118	0.001975402	0.04988566	0.2244634	0.005195701	0.002263901	0.07390079	0.1523415	
-0.01446049	0.06560626	0.005195701	0.002263901	-0.1532495	0.05677994	0.005300126	0.003669434	
0.005734255	0.003143577	0.07390079	0.1523415	0.005300126	0.003669434	-0.06590223	0.2166379	

1.18e+10	-0.03822551	0.09689229	0.00517733	-0.002284878	-0.000314587	0.08344641	0.005529727	-0.002614835	
0.00517733	-0.002284878	0.09408839	0.2068024	0.005439239	-0.002142793	0.1058742	0.1485398	
-0.000314587	0.08344641	0.005439239	-0.002142793	-0.1397327	0.07783812	0.006586736	-0.002271468	
0.005529727	-0.002614835	0.1058742	0.1485398	0.006586736	-0.002271468	-0.01533565	0.2172394	

1.182e+10	-0.02286166	0.1029522	0.002179931	-0.002954411	0.01686123	0.09660051	0.001213008	-0.003501969	
0.002179931	-0.002954411	0.1338138	0.1773385	0.002320958	-0.003606397	0.1352094	0.1327587	
0.01686123	0.09660051	0.002320958	-0.003606397	-0.1246258	0.09401461	0.002220662	-0.004581817	
0.001213008	-0.003501969	0.1352094	0.1327587	0.002220662	-0.004581817	0.03659471	0.1993693	

1.184e+10	-0.007592241	0.1076025	0.001081027	-0.002110331	0.0358479	0.1052845	-0.0003033127	-0.001720874	
0.001081027	-0.002110331	0.1642651	0.1386379	0.0006566686	-0.002877318	0.1561968	0.1110854	
0.0358479	0.1052845	0.0006566686	-0.002877318	-0.1082853	0.1091201	-0.0002341473	-0.003235639	
-0.0003033127	-0.001720874	0.1561968	0.1110854	-0.0002341473	-0.003235639	0.07852513	0.1668668	

1.186e+10	0.009763939	0.1112222	0.0008546997	-0.001650081	0.05565363	0.1097563	-0.0002120007	-0.0005289683	
0.0008546997	-0.001650081	0.1837401	0.09413384	6.918534e-05	-0.002201513	0.1715259	0.08790652	
0.05565363	0.1097563	6.918534e-05	-0.002201513	-0.08745028	0.1236019	-0.0008476641	-0.001872138	
-0.0002120007	-0.0005289683	0.1715259	0.08790652	-0.0008476641	-0.001872138	0.1091233	0.1267333	

1.188e+10	0.03075103	0.1116942	0.0008037844	-0.001465894	0.07607209	0.1106897	0.000291226	4.043737e-05	
0.0008037844	-0.001465894	0.1910482	0.04731503	-0.0001815388	-0.001725778	0.1826062	0.06220333	
0.07607209	0.1106897	-0.0001815388	-0.001725778	-0.06018028	0.1340949	-0.0008104536	-0.0009512702	
0.000291226	4.043737e-05	0.1826062	0.06220333	-0.0008104536	-0.0009512702	0.1281161	0.08171961	

1.19e+10	0.05421962	0.1056269	0.0009243427	-0.001378475	0.09757263	0.1074756	0.0009959289	0.0002494764	
0.0009243427	-0.001378475	0.186714	0.002443438	-0.0001968739	-0.001317471	0.1873578	0.03390007	
0.09757263	0.1074756	-0.0001968739	-0.001317471	-0.02831908	0.1362685	-0.0004416977	-0.0003088207	
0.0009959289	0.0002494764	0.1873578	0.03390007	-0.0004416977	-0.0003088207	0.1346595	0.03530214	

1.192e+10	0.07604532	0.09155801	0.001372135	-0.001603444	0.1192589	0.09825351	0.002008235	-2.574341e-05	
0.001372135	-0.001603444	0.1733451	-0.03808702	0.0001594986	-0.001092923	0.184134	0.005945244	
0.1192589	0.09825351	0.0001594986	-0.001092923	0.00335889	0.1287862	0.0003267675	2.860782e-06	
0.002008235	-2.574341e-05	0.184134	0.005945244	0.0003267675	2.860782e-06	0.1300562	-0.008443183	

1.194e+10	0.0924414	0.07175143	0.001855791	-0.002739138	0.1378486	0.08230474	0.003060145	-0.001394975	
0.001855791	-0.002739138	0.1532572	-0.07333648	0.0008193938	-0.001597178	0.1748541	-0.01762353	
0.1378486	0.08230474	0.0008193938	-0.001597178	0.03123032	0.1139166	0.001430872	-0.0005411954	
0.003060145	-0.001394975	0.1748541	-0.01762353	0.001430872	-0.0005411954	0.117223	-0.04696181	

1.196e+10	0.1032333	0.05031011	0.0009112527	-0.004944125	0.1503897	0.06226576	0.002617729	-0.004076593	
0.0009112527	-0.004944125	0.1280744	-0.1040127	0.000600647	-0.003256978	0.1643289	-0.03730446	
0.1503897	0.06226576	0.000600647	-0.003256978	0.05522889	0.09450535	0.001677495	-0.002447628	
0.002617729	-0.004076593	0.1643289	-0.03730446	0.001677495	-0.002447628	0.09961154	-0.08117752	

1.198e+10	0.1113943	0.02783775	-0.002223185	-0.005752548	0.1576352	0.04139599	-0.0002799487	-0.005582185	
-0.002223185	-0.005752548	0.09600578	-0.1307726	-0.001565326	-0.004275141	0.1519858	-0.05781292	
0.1576352	0.04139599	-0.001565326	-0.004275141	0.07693098	0.07065003	-0.0001853099	-0.003942647	
-0.0002799487	-0.005582185	0.1519858	-0.05781292	-0.0001853099	-0.003942647	0.07583496	-0.1136882	

1.2e+10	0.1166098	0.001542974	-0.00493339	-0.004095779	0.1611864	0.0198983	-0.003066514	-0.004611981	
-0.00493339	-0.004095779	0.05598106	-0.1486909	-0.003831294	-0.00329776	0.1327852	-0.07778317	
0.1611864	0.0198983	-0.003831294	-0.00329776	0.09500207	0.03971685	-0.00239797	-0.003498216	
-0.003066514	-0.004611981	0.1327852	-0.07778317	-0.00239797	-0.003498216	0.04242295	-0.1407246	

1.202e+10	0.1150172	-0.02876658	-0.006065376	-0.001633157	0.1607438	-0.002904858	-0.004486595	-0.002718249	
-0.006065376	-0.001633157	0.01318834	-0.1540565	-0.004960462	-0.001426138	0.1066287	-0.09193555	
0.1607438	-0.002904858	-0.004960462	-0.001426138	0.1047991	0.002091659	-0.003663981	-0.002105181	
-0.004486595	-0.002718249	0.1066287	-0.09193555	-0.003663981	-0.002105181	0.002450242	-0.1566708	

1.204e+10	0.1037946	-0.05956166	-0.006056585	0.0006964862	0.1547322	-0.026765	-0.004904379	-0.0008092765	
-0.006056585	0.0006964862	-0.02729865	-0.148156	-0.005130372	0.0004939986	0.07707027	-0.09697396	
0.1547322	-0.026765	-0.005130372	0.0004939986	0.1032186	-0.03811209	-0.004103978	-0.000566554	
-0.004904379	-0.0008092765	0.07707027	-0.09697396	-0.004103978	-0.000566554	-0.03866082	-0.1604171	

1.206e+10	0.08345838	-0.0862247	-0.005306796	0.002644715	0.1413864	-0.04955715	-0.004654857	0.000876179	
-0.005306796	0.002644715	-0.06353387	-0.133802	-0.004632914	0.002179096	0.04904846	-0.09293038	
0.1413864	-0.04955715	-0.004632914	0.002179096	0.0910358	-0.07610965	-0.003955524	0.0008479909	
-0.004654857	0.000876179	0.04904846	-0.09293038	-0.003955524	0.0008479909	-0.07683091	-0.1540316	

1.208e+10	0.05707246	-0.1060704	-0.004066914	0.004114034	0.1211841	-0.06742807	-0.003945339	0.002223992	
-0.004066914	0.004114034	-0.09496767	-0.112101	-0.003676596	0.003504848	0.02536947	-0.08290734	
0.1211841	-0.06742807	-0.003676596	0.003504848	0.07079501	-0.1096757	-0.003392287	0.002003796	
-0.003945339	0.002223992	0.02536947	-0.08290734	-0.003392287	0.002003796	-0.1105073	-0.140027	

1.21e+10	0.02758585	-0.1191175	-0.002552074	0.005065422	0.0973722	-0.07804613	-0.002973104	0.003188263	
-0.002552074	0.005065422	-0.1198962	-0.08360964	-0.002438985	0.004423687	0.005432018	-0.06975181	
0.0973722	-0.07804613	-0.002438985	0.004423687	0.04368119	-0.1388093	-0.002582952	0.002851599	
-0.002973104	0.003188263	0.005432018	-0.06975181	-0.002582952	0.002851599	-0.1395996	-0.1196513	

1.212e+10	-0.00435342	-0.126245	-0.0009165158	0.005534425	0.07330578	-0.08220147	-0.001878387	0.003817386	
-0.0009165158	0.005534425	-0.1360003	-0.04979597	-0.001051773	0.004943961	-0.01219057	-0.05322684	
0.07330578	-0.08220147	-0.001051773	0.004943961	0.00946198	-0.1623745	-0.00165128	0.003417358	
-0.001878387	0.003817386	-0.01219057	-0.05322684	-0.00165128	0.003417358	-0.1629379	-0.09293814	

1.214e+10	-0.03902213	-0.1263724	0.0007548073	0.005548393	0.04954869	-0.08166978	-0.0006966813	0.004156518	
0.0007548073	0.005548393	-0.1416014	-0.01438334	0.0004127366	0.005073339	-0.02609512	-0.03198438	
0.04954869	-0.08166978	0.0004127366	0.005073339	-0.03157713	-0.1774524	-0.0006299738	0.003734538	
-0.0006966813	0.004156518	-0.02609512	-0.03198438	-0.0006299738	0.003734538	-0.1778496	-0.06130797	

1.216e+10	-0.07475445	-0.1168903	0.002375082	0.005085961	0.02552836	-0.07627853	0.0005552853	0.004165552	
0.002375082	0.005085961	-0.1376375	0.01853594	0.001869773	0.004781412	-0.03317209	-0.007159939	
0.02552836	-0.07627853	0.001869773	0.004781412	-0.07639281	-0.1808471	0.0004581952	0.003765928	
0.0005552853	0.004165552	-0.03317209	-0.007159939	0.0004581952	0.003765928	-0.1825801	-0.02842806	

1.218e+10	-0.107095	-0.09703968	0.003788209	0.004145276	0.002208151	-0.06439315	0.001768823	0.003779466	
0.003788209	0.004145276	-0.126996	0.04690166	0.003182287	0.00406071	-0.03225813	0.01746374	
0.002208151	-0.06439315	0.003182287	0.00406071	-0.1202736	-0.172024	0.001520591	0.00345859	
0.001768823	0.003779466	-0.03225813	0.01746374	0.001520591	0.00345859	-0.1785021	0.001682392	

1.22e+10	-0.1323416	-0.0693042	0.004825778	0.002821539	-0.01730318	-0.04543147	0.002772635	0.003023468	
0.004825778	0.002821539	-0.1117046	0.07088988	0.004200876	0.002987063	-0.02547309	0.03847105	
-0.01730318	-0.04543147	0.004200876	0.002987063	-0.1596916	-0.1531922	0.002411153	0.002834899	
0.002772635	0.003023468	-0.02547309	0.03847105	0.002411153	0.002834899	-0.1685682	0.02727189	

1.222e+10	-0.1494287	-0.03728447	0.005392291	0.001288504	-0.02981507	-0.0217495	0.003442056	0.002039277	
0.005392291	0.001288504	-0.09204086	0.09038517	0.004841243	0.001702877	-0.01611815	0.05573309	
-0.02981507	-0.0217495	0.004841243	0.001702877	-0.1935747	-0.1267682	0.003027072	0.002015907	
0.003442056	0.002039277	-0.01611815	0.05573309	0.003027072	0.002015907	-0.1547862	0.04874451	

1.224e+10	-0.1593106	-0.00305892	0.005498327	-0.0002769939	-0.03497945	0.002906568	0.003780521	0.0009915896	
0.005498327	-0.0002769939	-0.06857274	0.1038776	0.005108277	0.0003462769	-0.004954853	0.07123288	
-0.03497945	0.002906568	0.005108277	0.0003462769	-0.2216153	-0.09334061	0.00337624	0.001135902	
0.003780521	0.0009915896	-0.004954853	0.07123288	0.00337624	0.001135902	-0.1371404	0.06635533	

1.226e+10	-0.1621959	0.03320554	0.005211492	-0.001773832	-0.03474372	0.02656358	0.003865627	-4.591003e-05	
0.005211492	-0.001773832	-0.04343427	0.1097584	0.005043118	-0.001009179	0.009853376	0.08525146	
-0.03474372	0.02656358	0.005043118	-0.001009179	-0.2419788	-0.05306969	0.003523502	0.0002477345	
0.003865627	-4.591003e-05	0.009853376	0.08525146	0.003523502	0.0002477345	-0.1155708	0.07857132	

1.228e+10	-0.1563156	0.07094079	0.004564903	-0.003159946	-0.0301863	0.04966727	0.003724858	-0.001080832	
0.004564903	-0.003159946	-0.02001179	0.1081847	0.004652122	-0.002328898	0.02887141	0.09494955	
-0.0301863	0.04966727	0.004652122	-0.002328898	-0.2516899	-0.00777776	0.003485399	-0.0006614085	
0.003724858	-0.001080832	0.02887141	0.09494955	0.003485399	-0.0006614085	-0.0924168	0.08315406	

1.23e+10	-0.1400004	0.1068063	0.003549915	-0.004362566	-0.02032484	0.07221116	0.003309425	-0.002089949	
0.003549915	-0.004362566	-0.0006658858	0.1014678	0.003907214	-0.003541976	0.04944231	0.09795984	
-0.02032484	0.07221116	0.003907214	-0.003541976	-0.2489976	0.03845787	0.003211413	-0.001575132	
0.003309425	-0.002089949	0.04944231	0.09795984	0.003211413	-0.001575132	-0.07154409	0.08035578	

1.232e+10	-0.1146696	0.136561	0.002199728	-0.005252695	-0.004143761	0.09213987	0.002589763	-0.002963059	
0.002199728	-0.005252695	0.01460908	0.09220686	0.00282355	-0.004520907	0.06783025	0.09512259	
-0.004143761	0.09213987	0.00282355	-0.004520907	-0.2352593	0.08123599	0.002666699	-0.002397822	
0.002589763	-0.002963059	0.06783025	0.09512259	0.002666699	-0.002397822	-0.05529366	0.07311133	

1.234e+10	-0.08387402	0.1580767	0.0006235749	-0.00571317	0.01729251	0.1064141	0.001627817	-0.003570762	
0.0006235749	-0.00571317	0.02681744	0.08113594	0.001485204	-0.005150331	0.0828241	0.0895641	
0.01729251	0.1064141	0.001485204	-0.005150331	-0.2131907	0.1188067	0.001894051	-0.003016217	
0.001627817	-0.003570762	0.0828241	0.0895641	0.001894051	-0.003016217	-0.04306393	0.06415844	

1.236e+10	-0.05050275	0.1719259	-0.001023052	-0.005691585	0.04067806	0.113522	0.0005566692	-0.003854914	
-0.001023052	-0.005691585	0.0356692	0.06806965	2.575965e-05	-0.005366938	0.09618911	0.08306337	
0.04067806	0.113522	2.575965e-05	-0.005366938	-0.1843566	0.1509478	0.001002648	-0.003371051	
0.0005566692	-0.003854914	0.09618911	0.08306337	0.001002648	-0.003371051	-0.03358277	0.05410019	

1.238e+10	-0.01543043	0.1791065	-0.002593582	-0.00520647	0.0631194	0.1148707	-0.0005189132	-0.003845547	
-0.002593582	-0.00520647	0.03986365	0.05374109	-0.001426669	-0.0051654	0.1094287	0.07419467	
0.0631194	0.1148707	-0.001426669	-0.0051654	-0.1487464	0.1768925	7.876025e-05	-0.003476008	
-0.0005189132	-0.003845547	0.1094287	0.07419467	7.876025e-05	-0.003476008	-0.0270227	0.04212453	

1.24e+10	0.02130837	0.1790163	-0.003973818	-0.004304877	0.08429737	0.1125269	-0.001561326	-0.003570337	
-0.003973818	-0.004304877	0.03889911	0.04050131	-0.002753444	-0.00457165	0.1207424	0.06105221	
0.08429737	0.1125269	-0.002753444	-0.00457165	-0.1069693	0.1942551	-0.0008334177	-0.003345143	
-0.001561326	-0.003570337	0.1207424	0.06105221	-0.0008334177	-0.003345143	-0.0252007	0.02886775	

1.242e+10	0.05818087	0.1697777	-0.005060381	-0.003033376	0.1052452	0.1065575	-0.002524065	-0.003004867	
-0.005060381	-0.003033376	0.0341935	0.03062948	-0.003845687	-0.003636685	0.1269211	0.04484293	
0.1052452	0.1065575	-0.003845687	-0.003636685	-0.0617917	0.2004835	-0.001680989	-0.002966305	
-0.002524065	-0.003004867	0.1269211	0.04484293	-0.001680989	-0.002966305	-0.02893964	0.01725834	

1.244e+10	0.09144204	0.1510006	-0.005732402	-0.0014825	0.1254619	0.09551065	-0.003290603	-0.002145936	
-0.005732402	-0.0014825	0.02832791	0.0247486	-0.004609189	-0.002460044	0.127305	0.02928538	
0.1254619	0.09551065	-0.004609189	-0.002460044	-0.01725609	0.1951586	-0.002371159	-0.002357953	
-0.003290603	-0.002145936	0.127305	0.02928538	-0.002371159	-0.002357953	-0.03618321	0.01019109	

1.246e+10	0.118015	0.1250158	-0.005909351	0.0001929359	0.1424325	0.07880547	-0.003736119	-0.001085443	
-0.005909351	0.0001929359	0.02279603	0.02148189	-0.005006562	-0.001171513	0.1244306	0.01665277	
0.1424325	0.07880547	-0.005006562	-0.001171513	0.02350702	0.1803041	-0.002825984	-0.001604078	
-0.003736119	-0.001085443	0.1244306	0.01665277	-0.002825984	-0.001604078	-0.04358464	0.007685147	

1.248e+10	0.1370956	0.09497555	-0.005591831	0.00181366	0.1536168	0.05836277	-0.003817458	1.798948e-05	
-0.005591831	0.00181366	0.01729416	0.01998113	-0.005059757	0.0001165891	0.120912	0.005984239	
0.1536168	0.05836277	-0.005059757	0.0001165891	0.05977203	0.157724	-0.003035717	-0.0008145539	
-0.003817458	1.798948e-05	0.120912	0.005984239	-0.003035717	-0.0008145539	-0.04970006	0.007765048	

1.25e+10	0.1494944	0.06262072	-0.00486029	0.003236511	0.1588432	0.03737042	-0.003597485	0.001029524	
-0.00486029	0.003236511	0.01167462	0.0209004	-0.004823582	0.001325919	0.1163206	-0.004810402	
0.1588432	0.03737042	-0.004823582	0.001325919	0.09080585	0.1278424	-0.003054789	-7.038974e-05	
-0.003597485	0.001029524	0.1163206	-0.004810402	-0.003054789	-7.038974e-05	-0.05527368	0.009229809	

1.252e+10	0.1553756	0.02812169	-0.00382505	0.004387828	0.1600982	0.01729809	-0.003168682	0.001917511	
-0.00382505	0.004387828	0.00717978	0.02514816	-0.004360524	0.002431026	0.1082739	-0.01530343	
0.1600982	0.01729809	-0.004360524	0.002431026	0.1146824	0.09061293	-0.002951181	0.0006267545	
-0.003168682	0.001917511	0.1082739	-0.01530343	-0.002951181	0.0006267545	-0.06112156	0.01309217	

1.254e+10	0.1531639	-0.008138497	-0.002557258	0.005261791	0.1584231	-0.00291741	-0.002560557	0.00268885	
-0.002557258	0.005261791	0.006096579	0.03192306	-0.003664013	0.003429922	0.09656844	-0.02239402	
0.1584231	-0.00291741	-0.003664013	0.003429922	0.1283972	0.04783978	-0.00272216	0.001308917	
-0.002560557	0.00268885	0.09656844	-0.02239402	-0.00272216	0.001308917	-0.06552691	0.02091231	

1.256e+10	0.1411008	-0.04331663	-0.001077072	0.005817026	0.1523605	-0.02387619	-0.001749174	0.003314799	
-0.001077072	0.005817026	0.009494701	0.03873428	-0.002719012	0.004269638	0.0843074	-0.02422572	
0.1523605	-0.02387619	-0.002719012	0.004269638	0.1302443	0.003451967	-0.002320018	0.001956407	
-0.001749174	0.003314799	0.0843074	-0.02422572	-0.002320018	0.001956407	-0.06523451	0.03163398	

1.258e+10	0.1199167	-0.07336706	0.000553908	0.00595851	0.1401031	-0.0436319	-0.0007485319	0.003695657	
0.000553908	0.00595851	0.01619533	0.04310069	-0.001549196	0.004851349	0.0745149	-0.0225215	
0.1401031	-0.0436319	-0.001549196	0.004851349	0.1210525	-0.03857458	-0.001728566	0.002484303	
-0.0007485319	0.003695657	0.0745149	-0.0225215	-0.001728566	0.002484303	-0.05922668	0.04162521	

1.26e+10	0.09272895	-0.09578916	0.002191116	0.005614708	0.1222069	-0.05882998	0.0003359057	0.003742355	
0.002191116	0.005614708	0.0239932	0.04476777	-0.0002505567	0.005092039	0.06711749	-0.02022307	
0.1222069	-0.05882998	-0.0002505567	0.005092039	0.1030686	-0.07611934	-0.001010744	0.002808988	
0.0003359057	0.003742355	0.06711749	-0.02022307	-0.001010744	0.002808988	-0.04974102	0.0482024	

1.262e+10	0.06253365	-0.1106179	0.00365709	0.004804617	0.1017949	-0.06764262	0.001354424	0.003456616	
0.00365709	0.004804617	0.03240339	0.04466007	0.001055898	0.004972732	0.05978343	-0.01808157	
0.1017949	-0.06764262	0.001055898	0.004972732	0.07752171	-0.1084771	-0.0002660501	0.002914382	
0.001354424	0.003456616	0.05978343	-0.01808157	-0.0002660501	0.002914382	-0.03925316	0.05158315	

1.264e+10	0.03051463	-0.1186489	0.004816679	0.003638203	0.08164508	-0.07127626	0.002211745	0.002926786	
0.004816679	0.003638203	0.04204236	0.04257403	0.002270242	0.004532975	0.05158955	-0.013918	
0.08164508	-0.07127626	0.002270242	0.004532975	0.04472983	-0.1342125	0.0004438531	0.002847717	
0.002211745	0.002926786	0.05158955	-0.013918	0.0004438531	0.002847717	-0.0280388	0.05324789	

1.266e+10	-0.003267184	-0.1193553	0.005629537	0.002231279	0.06174795	-0.07160893	0.00290121	0.00222996	
0.005629537	0.002231279	0.05276136	0.03698097	0.003343849	0.003817497	0.04482083	-0.006084949	
0.06174795	-0.07160893	0.003343849	0.003817497	0.005990097	-0.1507811	0.001119213	0.002642341	
0.00290121	0.00222996	0.04482083	-0.006084949	0.001119213	0.002642341	-0.01466295	0.05290876	

1.268e+10	-0.03708022	-0.1108211	0.006076182	0.0006514053	0.04098344	-0.06803563	0.00342338	0.001373137	
0.006076182	0.0006514053	0.06245896	0.02667322	0.004226842	0.002842998	0.0422858	0.003626287	
0.04098344	-0.06803563	0.004226842	0.002842998	-0.03547942	-0.1560372	0.00175689	0.002274217	
0.00342338	0.001373137	0.0422858	0.003626287	0.00175689	0.002274217	0.0008262578	0.04795988	

1.27e+10	-0.0668904	-0.09247341	0.006091486	-0.001048712	0.02038384	-0.05836382	0.003707301	0.0003543801	
0.006091486	-0.001048712	0.06843298	0.01252647	0.004833069	0.001631768	0.04366741	0.01186254	
0.02038384	-0.05836382	0.004833069	0.001631768	-0.07557882	-0.1498155	0.002288966	0.001715545	
0.003707301	0.0003543801	0.04366741	0.01186254	0.002288966	0.001715545	0.01521456	0.03646093	

1.272e+10	-0.08894086	-0.06709479	0.005596503	-0.002732378	0.003453569	-0.04217785	0.003654606	-0.0007411469	
0.005596503	-0.002732378	0.0696443	-0.002932234	0.005064897	0.0002812475	0.04621357	0.01752813	
0.003453569	-0.04217785	0.005064897	0.0002812475	-0.1109371	-0.134243	0.002618437	0.001012839	
0.003654606	-0.0007411469	0.04621357	0.01752813	0.002618437	0.001012839	0.02489626	0.02018363	

1.274e+10	-0.1024711	-0.03874105	0.00460578	-0.004195347	-0.006930354	-0.02220984	0.003244171	-0.001754263	
0.00460578	-0.004195347	0.06715576	-0.01791396	0.004894515	-0.001057248	0.04818928	0.02238099	
-0.006930354	-0.02220984	0.004894515	-0.001057248	-0.1405213	-0.1118157	0.002705854	0.0002760626	
0.003244171	-0.001754263	0.04818928	0.02238099	0.002705854	0.0002760626	0.02920351	0.002424726	

1.276e+10	-0.1088556	-0.009734257	0.003241328	-0.005279846	-0.01106988	-0.002103685	0.002565743	-0.002549583	
0.003241328	-0.005279846	0.06170661	-0.03259203	0.004375511	-0.002257596	0.05088465	0.02827552	
-0.01106988	-0.002103685	0.004375511	-0.002257596	-0.1638626	-0.08356422	0.002596444	-0.0003975298	
0.002565743	-0.002549583	0.05088465	0.02827552	0.002596444	-0.0003975298	0.02969721	-0.01512496	

1.278e+10	-0.1089701	0.01960682	0.001675667	-0.005923656	-0.01125583	0.01680107	0.001748824	-0.003096707	
0.001675667	-0.005923656	0.05264186	-0.04706561	0.003595667	-0.003251215	0.05667018	0.03410071	
-0.01125583	0.01680107	0.003595667	-0.003251215	-0.1794713	-0.05031193	0.002361721	-0.0009881229	
0.001748824	-0.003096707	0.05667018	0.03410071	0.002361721	-0.0009881229	0.02734707	-0.03323133	

1.28e+10	-0.1018008	0.04886221	2.703187e-05	-0.006146041	-0.008439609	0.03559105	0.0008545773	-0.003433138	
2.703187e-05	-0.006146041	0.03888731	-0.06003478	0.002613845	-0.004017902	0.06519729	0.03676528	
-0.008439609	0.03559105	0.002613845	-0.004017902	-0.1854269	-0.01420271	0.002018733	-0.001518519	
0.0008545773	-0.003433138	0.06519729	0.03676528	0.002018733	-0.001518519	0.02069041	-0.05260104	

1.282e+10	-0.08617019	0.07527705	-0.001641596	-0.00594761	-0.001006221	0.05458873	-0.0001193516	-0.003552896	
-0.001641596	-0.00594761	0.02073226	-0.06900794	0.001459043	-0.004516476	0.07326599	0.03515351	
-0.001006221	0.05458873	0.001459043	-0.004516476	-0.180983	0.02119657	0.001537547	-0.001967475	
-0.0001193516	-0.003552896	0.07326599	0.03515351	0.001537547	-0.001967475	0.007521941	-0.07120782	

1.284e+10	-0.06368959	0.09492319	-0.003236845	-0.00528412	0.01231835	0.07132305	-0.001135286	-0.003383198	
-0.003236845	-0.00528412	0.0004296117	-0.07218372	0.0002002434	-0.004674313	0.07856762	0.03147572	
0.01231835	0.07132305	0.0002002434	-0.004674313	-0.1676751	0.05222498	0.0009284795	-0.0022559	
-0.001135286	-0.003383198	0.07856762	0.03147572	0.0009284795	-0.0022559	-0.01168426	-0.08521973	

1.286e+10	-0.03829754	0.1062591	-0.004586128	-0.004161365	0.02996927	0.08272153	-0.002062465	-0.00288401	
-0.004586128	-0.004161365	-0.01947178	-0.07002308	-0.00103118	-0.00445943	0.0820023	0.02832053	
0.02996927	0.08272153	-0.00103118	-0.00445943	-0.1484274	0.07736521	0.0002810828	-0.002328194	
-0.002062465	-0.00288401	0.0820023	0.02832053	0.0002810828	-0.002328194	-0.03356415	-0.09271993	

1.288e+10	-0.01320534	0.1106448	-0.005526767	-0.00269081	0.04854924	0.08796131	-0.002756239	-0.002125657	
-0.005526767	-0.00269081	-0.03818764	-0.06393344	-0.002107998	-0.003921534	0.08581605	0.02549809	
0.04854924	0.08796131	-0.002107998	-0.003921534	-0.1249325	0.09687267	-0.0003036657	-0.002213366	
-0.002756239	-0.002125657	0.08581605	0.02549809	-0.0003036657	-0.002213366	-0.0553295	-0.09487505	

1.29e+10	0.0109268	0.1099383	-0.005984788	-0.001056357	0.06572241	0.08901678	-0.003163633	-0.001249379	
-0.005984788	-0.001056357	-0.0559996	-0.05413488	-0.002960649	-0.00315829	0.09027031	0.02077915	
0.06572241	0.08901678	-0.002960649	-0.00315829	-0.09774594	0.1102488	-0.0007887967	-0.001991258	
-0.003163633	-0.001249379	0.09027031	0.02077915	-0.0007887967	-0.001991258	-0.07677066	-0.09346213	

1.292e+10	0.03457837	0.104171	-0.00599377	0.0005824139	0.0820884	0.08789976	-0.003332026	-0.0003560909	
-0.00599377	0.0005824139	-0.072347	-0.0397731	-0.003581871	-0.002251261	0.09278529	0.01321042	
0.0820884	0.08789976	-0.003581871	-0.002251261	-0.06797043	0.1160383	-0.001206492	-0.001705251	
-0.003332026	-0.0003560909	0.09278529	0.01321042	-0.001206492	-0.001705251	-0.09905695	-0.08822552	

1.294e+10	0.05665565	0.09201685	-0.005610256	0.002154699	0.09912253	0.08398769	-0.003305679	0.0005425106	
-0.005610256	0.002154699	-0.08522722	-0.02050845	-0.003972215	-0.001230366	0.09122689	0.005093986	
0.09912253	0.08398769	-0.003972215	-0.001230366	-0.03818035	0.1129938	-0.00157396	-0.001329158	
-0.003305679	0.0005425106	0.09122689	0.005093986	-0.00157396	-0.001329158	-0.121566	-0.07699942	

1.296e+10	0.07395352	0.07347748	-0.004833483	0.003609333	0.1159243	0.07520158	-0.003050527	0.001450455	
-0.004833483	0.003609333	-0.0924011	0.002145281	-0.004086205	-0.0001277003	0.08673704	-0.0005832183	
0.1159243	0.07520158	-0.004086205	-0.0001277003	-0.01178021	0.1018913	-0.001836662	-0.0008389517	
-0.003050527	0.001450455	0.08673704	-0.0005832183	-0.001836662	-0.0008389517	-0.1410081	-0.05878264	

1.298e+10	0.08379273	0.05144687	-0.003647603	0.004826497	0.1294116	0.06133295	-0.002508134	0.002283027	
-0.003647603	0.004826497	-0.09327849	0.02534321	-0.003873686	0.0009651003	0.08216743	-0.003594117	
0.1294116	0.06133295	-0.003873686	0.0009651003	0.009011683	0.08518264	-0.001920273	-0.0002869868	
-0.002508134	0.002283027	0.08216743	-0.003594117	-0.001920273	-0.0002869868	-0.1541616	-0.03595963	

1.3e+10	0.08655887	0.0296678	-0.002131069	0.00564269	0.1375049	0.04499667	-0.001710546	0.002896989	
-0.002131069	0.00564269	-0.08929855	0.04738097	-0.003356146	0.001920528	0.07849607	-0.006025611	
0.1375049	0.04499667	-0.003356146	0.001920528	0.02422572	0.06516885	-0.00182077	0.0002264662	
-0.001710546	0.002896989	0.07849607	-0.006025611	-0.00182077	0.0002264662	-0.1610617	-0.01202548	

1.302e+10	0.08438881	0.009739641	-0.0004600444	0.005957063	0.1409806	0.02913667	-0.000787232	0.003205034	
-0.0004600444	0.005957063	-0.08148076	0.06834624	-0.0026231	0.002650713	0.07404897	-0.009205701	
0.1409806	0.02913667	-0.0026231	0.002650713	0.03413991	0.04275103	-0.001606005	0.0006374842	
-0.000787232	0.003205034	0.07404897	-0.009205701	-0.001606005	0.0006374842	-0.163678	0.0117613	

1.304e+10	0.07853664	-0.00876294	0.001175059	0.005789047	0.1421738	0.01428833	0.0001222924	0.003231887	
0.001175059	0.005789047	-0.06929923	0.08825362	-0.001772251	0.003138832	0.06702637	-0.01158385	
0.1421738	0.01428833	-0.001772251	0.003138832	0.03790209	0.01842226	-0.001342277	0.0009602673	
0.0001222924	0.003231887	0.06702637	-0.01158385	-0.001342277	0.0009602673	-0.1627244	0.0363732	

1.306e+10	0.06814379	-0.02608565	0.002670581	0.005228445	0.1415846	-0.001232007	0.0009691969	0.003057147	
0.002670581	0.005228445	-0.05192154	0.1057514	-0.0008552684	0.003402453	0.05839578	-0.01047024	
0.1415846	-0.001232007	-0.0008552684	0.003402453	0.03434108	-0.005939883	-0.001030685	0.001231374	
0.0009691969	0.003057147	0.05839578	-0.01047024	-0.001030685	0.001231374	-0.156424	0.06234357	

1.308e+10	0.05214219	-0.04013025	0.003991242	0.004323905	0.1370688	-0.01795663	0.001772574	0.002699924	
0.003991242	0.004323905	-0.03006516	0.1183819	0.0001074776	0.003427615	0.05116589	-0.005559117	
0.1370688	-0.01795663	0.0001074776	0.003427615	0.02346931	-0.02759293	-0.0006348637	0.001431977	
0.001772574	0.002699924	0.05116589	-0.005559117	-0.0006348637	0.001431977	-0.1426669	0.08732365	

1.31e+10	0.03205472	-0.04760726	0.005067522	0.003065133	0.1269599	-0.03324337	0.00249936	0.002109508	
0.005067522	0.003065133	-0.006164274	0.1247878	0.00105471	0.003167623	0.04691044	0.0007843048	
0.1269599	-0.03324337	0.00105471	0.003167623	0.00709714	-0.04394054	-0.0001735902	0.001488915	
0.00249936	0.002109508	0.04691044	0.0007843048	-0.0001735902	0.001488915	-0.1223658	0.1074254	

1.312e+10	0.01178293	-0.0473891	0.005748238	0.001494733	0.1128212	-0.04389644	0.003026963	0.001276212	
0.005748238	0.001494733	0.01733284	0.1257006	0.001864874	0.002619482	0.04435011	0.006623658	
0.1128212	-0.04389644	0.001864874	0.002619482	-0.01203177	-0.05409306	0.0002625504	0.001368034	
0.003026963	0.001276212	0.04435011	0.006623658	0.0002625504	0.001368034	-0.09898053	0.1210167	

1.314e+10	-0.00563751	-0.04153213	0.005907224	-0.0002194782	0.09800789	-0.04939146	0.003237318	0.0003097168	
0.005907224	-0.0002194782	0.03995976	0.1226338	0.002430847	0.00186802	0.04171964	0.01262133	
0.09800789	-0.04939146	0.002430847	0.00186802	-0.03226278	-0.05873433	0.0005854593	0.00112193	
0.003237318	0.0003097168	0.04171964	0.01262133	0.0005854593	0.00112193	-0.07492026	0.1296612	

1.316e+10	-0.01999364	-0.03248649	0.005544184	-0.001863239	0.08434892	-0.05183297	0.003124609	-0.0006239615	
0.005544184	-0.001863239	0.06210629	0.1155806	0.0027211	0.001034464	0.03943974	0.02077751	
0.08434892	-0.05183297	0.0027211	0.001034464	-0.05295225	-0.05805112	0.0007813126	0.0008405571	
0.003124609	-0.0006239615	0.03943974	0.02077751	0.0007813126	0.0008405571	-0.04987817	0.1347659	

1.318e+10	-0.0323137	-0.0205861	0.004766457	-0.003290615	0.07067964	-0.05287705	0.002787249	-0.001430054	
0.004766457	-0.003290615	0.08306437	0.1035257	0.002769303	0.0002039043	0.04012665	0.03135939	
0.07067964	-0.05287705	0.002769303	0.0002039043	-0.07311215	-0.05130786	0.0009005417	0.0005651716	
0.002787249	-0.001430054	0.04012665	0.03135939	0.0009005417	0.0005651716	-0.02263816	0.1353093	

1.32e+10	-0.04189133	-0.004580448	0.003678853	-0.00445678	0.05558702	-0.05123318	0.002302873	-0.002120272	
0.003678853	-0.00445678	0.1006525	0.08638547	0.002604646	-0.0005907571	0.04547525	0.04179613	
0.05558702	-0.05123318	0.002604646	-0.0005907571	-0.09053915	-0.038208	0.0009674249	0.0002711294	
0.002302873	-0.002120272	0.04547525	0.04179613	0.0009674249	0.0002711294	0.005473345	0.1287637	

1.322e+10	-0.04578667	0.01525783	0.002310497	-0.005333114	0.04048364	-0.04459246	0.00165272	-0.002712804	
0.002310497	-0.005333114	0.1129949	0.06590459	0.002216229	-0.001315796	0.05412998	0.04930633	
0.04048364	-0.04459246	0.002216229	-0.001315796	-0.1026719	-0.01993879	0.0009404093	-5.489228e-05	
0.00165272	-0.002712804	0.05412998	0.04930633	0.0009404093	-5.489228e-05	0.03078948	0.1145958	

1.324e+10	-0.0418355	0.03546653	0.0006918297	-0.005813077	0.02876325	-0.03323332	0.0007998386	-0.003127854	
0.0006918297	-0.005813077	0.1200283	0.04460951	0.001602124	-0.00188189	0.06348787	0.05378069	
0.02876325	-0.03323332	0.001602124	-0.00188189	-0.1080176	0.0007164105	0.0007752724	-0.0003520708	
0.0007998386	-0.003127854	0.06348787	0.05378069	0.0007752724	-0.0003520708	0.0504201	0.09549688	

1.326e+10	-0.03144777	0.05204937	-0.001042792	-0.005772466	0.02205606	-0.02022907	-0.0001834592	-0.00323981	
-0.001042792	-0.005772466	0.1231013	0.02363651	0.0008357402	-0.002188129	0.07288006	0.05696268	
0.02205606	-0.02022907	0.0008357402	-0.002188129	-0.1070983	0.02116718	0.0005070067	-0.0005304224	
-0.0001834592	-0.00323981	0.07288006	0.05696268	0.0005070067	-0.0005304224	0.06479756	0.07471471	

1.328e+10	-0.01794649	0.06384668	-0.002678066	-0.005190881	0.01887332	-0.008215757	-0.001135633	-0.003014911	
-0.002678066	-0.005190881	0.122883	0.00257532	4.840635e-05	-0.002202568	0.08382614	0.05940275	
0.01887332	-0.008215757	4.840635e-05	-0.002202568	-0.1011358	0.04032864	0.0002326201	-0.0005660886	
-0.001135633	-0.003014911	0.08382614	0.05940275	0.0002326201	-0.0005660886	0.07585764	0.0527735	

1.33e+10	-0.003027032	0.07210249	-0.004041886	-0.004166536	0.01687159	0.003038414	-0.001938047	-0.00253945	
-0.004041886	-0.004166536	0.1185616	-0.01858873	-0.000656951	-0.001971421	0.09737563	0.05916342	
0.01687159	0.003038414	-0.000656951	-0.001971421	-0.09028572	0.0578512	1.464355e-05	-0.0005171327	
-0.001938047	-0.00253945	0.09737563	0.05916342	1.464355e-05	-0.0005171327	0.08359135	0.02839985	

1.332e+10	0.01395505	0.07741934	-0.005067257	-0.002816925	0.0160861	0.01538941	-0.002594987	-0.001902027	
-0.005067257	-0.002816925	0.1093551	-0.03839634	-0.001245692	-0.001552655	0.111822	0.05375139	
0.0160861	0.01538941	-0.001245692	-0.001552655	-0.07417648	0.07231001	-0.0001741229	-0.0004397843	
-0.002594987	-0.001902027	0.111822	0.05375139	-0.0001741229	-0.0004397843	0.08577536	0.00153001	

1.334e+10	0.033348	0.07793065	-0.005699273	-0.001180263	0.01870487	0.02891665	-0.003125953	-0.001054429	
-0.005699273	-0.001180263	0.09604864	-0.05483629	-0.001695061	-0.0009446215	0.123772	0.04330795	
0.01870487	0.02891665	-0.001695061	-0.0009446215	-0.05362453	0.08132587	-0.0003821032	-0.0002884585	
-0.003125953	-0.001054429	0.123772	0.04330795	-0.0003821032	-0.0002884585	0.08070714	-0.02516684	

1.336e+10	0.05253928	0.07157591	-0.005739657	0.0006671467	0.02561288	0.04108165	-0.003333769	6.98325e-05	
-0.005739657	0.0006671467	0.08057153	-0.06725126	-0.001878561	-0.0001363048	0.1316036	0.03044841	
0.02561288	0.04108165	-0.001878561	-0.0001363048	-0.03124463	0.08325734	-0.0005155574	3.596086e-05	
-0.003333769	6.98325e-05	0.1316036	0.03044841	-0.0005155574	3.596086e-05	0.06961911	-0.04841538	

1.338e+10	0.06767286	0.05968264	-0.005089826	0.002343211	0.03486878	0.04995535	-0.002975064	0.00117611	
-0.005089826	0.002343211	0.06430673	-0.07636669	-0.001638564	0.0006837465	0.1363902	0.01711643	
0.03486878	0.04995535	-0.001638564	0.0006837465	-0.01016405	0.07860257	-0.0003714934	0.0004288637	
-0.002975064	0.00117611	0.1363902	0.01711643	-0.0003714934	0.0004288637	0.05547468	-0.06738477	

1.34e+10	0.07816486	0.04577107	-0.004041701	0.003640441	0.04449361	0.05624376	-0.002290637	0.001908487	
-0.004041701	0.003640441	0.04713687	-0.0829759	-0.001065784	0.001280102	0.1393792	0.002928827	
0.04449361	0.05624376	-0.001065784	0.001280102	0.008344401	0.06931957	2.951935e-07	0.0006264199	
-0.002290637	0.001908487	0.1393792	0.002928827	2.951935e-07	0.0006264199	0.03973872	-0.08359538	

1.342e+10	0.08573941	0.031022	-0.002642549	0.004575184	0.05434201	0.06127577	-0.001524078	0.002333477	
-0.002642549	0.004575184	0.02856925	-0.0866339	-0.0002542715	0.001553934	0.1397054	-0.0134361	
0.05434201	0.06127577	-0.0002542715	0.001553934	0.02452751	0.05606123	0.0004167527	0.0005749181	
-0.001524078	0.002333477	0.1397054	-0.0134361	0.0004167527	0.0005749181	0.0211697	-0.09807116	

1.344e+10	0.09095847	0.01458254	-0.0009837419	0.004896456	0.06555536	0.06539081	-0.000733063	0.00246845	
-0.0009837419	0.004896456	0.009342797	-0.08616999	0.0006420603	0.001312579	0.1348926	-0.03131605	
0.06555536	0.06539081	0.0006420603	0.001312579	0.03740193	0.03841158	0.0007608608	0.0002756381	
-0.000733063	0.00246845	0.1348926	-0.03131605	0.0007608608	0.0002756381	-0.001394825	-0.1091711	

1.346e+10	0.09247702	-0.004301256	0.0005119033	0.004472098	0.07887473	0.06696878	-6.248999e-05	0.002316857	
0.0005119033	0.004472098	-0.00882962	-0.08155643	0.001197106	0.0004730979	0.1238996	-0.0475482	
0.07887473	0.06696878	0.001197106	0.0004730979	0.04495033	0.01693602	0.0008613684	-0.0002369693	
-6.248999e-05	0.002316857	0.1238996	-0.0475482	0.0008613684	-0.0002369693	-0.02674171	-0.114283	

1.348e+10	0.08785524	-0.02442387	0.001358265	0.003638653	0.092662	0.06423641	0.0003371911	0.002052588	
0.001358265	0.003638653	-0.02500569	-0.07408896	0.0009002111	-0.0005199886	0.1085868	-0.0593338	
0.092662	0.06423641	0.0009002111	-0.0005199886	0.04549169	-0.005863375	0.0005451622	-0.0007191886	
0.0003371911	0.002052588	0.1085868	-0.0593338	0.0005451622	-0.0007191886	-0.05178157	-0.1127367	

1.35e+10	0.07638652	-0.04215197	0.001660953	0.00303971	0.1043411	0.05777772	0.0005836367	0.001917965	
0.001660953	0.00303971	-0.03972591	-0.06467468	-2.356468e-05	-0.0008597571	0.09167	-0.06646536	
0.1043411	0.05777772	-2.356468e-05	-0.0008597571	0.03958723	-0.02702281	-9.971321e-06	-0.0008231796	
0.0005836367	0.001917965	0.09167	-0.06646536	-9.971321e-06	-0.0008231796	-0.07431031	-0.1065213	

1.352e+10	0.06046984	-0.05436326	0.001892711	0.002842512	0.1130694	0.04994737	0.0008857949	0.001903929	
0.001892711	0.002842512	-0.05371438	-0.05285874	-0.0008874902	-0.0003449477	0.07395141	-0.0702509	
0.1130694	0.04994737	-0.0008874902	-0.0003449477	0.02903956	-0.04483511	-0.0004693773	-0.0005205649	
0.0008857949	0.001903929	0.07395141	-0.0702509	-0.0004693773	-0.0005205649	-0.09492365	-0.09771445	

1.354e+10	0.04377836	-0.06111741	0.002539952	0.002858605	0.120566	0.04208466	0.001399722	0.001872954	
0.002539952	0.002858605	-0.06604779	-0.03714012	-0.0009469365	0.0007411596	0.05473391	-0.07051932	
0.120566	0.04208466	-0.0009469365	0.0007411596	0.01574177	-0.05946673	-0.0005190133	4.166995e-06	
0.001399722	0.001872954	0.05473391	-0.07051932	-0.0005190133	4.166995e-06	-0.1150344	-0.08561916	

1.356e+10	0.02754246	-0.06470065	0.003566212	0.002413962	0.1280764	0.03284154	0.002020526	0.00154643	
0.003566212	0.002413962	-0.07417066	-0.01798488	-0.000166386	0.00140327	0.03439048	-0.06555147	
0.1280764	0.03284154	-0.000166386	0.00140327	-0.0003286537	-0.07159825	-0.0002178948	0.0002985893	
0.002020526	0.00154643	0.03439048	-0.06555147	-0.0002178948	0.0002985893	-0.1336149	-0.06843305	

1.358e+10	0.01037266	-0.06598976	0.004425346	0.001412819	0.1343065	0.0204201	0.002496864	0.0009634595	
0.004425346	0.001412819	-0.07708644	0.002341737	0.0007379437	0.001396856	0.01532516	-0.05394228	
0.1343065	0.0204201	0.0007379437	0.001396856	-0.01974582	-0.08020925	0.000101751	0.0003258635	
0.002496864	0.0009634595	0.01532516	-0.05394228	0.000101751	0.0003258635	-0.1477332	-0.04607033	

1.36e+10	-0.008565915	-0.06323849	0.004903761	8.514001e-05	0.1364359	0.005330532	0.002789201	0.0002387413	
0.004903761	8.514001e-05	-0.07544701	0.02174813	0.001451566	0.0009585495	0.0009696345	-0.03688126	
0.1364359	0.005330532	0.001451566	0.0009585495	-0.04168128	-0.08352668	0.0003606417	0.0002055979	
0.002789201	0.0002387413	0.0009696345	-0.03688126	0.0003606417	0.0002055979	-0.1551672	-0.02128286	

1.362e+10	-0.02732951	-0.05412671	0.004922171	-0.001420339	0.1332242	-0.009322255	0.002863659	-0.0006090029	
0.004922171	-0.001420339	-0.07077849	0.03960541	0.001880667	0.0002536879	-0.007561617	-0.01752419	
0.1332242	-0.009322255	0.001880667	0.0002536879	-0.06405676	-0.08053038	0.000535812	-3.788959e-05	
0.002863659	-0.0006090029	-0.007561617	-0.01752419	0.000535812	-3.788959e-05	-0.1567647	0.002818445	

1.364e+10	-0.04211935	-0.03903026	0.004397397	-0.00292273	0.1266662	-0.02090699	0.00261998	-0.001501631	
0.004397397	-0.00292273	-0.06383044	0.05659168	0.001953666	-0.0005738467	-0.01169419	0.002087264	
0.1266662	-0.02090699	0.001953666	-0.0005738467	-0.08454392	-0.07164774	0.0005540346	-0.0003637805	
0.00261998	-0.001501631	-0.01169419	0.002087264	0.0005540346	-0.0003637805	-0.1549644	0.02557084	

1.366e+10	-0.05089373	-0.021258	0.003357247	-0.004165886	0.1194304	-0.0298327	0.00203959	-0.002252908	
0.003357247	-0.004165886	-0.05386553	0.07308812	0.001666636	-0.001341879	-0.01245806	0.02249345	
0.1194304	-0.0298327	0.001666636	-0.001341879	-0.1017074	-0.05843711	0.0003854411	-0.0006546365	
0.00203959	-0.002252908	-0.01245806	0.02249345	0.0003854411	-0.0006546365	-0.1502398	0.04858406	

1.368e+10	-0.05504208	-0.00366554	0.001989357	-0.004966706	0.1118207	-0.03815181	0.001261766	-0.002715139	
0.001989357	-0.004966706	-0.03990352	0.08788526	0.001122986	-0.001910034	-0.008597759	0.04427289	
0.1118207	-0.03815181	0.001122986	-0.001910034	-0.1155393	-0.04209855	0.0001087215	-0.0008094411	
0.001261766	-0.002715139	-0.008597759	0.04427289	0.0001087215	-0.0008094411	-0.1404499	0.07208852	

1.37e+10	-0.0565331	0.01385448	0.0005139655	-0.005301846	0.1019816	-0.04625231	0.0004630277	-0.00289693	
0.0005139655	-0.005301846	-0.0227129	0.09909026	0.0004546822	-0.00224104	0.001893116	0.06571974	
0.1019816	-0.04625231	0.0004546822	-0.00224104	-0.1258626	-0.02285041	-0.0001650945	-0.0008322633	
0.0004630277	-0.00289693	0.001893116	0.06571974	-0.0001650945	-0.0008322633	-0.1242873	0.09328361	

1.372e+10	-0.05493993	0.03275077	-0.0009419244	-0.005245501	0.08883429	-0.05189185	-0.000291695	-0.002899364	
-0.0009419244	-0.005245501	-0.00413322	0.1061896	-0.0002608797	-0.002362641	0.01893148	0.08335416	
0.08883429	-0.05189185	-0.0002608797	-0.002362641	-0.1315973	-0.0008498298	-0.0004000596	-0.0007950843	
-0.000291695	-0.002899364	0.01893148	0.08335416	-0.0004000596	-0.0007950843	-0.1034179	0.1091323	

1.374e+10	-0.0478398	0.05248317	-0.002346761	-0.004839411	0.07429875	-0.0527136	-0.001041918	-0.002763188	
-0.002346761	-0.004839411	0.01469496	0.1099725	-0.001003942	-0.00228596	0.03970259	0.09482375	
0.07429875	-0.0527136	-0.001003942	-0.00228596	-0.1314081	0.02255643	-0.0006386674	-0.0007292871	
-0.001041918	-0.002763188	0.03970259	0.09482375	-0.0006386674	-0.0007292871	-0.08117727	0.1191801	

1.376e+10	-0.03420845	0.06967418	-0.003641593	-0.004050082	0.06150964	-0.04926089	-0.001795088	-0.0024215	
-0.003641593	-0.004050082	0.03396684	0.111156	-0.001736933	-0.001973634	0.06128639	0.1007311	
0.06150964	-0.04926089	-0.001736933	-0.001973634	-0.1249521	0.04503479	-0.0009042767	-0.0005838841	
-0.001795088	-0.0024215	0.06128639	0.1007311	-0.0009042767	-0.0005838841	-0.05913522	0.1253846	

1.378e+10	-0.01651205	0.08115932	-0.004671202	-0.002872619	0.05131935	-0.0441759	-0.002435334	-0.001819212	
-0.004671202	-0.002872619	0.05418133	0.1092194	-0.002355796	-0.001404894	0.08306059	0.1026812	
0.05131935	-0.0441759	-0.002355796	-0.001404894	-0.1134414	0.06454851	-0.001130999	-0.0003072857	
-0.002435334	-0.001819212	0.08306059	0.1026812	-0.001130999	-0.0003072857	-0.03622354	0.1290422	

1.38e+10	0.001643747	0.08711249	-0.005276342	-0.001431573	0.04202263	-0.03873122	-0.002821698	-0.00104042	
-0.005276342	-0.001431573	0.07465953	0.1028733	-0.002746953	-0.000644292	0.1059332	0.1004987	
0.04202263	-0.03873122	-0.002746953	-0.000644292	-0.09852393	0.08061219	-0.001226296	5.868872e-05	
-0.002821698	-0.00104042	0.1059332	0.1004987	-0.001226296	5.868872e-05	-0.01128623	0.1286659	

1.382e+10	0.01912136	0.08993576	-0.005417448	6.99726e-05	0.03235091	-0.03152806	-0.002936181	-0.0002439778	
-0.005417448	6.99726e-05	0.09349536	0.09185839	-0.002869168	0.0001830266	0.1292012	0.09237968	
0.03235091	-0.03152806	-0.002869168	0.0001830266	-0.08079215	0.09349959	-0.001176232	0.0004126021	
-0.002936181	-0.0002439778	0.1292012	0.09237968	-0.001176232	0.0004126021	0.01406579	0.1220522	

1.384e+10	0.03732661	0.09046702	-0.00516763	0.001487652	0.02364973	-0.02069502	-0.002868854	0.0004852303	
-0.00516763	0.001487652	0.1093284	0.07741172	-0.002756561	0.000984821	0.1500978	0.07735851	
0.02364973	-0.02069502	-0.002756561	0.000984821	-0.06013393	0.1026189	-0.0010453	0.0007002961	
-0.002868854	0.0004852303	0.1500978	0.07735851	-0.0010453	0.0007002961	0.03676394	0.1092923	

1.386e+10	0.05695541	0.08683838	-0.004608858	0.002780241	0.01879304	-0.006763317	-0.002689018	0.001173685	
-0.004608858	0.002780241	0.1221917	0.06074957	-0.002454113	0.001728622	0.1655697	0.05713308	
0.01879304	-0.006763317	-0.002454113	0.001728622	-0.03724816	0.1064832	-0.0008883926	0.000949357	
-0.002689018	0.001173685	0.1655697	0.05713308	-0.0008883926	0.000949357	0.05503252	0.09281073	

1.388e+10	0.07573919	0.07708891	-0.003754946	0.003929326	0.01888453	0.00731838	-0.002360753	0.001865079	
-0.003754946	0.003929326	0.1324883	0.04214487	-0.001966877	0.002402198	0.1749287	0.03486848	
0.01888453	0.00731838	-0.001966877	0.002402198	-0.01422778	0.1041628	-0.0006840232	0.001203609	
-0.002360753	0.001865079	0.1749287	0.03486848	-0.0006840232	0.001203609	0.06970394	0.07467251	

1.39e+10	0.09011742	0.06214927	-0.002579882	0.004856141	0.02208238	0.01934733	-0.001806562	0.002497503	
-0.002579882	0.004856141	0.1398526	0.02106433	-0.001275206	0.002952482	0.1796341	0.01223142	
0.02208238	0.01934733	-0.001275206	0.002952482	0.006656571	0.09635334	-0.0003732191	0.001436922	
-0.001806562	0.002497503	0.1796341	0.01223142	-0.0003732191	0.001436922	0.0821812	0.05465483	

1.392e+10	0.09879995	0.04558713	-0.001142977	0.005409774	0.02630745	0.02998417	-0.001041467	0.002932875	
-0.001142977	0.005409774	0.1429015	-0.002299885	-0.0004090365	0.003281606	0.1804754	-0.01131945	
0.02630745	0.02998417	-0.0004090365	0.003281606	0.02431494	0.08481862	4.413801e-05	0.001562577	
-0.001041467	0.002932875	0.1804754	-0.01131945	4.413801e-05	0.001562577	0.09186336	0.03115302	

1.394e+10	0.1037095	0.02981463	0.0003878147	0.005501849	0.0319496	0.04087744	-0.0001962579	0.003093581	
0.0003878147	0.005501849	0.1404443	-0.02648645	0.0005279023	0.003325156	0.1760673	-0.03609979	
0.0319496	0.04087744	0.0005279023	0.003325156	0.03898336	0.07066195	0.0004866854	0.001530796	
-0.0001962579	0.003093581	0.1760673	-0.03609979	0.0004866854	0.001530796	0.09605913	0.004359332	

1.396e+10	0.1068235	0.01409962	0.001837347	0.00516843	0.04103975	0.05169397	0.000611224	0.003022619	
0.001837347	0.00516843	0.1326238	-0.04949898	0.001422847	0.003099189	0.1646317	-0.06019126	
0.04103975	0.05169397	0.001422847	0.003099189	0.05075014	0.05381709	0.0008776855	0.001374829	
0.000611224	0.003022619	0.1646317	-0.06019126	0.0008776855	0.001374829	0.09310745	-0.0230159	

1.398e+10	0.1074149	-0.003113696	0.003118741	0.004504034	0.05424879	0.05977145	0.001359713	0.00279401	
0.003118741	0.004504034	0.1204892	-0.0703631	0.00221566	0.002660261	0.1464617	-0.08019539	
0.05424879	0.05977145	0.00221566	0.002660261	0.05846861	0.03444614	0.001209097	0.001153542	
0.001359713	0.00279401	0.1464617	-0.08019539	0.001209097	0.001153542	0.08391122	-0.04811867	

1.4e+10	0.1031189	-0.02112227	0.004217737	0.003561363	0.06935634	0.06277829	0.002078767	0.002410571	
0.004217737	0.003561363	0.1045149	-0.08896175	0.002894033	0.002043181	0.1243393	-0.09397911	
0.06935634	0.06277829	0.002894033	0.002043181	0.06097131	0.01395086	0.001515173	0.0008752438	
0.002078767	0.002410571	0.1243393	-0.09397911	0.001515173	0.0008752438	0.07071472	-0.07003181	

1.402e+10	0.09329778	-0.03676414	0.005087992	0.002330431	0.08327846	0.06128831	0.002740295	0.001806549	
0.005087992	0.002330431	0.08446871	-0.1048217	0.003430337	0.001241833	0.1009521	-0.1021396	
0.08327846	0.06128831	0.003430337	0.001241833	0.05833317	-0.005575335	0.001793191	0.0004921431	
0.002740295	0.001806549	0.1009521	-0.1021396	0.001793191	0.0004921431	0.05427382	-0.08973332	

1.404e+10	0.0804629	-0.04752499	0.005599057	0.0008324393	0.09522568	0.05771389	0.003213867	0.0009614557	
0.005599057	0.0008324393	0.06021946	-0.1164735	0.003742544	0.0002648025	0.07666515	-0.1060139	
0.09522568	0.05771389	0.003742544	0.0002648025	0.05188218	-0.02275525	0.001965898	-2.00358e-05	
0.003213867	0.0009614557	0.07666515	-0.1060139	0.001965898	-2.00358e-05	0.03336997	-0.1072903	

1.406e+10	0.0678537	-0.05410488	0.005619659	-0.0007848413	0.1067108	0.05296008	0.003373353	-1.781372e-05	
0.005619659	-0.0007848413	0.03286741	-0.1220831	0.003740775	-0.0008025673	0.05068406	-0.1049525	
0.1067108	0.05296008	0.003740775	-0.0008025673	0.04299673	-0.03753752	0.001950204	-0.0006009672	
0.003373353	-1.781372e-05	0.05068406	-0.1049525	0.001950204	-0.0006009672	0.006980339	-0.1202576	

1.408e+10	0.05591657	-0.059064	0.005146464	-0.002312157	0.1184555	0.04551824	0.003212455	-0.0009672061	
0.005146464	-0.002312157	0.004615797	-0.1207018	0.003411169	-0.001823767	0.02418988	-0.09679	
0.1184555	0.04551824	0.003411169	-0.001823767	0.031967	-0.05036222	0.001740823	-0.001143681	
0.003212455	-0.0009672061	0.02418988	-0.09679	0.001740823	-0.001143681	-0.02275477	-0.1255852	

1.41e+10	0.04274486	-0.06301538	0.004285872	-0.003602014	0.1286098	0.03385053	0.002814566	-0.001795494	
0.004285872	-0.003602014	-0.02242155	-0.1128236	0.002813782	-0.00269832	0.0005268594	-0.08071228	
0.1286098	0.03385053	0.002813782	-0.00269832	0.01840938	-0.06085961	0.001396463	-0.001589896	
0.002814566	-0.001795494	0.0005268594	-0.08071228	0.001396463	-0.001589896	-0.05218968	-0.1227129	

1.412e+10	0.02749886	-0.06385778	0.003148971	-0.004606195	0.1343098	0.0190209	0.002244308	-0.002496234	
0.003148971	-0.004606195	-0.047222	-0.09931507	0.002018055	-0.003385454	-0.01694854	-0.0589125	
0.1343098	0.0190209	0.002018055	-0.003385454	0.002785537	-0.06781882	0.0009651914	-0.001942748	
0.002244308	-0.002496234	-0.01694854	-0.0589125	0.0009651914	-0.001942748	-0.07879658	-0.1136695	

1.414e+10	0.01227826	-0.05956162	0.001782892	-0.005304492	0.1347643	0.004207829	0.001493007	-0.003064783	
0.001782892	-0.005304492	-0.06913448	-0.08040463	0.001055266	-0.003864823	-0.02776818	-0.03473484	
0.1347643	0.004207829	0.001055266	-0.003864823	-0.01341893	-0.07061226	0.0004388634	-0.002209741	
0.001493007	-0.003064783	-0.02776818	-0.03473484	0.0004388634	-0.002209741	-0.1027528	-0.1003423	

1.416e+10	0.0003118081	-0.05104305	0.0002243246	-0.00561452	0.1319686	-0.00846811	0.0005483725	-0.003414445	
0.0002243246	-0.00561452	-0.08676632	-0.05613165	-4.975464e-05	-0.004078096	-0.03334828	-0.00983391	
0.1319686	-0.00846811	-4.975464e-05	-0.004078096	-0.02871294	-0.0698011	-0.0001994107	-0.002338011	
0.0005483725	-0.003414445	-0.03334828	-0.00983391	-0.0001994107	-0.002338011	-0.1246924	-0.08243826	

1.418e+10	-0.007581438	-0.04155304	-0.001396176	-0.005425951	0.127963	-0.01976215	-0.0004985387	-0.00342531	
-0.001396176	-0.005425951	-0.098127	-0.02739755	-0.001214311	-0.003944728	-0.03407966	0.0163575	
0.127963	-0.01976215	-0.001214311	-0.003944728	-0.0425809	-0.06660751	-0.0008971133	-0.002242943	
-0.0004985387	-0.00342531	-0.03407966	0.0163575	-0.0008971133	-0.002242943	-0.143033	-0.05851636	

1.42e+10	-0.01361358	-0.03289856	-0.002860142	-0.004728241	0.122168	-0.03120381	-0.001467633	-0.003075574	
-0.002860142	-0.004728241	-0.101698	0.003551373	-0.002288875	-0.00344373	-0.02819422	0.04338214	
0.122168	-0.03120381	-0.002288875	-0.00344373	-0.05553522	-0.06165647	-0.001530956	-0.001902765	
-0.001467633	-0.003075574	-0.02819422	0.04338214	-0.001530956	-0.001902765	-0.1544337	-0.02962745	

1.422e+10	-0.01962933	-0.02356822	-0.003991785	-0.003651393	0.1126598	-0.04204559	-0.002225826	-0.002471163	
-0.003991785	-0.003651393	-0.09754572	0.03402629	-0.003142127	-0.002650606	-0.01438257	0.06848709	
0.1126598	-0.04204559	-0.003142127	-0.002650606	-0.06783242	-0.0543829	-0.00200276	-0.001388847	
-0.002225826	-0.002471163	-0.01438257	0.06848709	-0.00200276	-0.001388847	-0.1571985	0.0006859122	

1.424e+10	-0.02439515	-0.01154716	-0.004734412	-0.002366684	0.09926957	-0.04948533	-0.002753068	-0.001739745	
-0.004734412	-0.002366684	-0.08685263	0.06227213	-0.003716299	-0.001679535	0.005979841	0.08805519	
0.09926957	-0.04948533	-0.003716299	-0.001679535	-0.07854297	-0.04432896	-0.002294909	-0.0007955807	
-0.002753068	-0.001739745	0.005979841	0.08805519	-0.002294909	-0.0007955807	-0.1528157	0.02893007	

1.426e+10	-0.02511725	0.002476047	-0.005111831	-0.0009862342	0.08455804	-0.05156989	-0.003088303	-0.0009341783	
-0.005111831	-0.0009862342	-0.07046711	0.08758079	-0.004011695	-0.0006145922	0.02943178	0.1006032	
0.08455804	-0.05156989	-0.004011695	-0.0006145922	-0.08643333	-0.03214427	-0.002436516	-0.0001665322	
-0.003088303	-0.0009341783	0.02943178	0.1006032	-0.002436516	-0.0001665322	-0.1437675	0.05449734	

1.428e+10	-0.02103582	0.01528903	-0.005131959	0.000435453	0.07163212	-0.04927927	-0.003224257	-5.34651e-05	
-0.005131959	0.000435453	-0.04869486	0.1090629	-0.004025615	0.0004914308	0.05342702	0.1073832	
0.07163212	-0.04927927	-0.004025615	0.0004914308	-0.09115871	-0.01929325	-0.002427452	0.0004969599	
-0.003224257	-5.34651e-05	0.05342702	0.1073832	-0.002427452	0.0004969599	-0.1306064	0.0783212	

1.43e+10	-0.01463081	0.02469997	-0.004755822	0.001828447	0.060934	-0.04517607	-0.003095039	0.000862986	
-0.004755822	0.001828447	-0.02202089	0.1251677	-0.003731174	0.001579948	0.07787336	0.1097244	
0.060934	-0.04517607	-0.003731174	0.001579948	-0.09353518	-0.006688276	-0.002224507	0.001165417	
-0.003095039	0.000862986	0.07787336	0.1097244	-0.002224507	0.001165417	-0.1120229	0.1000545	

1.432e+10	-0.008665877	0.03189573	-0.003974185	0.003043993	0.05080729	-0.03995699	-0.002671495	0.001690807	
-0.003974185	0.003043993	0.007875942	0.1342291	-0.003122412	0.002540231	0.1032152	0.1068489	
0.05080729	-0.03995699	-0.003122412	0.002540231	-0.09436346	0.005920311	-0.0018081	0.001749724	
-0.002671495	0.001690807	0.1032152	0.1068489	-0.0018081	0.001749724	-0.08757742	0.1168544	

1.434e+10	-0.002776561	0.03944941	-0.002887579	0.003929525	0.04084402	-0.03192577	-0.002035276	0.002305321	
-0.002887579	0.003929525	0.03848853	0.1357804	-0.002265048	0.003258977	0.1277708	0.09716625	
0.04084402	-0.03192577	-0.002265048	0.003258977	-0.09332315	0.01915649	-0.001240011	0.002157316	
-0.002035276	0.002305321	0.1277708	0.09716625	-0.001240011	0.002157316	-0.05984876	0.126098	

1.436e+10	0.005615154	0.04737137	-0.001664388	0.00443273	0.03325174	-0.01998045	-0.001314173	0.002684933	
-0.001664388	0.00443273	0.06778047	0.130745	-0.001278972	0.003683052	0.1484058	0.08093361	
0.03325174	-0.01998045	-0.001278972	0.003683052	-0.08927435	0.03258146	-0.0006181198	0.002369607	
-0.001314173	0.002684933	0.1484058	0.08093361	-0.0006181198	0.002369607	-0.03243261	0.1279846	

1.438e+10	0.01728985	0.05292964	-0.0004302962	0.004598311	0.03064259	-0.00580715	-0.0005804713	0.002881412	
-0.0004302962	0.004598311	0.09501998	0.1200833	-0.0002629619	0.003829683	0.1629319	0.06078164	
0.03064259	-0.00580715	-0.0002629619	0.003829683	-0.08208497	0.04469844	-4.826153e-06	0.002425595	
-0.0005804713	0.002881412	0.1629319	0.06078164	-4.826153e-06	0.002425595	-0.007058119	0.1247204	

1.44e+10	0.02983948	0.05402515	0.0007720141	0.004483012	0.03316065	0.007282955	0.0001754049	0.002931657	
0.0007720141	0.004483012	0.1196135	0.1040554	0.0007344431	0.00373314	0.1717174	0.03962514	
0.03316065	0.007282955	0.0007344431	0.00373314	-0.07287687	0.05449903	0.0005988328	0.002358773	
0.0001754049	0.002931657	0.1717174	0.03962514	0.0005988328	0.002358773	0.01696074	0.117583	

1.442e+10	0.04027918	0.05182854	0.001927312	0.004082423	0.03839259	0.01755562	0.0009632419	0.002796031	
0.001927312	0.004082423	0.1403391	0.08275184	0.001686724	0.003396543	0.1763579	0.01834989	
0.03839259	0.01755562	0.001686724	0.003396543	-0.062836	0.06226829	0.001197423	0.002149932	
0.0009632419	0.002796031	0.1763579	0.01834989	0.001197423	0.002149932	0.03996525	0.1056646	

1.444e+10	0.0484162	0.04928933	0.002956587	0.003359732	0.04446984	0.02609343	0.001714261	0.002411843	
0.002956587	0.003359732	0.1553326	0.05711432	0.002530136	0.002803499	0.1769917	-0.003681179	
0.04446984	0.02609343	0.002530136	0.002803499	-0.05208187	0.06873981	0.001741022	0.001761501	
0.001714261	0.002411843	0.1769917	-0.003681179	0.001741022	0.001761501	0.05983471	0.08772756	

1.446e+10	0.05674028	0.04740018	0.003716275	0.002346155	0.052109	0.03424614	0.00229778	0.001791931	
0.003716275	0.002346155	0.16336	0.02920476	0.003160275	0.001978289	0.1719365	-0.02592469	
0.052109	0.03424614	0.003160275	0.001978289	-0.03989316	0.073935	0.00213414	0.001206357	
0.00229778	0.001791931	0.1719365	-0.02592469	0.00213414	0.001206357	0.07316542	0.06526594	

1.448e+10	0.06662905	0.04395045	0.004096797	0.001178376	0.06292522	0.04094536	0.00261798	0.001039493	
0.004096797	0.001178376	0.1645225	0.001567032	0.003484195	0.001020963	0.1603297	-0.04542315	
0.06292522	0.04094536	0.003484195	0.001020963	-0.02614012	0.07674219	0.002297573	0.0005678259	
0.00261798	0.001039493	0.1603297	-0.04542315	0.002297573	0.0005678259	0.0786593	0.0423218	

1.45e+10	0.07614343	0.03688298	0.004084959	3.390986e-05	0.07634267	0.04363697	0.0026496	0.0002952525	
0.004084959	3.390986e-05	0.160027	-0.02402242	0.003469934	8.602139e-05	0.1441322	-0.05868137	
0.07634267	0.04363697	0.003469934	8.602139e-05	-0.01206866	0.07629334	0.002199019	-1.882438e-05	
0.0026496	0.0002952525	0.1441322	-0.05868137	0.002199019	-1.882438e-05	0.07839427	0.02276229	

1.452e+10	0.08248181	0.02727666	0.003752593	-0.0009106213	0.08952579	0.0412549	0.002432148	-0.0002710082	
0.003752593	-0.0009106213	0.1512056	-0.04651982	0.003175276	-0.0006286063	0.1275441	-0.06433218	
0.08952579	0.0412549	0.003175276	-0.0006286063	0.0009526942	0.07326481	0.001883967	-0.0003499889	
0.002432148	-0.0002710082	0.1275441	-0.06433218	0.001883967	-0.0003499889	0.07592666	0.007807285	

1.454e+10	0.08539007	0.01829046	0.003343446	-0.001483287	0.1000371	0.0356216	0.002217602	-0.000433107	
0.003343446	-0.001483287	0.1400669	-0.06496637	0.002903313	-0.0009030029	0.1150997	-0.06367746	
0.1000371	0.0356216	0.002903313	-0.0009030029	0.0129234	0.06898899	0.001693192	-0.0001415653	
0.002217602	-0.000433107	0.1150997	-0.06367746	0.001693192	-0.0001415653	0.07490901	-0.00289683	

1.456e+10	0.0877388	0.01130404	0.003423699	-0.001933015	0.1084002	0.02922225	0.002756152	-0.0004428308	
0.003423699	-0.001933015	0.1301175	-0.0808682	0.00341837	-0.001062544	0.1109871	-0.06152622	
0.1084002	0.02922225	0.00341837	-0.001062544	0.02514225	0.06376205	0.002641845	0.0002699329	
0.002756152	-0.0004428308	0.1109871	-0.06152622	0.002641845	0.0002699329	0.08057514	-0.01264294	

1.458e+10	0.09173421	0.003802942	0.003659501	-0.003509704	0.1167324	0.02157817	0.003780579	-0.001993779	
0.003659501	-0.003509704	0.1212395	-0.1011134	0.004381831	-0.002839835	0.1136677	-0.06851463	
0.1167324	0.02157817	0.004381831	-0.002839835	0.03836024	0.05577486	0.004513819	-0.001431261	
0.003780579	-0.001993779	0.1136677	-0.06851463	0.004513819	-0.001431261	0.09338773	-0.03389625	

1.46e+10	0.09524881	-0.007205931	0.001994831	-0.005582703	0.1242146	0.01028935	0.002517263	-0.004581158	
0.001994831	-0.005582703	0.1029864	-0.1274002	0.002958686	-0.005713252	0.1085215	-0.0880202	
0.1242146	0.01028935	0.002958686	-0.005713252	0.05043295	0.04318811	0.003545539	-0.004970296	
0.002517263	-0.004581158	0.1085215	-0.0880202	0.003545539	-0.004970296	0.09555173	-0.07333532	

1.462e+10	0.09456255	-0.02070616	-0.0007681912	-0.005798234	0.1278073	-0.004599815	-0.0003409335	-0.005066141	
-0.0007681912	-0.005798234	0.07003264	-0.1491241	-0.0002434825	-0.006494638	0.08733572	-0.1068479	
0.1278073	-0.004599815	-0.0002434825	-0.006494638	0.05862969	0.02712177	9.353707e-05	-0.006145488	
-0.0003409335	-0.005066141	0.08733572	-0.1068479	9.353707e-05	-0.006145488	0.07368465	-0.1155326	

1.464e+10	0.08893774	-0.03309862	-0.002653503	-0.004584907	0.125376	-0.02037026	-0.002200239	-0.003769788	
-0.002653503	-0.004584907	0.02799204	-0.1571464	-0.002659405	-0.005345618	0.05649243	-0.113978	
0.125376	-0.02037026	-0.002659405	-0.005345618	0.06235091	0.009829794	-0.002491797	-0.004877792	
-0.002200239	-0.003769788	0.05649243	-0.113978	-0.002491797	-0.004877792	0.03349558	-0.1442009	

1.466e+10	0.08072172	-0.0420336	-0.003511669	-0.003215597	0.1175255	-0.03358451	-0.00274925	-0.00234145	
-0.003511669	-0.003215597	-0.01454526	-0.1496347	-0.003860183	-0.003793391	0.0249448	-0.1084276	
0.1175255	-0.03358451	-0.003860183	-0.003793391	0.06237857	-0.007280452	-0.003513897	-0.003143994	
-0.00274925	-0.00234145	0.0249448	-0.1084276	-0.003513897	-0.003143994	-0.01343243	-0.1545273	

1.468e+10	0.07253752	-0.04833445	-0.003921703	-0.002117804	0.1070342	-0.04268065	-0.002715806	-0.001424016	
-0.003921703	-0.002117804	-0.05172811	-0.1292641	-0.004440346	-0.002450192	-0.003006232	-0.09317351	
0.1070342	-0.04268065	-0.004440346	-0.002450192	0.05935325	-0.02401884	-0.003725161	-0.001837046	
-0.002715806	-0.001424016	-0.003006232	-0.09317351	-0.003725161	-0.001837046	-0.05934096	-0.1484381	

1.47e+10	0.064351	-0.05424042	-0.004271093	-0.001166035	0.09602527	-0.04881338	-0.002673808	-0.0009605219	
-0.004271093	-0.001166035	-0.08045802	-0.09964152	-0.0048389	-0.001247821	-0.02525448	-0.07022393	
0.09602527	-0.04881338	-0.0048389	-0.001247821	0.05315369	-0.0403912	-0.003777788	-0.0009573307	
-0.002673808	-0.0009605219	-0.02525448	-0.07022393	-0.003777788	-0.0009573307	-0.09922405	-0.1287521	

1.472e+10	0.05399733	-0.05987757	-0.004644713	-6.72891e-05	0.08403463	-0.0533012	-0.002945058	-0.0006281407	
-0.004644713	-6.72891e-05	-0.09924845	-0.06437884	-0.005140763	8.703986e-05	-0.03947524	-0.04174389	
0.08403463	-0.0533012	-0.005140763	8.703986e-05	0.0431766	-0.05579754	-0.003974523	-0.0001686666	
-0.002945058	-0.0006281407	-0.03947524	-0.04174389	-0.003974523	-0.0001686666	-0.1294097	-0.09915605	

1.474e+10	0.0407161	-0.06270927	-0.004757675	0.001440958	0.06988468	-0.05523121	-0.003461153	0.0001099805	
-0.004757675	0.001440958	-0.1079365	-0.02649177	-0.005059239	0.001724276	-0.04453346	-0.01144253	
0.06988468	-0.05523121	-0.005059239	0.001724276	0.02932068	-0.06887792	-0.004164065	0.0009506391	
-0.003461153	0.0001099805	-0.04453346	-0.01144253	-0.004164065	0.0009506391	-0.1484626	-0.0649543	

1.476e+10	0.02682701	-0.0607503	-0.004118503	0.003110282	0.05438268	-0.0524306	-0.003569528	0.001409674	
-0.004118503	0.003110282	-0.1068175	0.01164182	-0.004243987	0.003340888	-0.04163599	0.01741671	
0.05438268	-0.0524306	-0.004243987	0.003340888	0.01247723	-0.07830921	-0.003811123	0.002353798	
-0.003569528	0.001409674	-0.04163599	0.01741671	-0.003811123	0.002353798	-0.1581393	-0.02962353	

1.478e+10	0.0151569	-0.05490326	-0.002778293	0.004335954	0.04035025	-0.04405773	-0.002925728	0.002686577	
-0.002778293	0.004335954	-0.09628963	0.04781953	-0.002870855	0.004447872	-0.03298459	0.04336123	
0.04035025	-0.04405773	-0.002870855	0.004447872	-0.006064932	-0.08358726	-0.002815303	0.003490289	
-0.002925728	0.002686577	-0.03298459	0.04336123	-0.002815303	0.003490289	-0.1599935	0.005838734	

1.48e+10	0.006249751	-0.04776789	-0.001169678	0.004909794	0.03042903	-0.03200281	-0.001824965	0.003511709	
-0.001169678	0.004909794	-0.07714193	0.07979914	-0.001332265	0.004958231	-0.01994801	0.06665923	
0.03042903	-0.03200281	-0.001332265	0.004958231	-0.02531423	-0.0848608	-0.001536667	0.004101271	
-0.001824965	0.003511709	-0.01994801	0.06665923	-0.001536667	0.004101271	-0.1538786	0.04097268	

1.482e+10	-0.001804667	-0.04044276	0.0004342953	0.004921475	0.02447656	-0.01898938	-0.0005741895	0.003850726	
0.0004342953	0.004921475	-0.05083342	0.1054356	0.000170457	0.004988589	-0.002037494	0.08736424	
0.02447656	-0.01898938	0.000170457	0.004988589	-0.04495564	-0.08211316	-0.0002300172	0.004245774	
-0.0005741895	0.003850726	-0.002037494	0.08736424	-0.0002300172	0.004245774	-0.1386357	0.07408676	

1.484e+10	-0.01022272	-0.03109259	0.001911139	0.004452795	0.02081033	-0.005543423	0.0006585487	0.003752045	
0.001911139	0.004452795	-0.01941768	0.1231688	0.001558193	0.004615682	0.02109156	0.1034927	
0.02081033	-0.005543423	0.001558193	0.004615682	-0.06435886	-0.0747185	0.0009860015	0.004001614	
0.0006585487	0.003752045	0.02109156	0.1034927	0.0009860015	0.004001614	-0.114723	0.101427	

1.486e+10	-0.01699302	-0.01768923	0.003128532	0.003558753	0.01946898	0.009656016	0.00173752	0.003264501	
0.003128532	0.003558753	0.01442161	0.1322158	0.002739704	0.00388162	0.04749177	0.1126481	
0.01946898	0.009656016	0.002739704	0.00388162	-0.08198243	-0.06213789	0.002015718	0.003426932	
0.00173752	0.003264501	0.04749177	0.1126481	0.002015718	0.003426932	-0.08518136	0.1201725	

1.488e+10	-0.01877227	-0.001421379	0.003948646	0.002363403	0.02270869	0.02659222	0.002534961	0.002493101	
0.003948646	0.002363403	0.04829386	0.1329823	0.003610499	0.002873979	0.07380293	0.1147087	
0.02270869	0.02659222	0.003610499	0.002873979	-0.09586288	-0.04504836	0.002766532	0.002619473	
0.002534961	0.002493101	0.07380293	0.1147087	0.002766532	0.002619473	-0.05401149	0.1302666	

1.49e+10	-0.01490624	0.01397832	0.004321232	0.001062756	0.03208273	0.04250263	0.003001105	0.001603451	
0.004321232	0.001062756	0.08066818	0.1263315	0.004121153	0.001737115	0.09806321	0.1117291	
0.03208273	0.04250263	0.004121153	0.001737115	-0.1048454	-0.02536478	0.003206955	0.001721717	
0.003001105	0.001603451	0.09806321	0.1117291	0.003206955	0.001721717	-0.0232315	0.1335647	

1.492e+10	-0.007877706	0.02634126	0.004313333	-0.0001826752	0.04622271	0.05419833	0.003196381	0.0007246748	
0.004313333	-0.0001826752	0.1103262	0.1128228	0.004309321	0.0005957063	0.1207974	0.1054823	
0.04622271	0.05419833	0.004309321	0.0005957063	-0.1092341	-0.004578265	0.00339454	0.0008411327	
0.003196381	0.0007246748	0.1207974	0.1054823	0.00339454	0.0008411327	0.007490106	0.1309359	

1.494e+10	-7.370774e-05	0.03672293	0.004026739	-0.001315908	0.06201559	0.06081715	0.003205104	-0.0001102557	
0.004026739	-0.001315908	0.1359036	0.09295067	0.004241432	-0.0004982763	0.1429895	0.09555695	
0.06201559	0.06081715	0.004241432	-0.0004982763	-0.109382	0.0168355	0.003402794	6.346419e-06	
0.003205104	-0.0001102557	0.1429895	0.09555695	0.003402794	6.346419e-06	0.03759093	0.1212569	

1.496e+10	0.009153122	0.0471019	0.003500907	-0.002339762	0.07774758	0.06395126	0.003047643	-0.0009259446	
0.003500907	-0.002339762	0.1557541	0.06787254	0.003944029	-0.0015347	0.1637158	0.08046236	
0.07774758	0.06395126	0.003944029	-0.0015347	-0.1049088	0.03855736	0.003252759	-0.0007987736	
0.003047643	-0.0009259446	0.1637158	0.08046236	0.003252759	-0.0007987736	0.06457074	0.1036646	

1.498e+10	0.02219005	0.05678858	0.00271821	-0.003217365	0.09419402	0.06467484	0.00268253	-0.001702911	
0.00271821	-0.003217365	0.1688301	0.03941536	0.003403069	-0.002479741	0.1804144	0.06031678	
0.09419402	0.06467484	0.003403069	-0.002479741	-0.09503507	0.05945372	0.002918192	-0.001556403	
0.00268253	-0.001702911	0.1804144	0.06031678	0.002918192	-0.001556403	0.08518594	0.07974906	

1.5e+10	0.03924088	0.06253108	0.00169834	-0.003842838	0.1120939	0.0616318	0.002099674	-0.002346956	
0.00169834	-0.003842838	0.1748704	0.009531864	0.002628752	-0.003248904	0.1914424	0.03749704	
0.1120939	0.0616318	0.002628752	-0.003248904	-0.07990676	0.07746208	0.002398575	-0.002192427	
0.002099674	-0.002346956	0.1914424	0.03749704	0.002398575	-0.002192427	0.09811507	0.05301079	

1.502e+10	0.05728553	0.06228227	0.0005501201	-0.004127904	0.1297913	0.05290607	0.001374017	-0.002774623	
0.0005501201	-0.004127904	0.1742179	-0.02024306	0.001695346	-0.003770379	0.1975862	0.01425779	
0.1297913	0.05290607	0.001695346	-0.003770379	-0.06091596	0.09106393	0.001757533	-0.002647304	
0.001374017	-0.002774623	0.1975862	0.01425779	0.001757533	-0.002647304	0.1046687	0.02583505	

1.504e+10	0.07312815	0.05742434	-0.0005819657	-0.004078387	0.1441686	0.03876744	0.0006141042	-0.002982432	
-0.0005819657	-0.004078387	0.1672569	-0.04883331	0.0007031071	-0.004027792	0.2003813	-0.009148674	
0.1441686	0.03876744	0.0007031071	-0.004027792	-0.0398059	0.09997701	0.001079107	-0.002922221	
0.0006141042	-0.002982432	0.2003813	-0.009148674	0.001079107	-0.002922221	0.1062	-0.001454119	

1.506e+10	0.08653468	0.05065394	-0.001623011	-0.003764972	0.1534041	0.02176216	-0.0001346849	-0.003026605	
-0.001623011	-0.003764972	0.1540619	-0.07518761	-0.0002878205	-0.004058006	0.1997377	-0.03393552	
0.1534041	0.02176216	-0.0002878205	-0.004058006	-0.01736842	0.1045066	0.0003953494	-0.003063697	
-0.0001346849	-0.003026605	0.1997377	-0.03393552	0.0003953494	-0.003063697	0.1020858	-0.02934591	

1.508e+10	0.09935485	0.04266978	-0.002561727	-0.003234414	0.1581993	0.004382984	-0.0008887299	-0.00292883	
-0.002561727	-0.003234414	0.1350054	-0.09770246	-0.001263165	-0.003883008	0.1936237	-0.06004395	
0.1581993	0.004382984	-0.001263165	-0.003883008	0.006163353	0.1044183	-0.0003128234	-0.003087191	
-0.0008887299	-0.00292883	0.1936237	-0.06004395	-0.0003128234	-0.003087191	0.09071706	-0.05638076	

1.51e+10	0.1122331	0.0315008	-0.003380732	-0.002475228	0.1601874	-0.01307298	-0.001647167	-0.002644227	
-0.003380732	-0.002475228	0.1111716	-0.1148325	-0.002202226	-0.003483578	0.1805806	-0.08494015	
0.1601874	-0.01307298	-0.002202226	-0.003483578	0.02993637	0.0988671	-0.001045516	-0.002952447	
-0.001647167	-0.002644227	0.1805806	-0.08494015	-0.001045516	-0.002952447	0.07213052	-0.07928987	

1.512e+10	0.1227956	0.01557997	-0.003995733	-0.001473311	0.15922	-0.03172571	-0.002333313	-0.002123896	
-0.003995733	-0.001473311	0.08419547	-0.1254805	-0.003036723	-0.002835756	0.1616586	-0.1056495	
0.15922	-0.03172571	-0.003036723	-0.002835756	0.05220059	0.08736264	-0.001745387	-0.002616108	
-0.002333313	-0.002123896	0.1616586	-0.1056495	-0.001745387	-0.002616108	0.04862687	-0.09563771	

1.514e+10	0.1279125	-0.003487126	-0.004287842	-0.0002953233	0.1533812	-0.05122836	-0.002826777	-0.001403224	
-0.004287842	-0.0002953233	0.05594351	-0.1293397	-0.003668813	-0.001970499	0.1394411	-0.1211972	
0.1533812	-0.05122836	-0.003668813	-0.001970499	0.07097414	0.07057393	-0.0023204	-0.002099586	
-0.002826777	-0.001403224	0.1394411	-0.1211972	-0.0023204	-0.002099586	0.02335456	-0.10525	

1.516e+10	0.1272022	-0.0222294	-0.004205136	0.0009091827	0.1416543	-0.06900987	-0.003071996	-0.000597692	
-0.004205136	0.0009091827	0.02789341	-0.1266241	-0.004037107	-0.0009819014	0.1152645	-0.1325406	
0.1416543	-0.06900987	-0.004037107	-0.0009819014	0.08510795	0.05004642	-0.002727072	-0.001482529	
-0.003071996	-0.000597692	0.1152645	-0.1325406	-0.002727072	-0.001482529	-0.002383697	-0.1095941	

1.518e+10	0.122877	-0.038809	-0.00379824	0.002008519	0.1255106	-0.0824325	-0.003107345	0.0002003984	
-0.00379824	0.002008519	0.001032779	-0.1174055	-0.004149387	4.200531e-05	0.08834856	-0.1400402	
0.1255106	-0.0824325	-0.004149387	4.200531e-05	0.09441263	0.02705277	-0.00299033	-0.0008214286	
-0.003107345	0.0002003984	0.08834856	-0.1400402	-0.00299033	-0.0008214286	-0.02930887	-0.1089258	

1.52e+10	0.1167428	-0.05419763	-0.003149544	0.002950386	0.1077463	-0.09093352	-0.002982568	0.0009760059	
-0.003149544	0.002950386	-0.02303436	-0.1016324	-0.004033286	0.001055856	0.05836327	-0.1417122	
0.1077463	-0.09093352	-0.004033286	0.001055856	0.09868479	0.002274626	-0.003133513	-0.0001170913	
-0.002982568	0.0009760059	0.05836327	-0.1417122	-0.003133513	-0.0001170913	-0.0568828	-0.1014054	

1.522e+10	0.1077629	-0.06986714	-0.002291197	0.00373012	0.08969649	-0.09599606	-0.002682361	0.001744609	
-0.002291197	0.00373012	-0.04234007	-0.07993275	-0.003685116	0.002043534	0.02743645	-0.1350716	
0.08969649	-0.09599606	-0.003685116	0.002043534	0.0971562	-0.02363204	-0.003125288	0.0006472159	
-0.002682361	0.001744609	0.02743645	-0.1350716	-0.003125288	0.0006472159	-0.0821596	-0.08561539	

1.524e+10	0.09360468	-0.08456942	-0.001210056	0.004299152	0.07052087	-0.09844804	-0.002147489	0.002457381	
-0.001210056	0.004299152	-0.05507168	-0.05391134	-0.003072928	0.002950953	-0.0005405322	-0.1200388	
0.07052087	-0.09844804	-0.003072928	0.002950953	0.08898136	-0.04912237	-0.002900486	0.001430362	
-0.002147489	0.002457381	-0.0005405322	-0.1200388	-0.002900486	0.001430362	-0.1014676	-0.06283905	

1.526e+10	0.07422224	-0.09473743	5.973316e-05	0.004538807	0.04946875	-0.09679118	-0.001376888	0.002986701	
5.973316e-05	0.004538807	-0.06041116	-0.02590474	-0.002200235	0.003669055	-0.02297675	-0.09928604	
0.04946875	-0.09679118	-0.002200235	0.003669055	0.07416272	-0.07189378	-0.002441964	0.002125762	
-0.001376888	0.002986701	-0.02297675	-0.09928604	-0.002441964	0.002125762	-0.1130585	-0.03671312	

1.528e+10	0.05283972	-0.09800285	0.00137013	0.004352647	0.02826604	-0.08896037	-0.0004826844	0.003227405	
0.00137013	0.004352647	-0.05863606	0.001965649	-0.001155115	0.004095728	-0.0401516	-0.07535547	
0.02826604	-0.08896037	-0.001155115	0.004095728	0.05393986	-0.08993447	-0.001818642	0.002643175	
-0.0004826844	0.003227405	-0.0401516	-0.07535547	-0.001818642	0.002643175	-0.1180675	-0.009997417	

1.53e+10	0.03287072	-0.09550139	0.002534474	0.003770558	0.01018657	-0.07515378	0.0003917908	0.00319134	
0.002534474	0.003770558	-0.05030967	0.02837118	-6.515877e-05	0.004208596	-0.05287131	-0.04849859	
0.01018657	-0.07515378	-6.515877e-05	0.004208596	0.03025738	-0.1022783	-0.001124003	0.002973019	
0.0003917908	0.00319134	-0.05287131	-0.04849859	-0.001124003	0.002973019	-0.1177446	0.01724004	

1.532e+10	0.01477925	-0.08970164	0.003450752	0.002912706	-0.002970706	-0.05788282	0.001184495	0.002959352	
0.003450752	0.002912706	-0.03561582	0.05211309	0.0009836538	0.004048928	-0.05999635	-0.01806827	
-0.002970706	-0.05788282	0.0009836538	0.004048928	0.004412538	-0.1088206	-0.0003960614	0.003149293	
0.001184495	0.002959352	-0.05999635	-0.01806827	-0.0003960614	0.003149293	-0.1109268	0.04508782	

1.534e+10	-0.002862781	-0.08096641	0.004108477	0.001876672	-0.0119184	-0.03942592	0.001908532	0.002569184	
0.004108477	0.001876672	-0.01509641	0.07126763	0.001956609	0.003649825	-0.05899485	0.01450144	
-0.0119184	-0.03942592	0.001956609	0.003649825	-0.02274824	-0.1091752	0.0003734175	0.00316968	
0.001908532	0.002569184	-0.05899485	0.01450144	0.0003734175	0.00316968	-0.09574889	0.07131705	

1.536e+10	-0.01999676	-0.06712057	0.004501723	0.0006887076	-0.01797117	-0.01971546	0.002551113	0.00198842	
0.004501723	0.0006887076	0.009599321	0.08403048	0.002813601	0.003008153	-0.04897806	0.04544954	
-0.01797117	-0.01971546	0.002813601	0.003008153	-0.04992503	-0.1024977	0.001156281	0.002984006	
0.002551113	0.00198842	-0.04897806	0.04544954	0.001156281	0.002984006	-0.07292403	0.09171093	

1.538e+10	-0.03333689	-0.04694425	0.004554838	-0.0006226556	-0.02036381	0.002384992	0.003016124	0.00120142	
0.004554838	-0.0006226556	0.03606249	0.08960431	0.003465831	0.002132611	-0.03209315	0.07151061	
-0.02036381	0.002384992	0.003465831	0.002132611	-0.07481614	-0.08843897	0.001858718	0.002568756	
0.003016124	0.00120142	-0.03209315	0.07151061	0.001858718	0.002568756	-0.04615058	0.1037046	

1.54e+10	-0.03928141	-0.022991	0.004177727	-0.001930027	-0.01665131	0.02598693	0.003192171	0.0002996074	
0.004177727	-0.001930027	0.06206759	0.08844443	0.003811864	0.001108603	-0.01138154	0.09222939	
-0.01665131	0.02598693	0.003811864	0.001108603	-0.09485948	-0.06816345	0.002379777	0.00198818	
0.003192171	0.0002996074	-0.01138154	0.09222939	0.002379777	0.00198818	-0.0192399	0.1081215	

1.542e+10	-0.03767427	0.0004537245	0.003386594	-0.003037017	-0.005985184	0.04786122	0.003074406	-0.0005594903	
0.003386594	-0.003037017	0.08630794	0.08157743	0.003823674	7.946697e-05	0.01212497	0.1088166	
-0.005985184	0.04786122	0.003823674	7.946697e-05	-0.1086824	-0.04375616	0.002703684	0.001355616	
0.003074406	-0.0005594903	0.01212497	0.1088166	0.002703684	0.001355616	0.006711269	0.10715	

1.544e+10	-0.03123477	0.0213229	0.002320214	-0.003805451	0.009700328	0.06525697	0.002765634	-0.001286464	
0.002320214	-0.003805451	0.1080046	0.06956687	0.003560495	-0.0008358934	0.03920067	0.121093	
0.009700328	0.06525697	0.003560495	-0.0008358934	-0.1162038	-0.01720094	0.002894411	0.0007334737	
0.002765634	-0.001286464	0.03920067	0.121093	0.002894411	0.0007334737	0.03235635	0.1010144	

1.546e+10	-0.02172413	0.04058334	0.001129662	-0.004210077	0.02764869	0.07793914	0.002353505	-0.0019025	
0.001129662	-0.004210077	0.1261635	0.05275724	0.00310365	-0.001583573	0.06963198	0.1269013	
0.02764869	0.07793914	0.00310365	-0.001583573	-0.1174757	0.0105671	0.003007881	9.870957e-05	
0.002353505	-0.0019025	0.06963198	0.1269013	0.003007881	9.870957e-05	0.05670195	0.08820719	

1.548e+10	-0.007886156	0.05913548	-8.974738e-05	-0.004270257	0.04693578	0.08716556	0.001832034	-0.002459205	
-8.974738e-05	-0.004270257	0.139197	0.03218735	0.002532109	-0.002131478	0.1007963	0.1244642	
0.04693578	0.08716556	0.002532109	-0.002131478	-0.1119664	0.03831285	0.003029808	-0.0006059103	
0.001832034	-0.002459205	0.1007963	0.1244642	0.003029808	-0.0006059103	0.07662086	0.06855028	

1.55e+10	0.01204782	0.0748739	-0.001266203	-0.003993995	0.06831857	0.09310319	0.001122572	-0.002937725	
-0.001266203	-0.003993995	0.1462699	0.009682925	0.001939693	-0.002496406	0.1292638	0.1144353	
0.06831857	0.09310319	0.001939693	-0.002496406	-0.09936906	0.06413722	0.002853264	-0.001405836	
0.001122572	-0.002937725	0.1292638	0.1144353	0.002853264	-0.001405836	0.08924794	0.04459661	

1.552e+10	0.03678314	0.08414125	-0.002320196	-0.003383492	0.09173563	0.0940214	0.0001885556	-0.003180315	
-0.002320196	-0.003383492	0.1475088	-0.01276449	0.001348826	-0.002756706	0.153429	0.09935649	
0.09173563	0.0940214	0.001348826	-0.002756706	-0.08056991	0.08582825	0.002347133	-0.00215709	
0.0001885556	-0.003180315	0.153429	0.09935649	0.002347133	-0.00215709	0.09440483	0.02011976	

1.554e+10	0.06250601	0.08554766	-0.003118094	-0.002433494	0.1150346	0.08850227	-0.0008056532	-0.003013048	
-0.003118094	-0.002433494	0.1438457	-0.03382877	0.0007245136	-0.002892956	0.1739696	0.08092384	
0.1150346	0.08850227	0.0007245136	-0.002892956	-0.05729826	0.1020208	0.001605473	-0.002627299	
-0.0008056532	-0.003013048	0.1739696	0.08092384	0.001605473	-0.002627299	0.09425286	-0.002917392	

1.556e+10	0.08621515	0.08087368	-0.003443244	-0.001290117	0.135351	0.07732188	-0.001581615	-0.002474053	
-0.003443244	-0.001290117	0.1360455	-0.05301457	0.0001502867	-0.002887892	0.1913468	0.05877457	
0.135351	0.07732188	0.0001502867	-0.002887892	-0.03129536	0.1122386	0.0008612849	-0.00279375	
-0.001581615	-0.002474053	0.1913468	0.05877457	0.0008612849	-0.00279375	0.09023706	-0.0248944	

1.558e+10	0.107678	0.07246305	-0.00329797	-0.0003285998	0.1515034	0.06286941	-0.002003279	-0.001827322	
-0.00329797	-0.0003285998	0.1243031	-0.06984124	-0.0003543065	-0.002862053	0.2040909	0.03222952	
0.1515034	0.06286941	-0.0003543065	-0.002862053	-0.003709914	0.116561	0.000217422	-0.002797564	
-0.002003279	-0.001827322	0.2040909	0.03222952	0.000217422	-0.002797564	0.08156784	-0.04627298	

1.56e+10	0.1280912	0.06045273	-0.003052404	0.0003009045	0.1643342	0.04684283	-0.002251482	-0.00127798	
-0.003052404	0.0003009045	0.1088723	-0.08326023	-0.0009380134	-0.002834631	0.2097246	0.002538857	
0.1643342	0.04684283	-0.0009380134	-0.002834631	0.02459159	0.1146217	-0.0003932424	-0.002727902	
-0.002251482	-0.00127798	0.2097246	0.002538857	-0.0003932424	-0.002727902	0.06704737	-0.06542194	

1.562e+10	0.1468947	0.04321674	-0.002895639	0.0008720397	0.1747841	0.02897825	-0.00247963	-0.0006965257	
-0.002895639	0.0008720397	0.09070669	-0.09207529	-0.001632714	-0.002620006	0.2071788	-0.02707147	
0.1747841	0.02897825	-0.001632714	-0.002620006	0.05222035	0.1058272	-0.001006697	-0.00251565	
-0.00247963	-0.0006965257	0.2071788	-0.02707147	-0.001006697	-0.00251565	0.04741276	-0.07940954	

1.564e+10	0.1611779	0.02020948	-0.002631994	0.001536781	0.1820564	0.008397684	-0.002541822	1.996383e-05	
-0.002631994	0.001536781	0.07154708	-0.0956146	-0.002249852	-0.002138017	0.1980922	-0.05361633	
0.1820564	0.008397684	-0.002249852	-0.002138017	0.07704064	0.09030188	-0.001516321	-0.002128159	
-0.002541822	1.996383e-05	0.1980922	-0.05361633	-0.001516321	-0.002128159	0.02571535	-0.08656937	

1.566e+10	0.1681193	-0.006100605	-0.002116356	0.002128953	0.1842057	-0.01417063	-0.002295405	0.0007065973	
-0.002116356	0.002128953	0.05303504	-0.09434521	-0.0026514	-0.001514172	0.1848069	-0.07669694	
0.1842057	-0.01417063	-0.0026514	-0.001514172	0.09717565	0.06915363	-0.001839002	-0.001671018	
-0.002295405	0.0007065973	0.1848069	-0.07669694	-0.001839002	-0.001671018	0.004763333	-0.08806627	

1.568e+10	0.1677593	-0.03187134	-0.001486181	0.002471466	0.1804405	-0.0361702	-0.001864637	0.001137286	
-0.001486181	0.002471466	0.03588806	-0.08920237	-0.002882111	-0.0008883054	0.1676891	-0.09723333	
0.1804405	-0.0361702	-0.002882111	-0.0008883054	0.1115428	0.04408862	-0.002039192	-0.001271261	
-0.001864637	0.001137286	0.1676891	-0.09723333	-0.002039192	-0.001271261	-0.01506293	-0.08598764	

1.57e+10	0.1625574	-0.0553739	-0.0009269277	0.002651339	0.1723732	-0.05540936	-0.001507748	0.001347136	
-0.0009269277	0.002651339	0.02023168	-0.08036756	-0.003034791	-0.0002479056	0.1456171	-0.1143673	
0.1723732	-0.05540936	-0.003034791	-0.0002479056	0.1198185	0.01665134	-0.002252327	-0.0009086278	
-0.001507748	0.001347136	0.1456171	-0.1143673	-0.002252327	-0.0009086278	-0.03498081	-0.08037361	

1.572e+10	0.1539964	-0.07763742	-0.0003929219	0.002826924	0.1620682	-0.07197107	-0.001268771	0.001560109	
-0.0003929219	0.002826924	0.006969026	-0.06743787	-0.003078393	0.0004787613	0.1188863	-0.1252099	
0.1620682	-0.07197107	-0.003078393	0.0004787613	0.1218851	-0.01205683	-0.002488048	-0.0004499125	
-0.001268771	0.001560109	0.1188863	-0.1252099	-0.002488048	-0.0004499125	-0.05454804	-0.06911939	

1.574e+10	0.1408111	-0.09936447	0.0002547352	0.002986054	0.1499013	-0.0871816	-0.0009806278	0.001870199	
0.0002547352	0.002986054	-0.002143216	-0.05088088	-0.002911598	0.001271441	0.09066552	-0.1275741	
0.1499013	-0.0871816	-0.002911598	0.001271441	0.1172395	-0.04102455	-0.002619863	0.0001625326	
-0.0009806278	0.001870199	0.09066552	-0.1275741	-0.002619863	0.0001625326	-0.07059719	-0.05131069	

1.576e+10	0.1212222	-0.1186143	0.001071391	0.002986858	0.1344917	-0.1012107	-0.0005034358	0.002168529	
0.001071391	0.002986858	-0.005694603	-0.03250799	-0.002472678	0.002019543	0.06489033	-0.1223241	
0.1344917	-0.1012107	-0.002472678	0.002019543	0.1054078	-0.06857301	-0.002528758	0.0008456198	
-0.0005034358	0.002168529	0.06489033	-0.1223241	-0.002528758	0.0008456198	-0.07976358	-0.02923669	

1.578e+10	0.09595705	-0.1318363	0.001964593	0.00267584	0.1150967	-0.112134	0.000134001	0.002280366	
0.001964593	0.00267584	-0.003733556	-0.01462599	-0.001799077	0.002581796	0.0431958	-0.1124702	
0.1150967	-0.112134	-0.001799077	0.002581796	0.08680613	-0.0925103	-0.002211026	0.001455689	
0.000134001	0.002280366	0.0431958	-0.1124702	-0.002211026	0.001455689	-0.08168547	-0.006931113	

1.58e+10	0.06855917	-0.1371486	0.002733881	0.002014118	0.09319969	-0.1177491	0.0007750391	0.002133805	
0.002733881	0.002014118	0.002588787	0.001325947	-0.001010271	0.002880046	0.02453895	-0.09969438	
0.09319969	-0.1177491	-0.001010271	0.002880046	0.06270055	-0.1109946	-0.001756602	0.001916995	
0.0007750391	0.002133805	0.02453895	-0.09969438	-0.001756602	0.001916995	-0.07874542	0.01368663	

1.582e+10	0.04203846	-0.1357708	0.003213195	0.001119708	0.07137933	-0.1180007	0.00129025	0.00180533	
0.003213195	0.001119708	0.01231772	0.01507828	-0.0002265342	0.002933366	0.008448838	-0.08320615	
0.07137933	-0.1180007	-0.0002265342	0.002933366	0.03483605	-0.1229605	-0.001242696	0.00224558	
0.00129025	0.00180533	0.008448838	-0.08320615	-0.001242696	0.00224558	-0.07224111	0.03354853	

1.584e+10	0.01684034	-0.1296811	0.003378937	0.00016576	0.05090842	-0.1145358	0.001676006	0.001402801	
0.003378937	0.00016576	0.02546386	0.02617409	0.0005004354	0.002802063	-0.002877556	-0.06252582	
0.05090842	-0.1145358	0.0005004354	0.002802063	0.004927184	-0.1280252	-0.000673791	0.002469738	
0.001676006	0.001402801	-0.002877556	-0.06252582	-0.000673791	0.002469738	-0.06050801	0.05300808	

1.586e+10	-0.008036735	-0.1185579	0.003300519	-0.000762713	0.03094847	-0.1082009	0.001986246	0.0009405913	
0.003300519	-0.000762713	0.04171268	0.03315956	0.001166489	0.002509543	-0.00699604	-0.0399866	
0.03094847	-0.1082009	0.001166489	0.002509543	-0.02586249	-0.1258807	-3.376925e-05	0.002555777	
0.001986246	0.0009405913	-0.00699604	-0.0399866	-3.376925e-05	0.002555777	-0.04192891	0.06917835	

1.588e+10	-0.03139375	-0.1002389	0.003004349	-0.001665886	0.01098298	-0.09779219	0.002202217	0.0003688923	
0.003004349	-0.001665886	0.0593196	0.0346358	0.001737532	0.002041882	-0.004172412	-0.01947915	
0.01098298	-0.09779219	0.001737532	0.002041882	-0.05601859	-0.11588	0.0006282382	0.002439401	
0.002202217	0.0003688923	-0.004172412	-0.01947915	0.0006282382	0.002439401	-0.01839879	0.0780148	

1.59e+10	-0.0492419	-0.07436818	0.002440823	-0.002511531	-0.007214551	-0.0817071	0.002223834	-0.0003001604	
0.002440823	-0.002511531	0.07581932	0.03065762	0.002131721	0.001418243	0.002581944	-0.003109746	
-0.007214551	-0.0817071	0.002131721	0.001418243	-0.08306904	-0.09788237	0.001202304	0.002116438	
0.002223834	-0.0003001604	0.002581944	-0.003109746	0.001202304	0.002116438	0.005428306	0.07829605	

1.592e+10	-0.05816607	-0.04411846	0.001581882	-0.003169023	-0.02051024	-0.06066461	0.001985753	-0.0009420981	
0.001581882	-0.003169023	0.08952727	0.0226622	0.002283176	0.0007321687	0.01072059	0.01004023	
-0.02051024	-0.06066461	0.002283176	0.0007321687	-0.1044474	-0.07305337	0.001607711	0.001671651	
0.001985753	-0.0009420981	0.01072059	0.01004023	0.001607711	0.001671651	0.02615693	0.07251465	

1.594e+10	-0.05820413	-0.01393061	0.0005293213	-0.003482705	-0.02743652	-0.03762486	0.001554729	-0.001414645	
0.0005293213	-0.003482705	0.1002131	0.01217556	0.002211649	0.0001041594	0.02042771	0.02158811	
-0.02743652	-0.03762486	0.002211649	0.0001041594	-0.1184754	-0.04359044	0.001859295	0.00120495	
0.001554729	-0.001414645	0.02042771	0.02158811	0.001859295	0.00120495	0.04404399	0.0634726	

1.596e+10	-0.05185837	0.01401188	-0.0005200591	-0.003416546	-0.02917034	-0.01501083	0.001071267	-0.001693399	
-0.0005200591	-0.003416546	0.1080595	-0.000314698	0.002003781	-0.0004065086	0.03302605	0.03072624	
-0.02917034	-0.01501083	0.002003781	-0.0004065086	-0.1246862	-0.01176436	0.002019025	0.0007398172	
0.001071267	-0.001693399	0.03302605	0.03072624	0.002019025	0.0007398172	0.06044554	0.05092332	

1.598e+10	-0.04037233	0.04049937	-0.00143317	-0.003072043	-0.02723461	0.007068712	0.0005997963	-0.00185767	
-0.00143317	-0.003072043	0.1123767	-0.01474559	0.001724482	-0.0008174062	0.04761659	0.03503035	
-0.02723461	0.007068712	0.001724482	-0.0008174062	-0.1231135	0.0206905	0.002095962	0.0002447208	
0.0005997963	-0.00185767	0.04761659	0.03503035	0.002095962	0.0002447208	0.07394387	0.03310922	

1.6e+10	-0.02237085	0.06522845	-0.002199908	-0.002551317	-0.02121897	0.02926982	9.867051e-05	-0.001949805	
-0.002199908	-0.002551317	0.1119529	-0.02998931	0.00137562	-0.00115032	0.06100988	0.03383504	
-0.02121897	0.02926982	0.00137562	-0.00115032	-0.113527	0.05231265	0.002039508	-0.000277496	
9.867051e-05	-0.001949805	0.06100988	0.03383504	0.002039508	-0.000277496	0.08090578	0.01079672	

1.602e+10	0.003178075	0.08520875	-0.002843995	-0.001861058	-0.009610388	0.05066763	-0.0004650538	-0.001909175	
-0.002843995	-0.001861058	0.1065538	-0.04386611	0.000946763	-0.001375696	0.0706313	0.02944727	
-0.009610388	0.05066763	0.000946763	-0.001375696	-0.09577353	0.08096357	0.001819698	-0.0007528881	
-0.0004650538	-0.001909175	0.0706313	0.02944727	0.001819698	-0.0007528881	0.07933875	-0.01190525	

1.604e+10	0.03396087	0.09663625	-0.003305537	-0.0009709921	0.007630822	0.06835337	-0.00101726	-0.00165742	
-0.003305537	-0.0009709921	0.09746382	-0.05448632	0.0004826169	-0.001441136	0.07685739	0.02487315	
0.007630822	0.06835337	0.0004826169	-0.001441136	-0.07100037	0.1038489	0.001487397	-0.001099732	
-0.00101726	-0.00165742	0.07685739	0.02487315	0.001487397	-0.001099732	0.07112248	-0.03088509	

1.606e+10	0.06531129	0.09857737	-0.003462262	6.647882e-05	0.02813476	0.08029983	-0.001423938	-0.001218309	
-0.003462262	6.647882e-05	0.0865277	-0.06136711	6.869155e-05	-0.00134715	0.08182233	0.02089428	
0.02813476	0.08029983	6.869155e-05	-0.00134715	-0.04151833	0.1192914	0.001133055	-0.001311684	
-0.001423938	-0.001218309	0.08182233	0.02089428	0.001133055	-0.001311684	0.05977319	-0.04536703	

1.608e+10	0.09418548	0.09342254	-0.003253129	0.001089744	0.04908746	0.08696	-0.001624294	-0.0007167378	
-0.003253129	0.001089744	0.07476377	-0.06501407	-0.0002362111	-0.001161015	0.08615456	0.01604558	
0.04908746	0.08696	-0.0002362111	-0.001161015	-0.009800814	0.1268519	0.0007991017	-0.001446556	
-0.001624294	-0.0007167378	0.08615456	0.01604558	0.0007991017	-0.001446556	0.0465747	-0.05710012	

1.61e+10	0.1205324	0.08353534	-0.00275747	0.00193942	0.06972616	0.0901143	-0.001678083	-0.000254685	
-0.00275747	0.00193942	0.06225567	-0.06545719	-0.0004486512	-0.0009542968	0.08805285	0.009867372	
0.06972616	0.0901143	-0.0004486512	-0.0009542968	0.02229234	0.1268663	0.0004550876	-0.001540694	
-0.001678083	-0.000254685	0.08805285	0.009867372	0.0004550876	-0.001540694	0.03000689	-0.06637756	

1.612e+10	0.1452806	0.06866453	-0.002107835	0.002582619	0.09091409	0.09020284	-0.001661488	0.0001799086	
-0.002107835	0.002582619	0.04956569	-0.06172667	-0.0006141936	-0.0007361325	0.08614512	0.004658667	
0.09091409	0.09020284	-0.0006141936	-0.0007361325	0.05342279	0.1195681	7.381834e-05	-0.001558953	
-0.001661488	0.0001799086	0.08614512	0.004658667	7.381834e-05	-0.001558953	0.009496145	-0.07029044	

1.614e+10	0.1669937	0.04736151	-0.001359104	0.003064105	0.112805	0.08595309	-0.001559388	0.0006357396	
-0.001359104	0.003064105	0.03865104	-0.05326894	-0.0007334838	-0.0004761479	0.08205209	0.003264427	
0.112805	0.08595309	-0.0007334838	-0.0004761479	0.08203336	0.1050433	-0.0003044172	-0.001453361	
-0.001559388	0.0006357396	0.08205209	0.003264427	-0.0003044172	-0.001453361	-0.01185281	-0.06594121	

1.616e+10	0.1822825	0.02030549	-0.0004859332	0.003384696	0.1336323	0.07623798	-0.001300842	0.001087287	
-0.0004859332	0.003384696	0.03172365	-0.04123865	-0.0007601405	-0.0001738162	0.07917725	0.005943361	
0.1336323	0.07623798	-0.0007601405	-0.0001738162	0.1061608	0.08391297	-0.0006030233	-0.001236381	
-0.001300842	0.001087287	0.07917725	0.005943361	-0.0006030233	-0.001236381	-0.02928951	-0.05405701	

1.618e+10	0.1891167	-0.009192114	0.0005100005	0.003457893	0.1510006	0.06185905	-0.0008701092	0.001426587	
0.0005100005	0.003457893	0.02964151	-0.02790931	-0.0006611605	0.0001133706	0.07943668	0.01016959	
0.1510006	0.06185905	-0.0006611605	0.0001133706	0.1239647	0.05787683	-0.0007855549	-0.0009805328	
-0.0008701092	0.001426587	0.07943668	0.01016959	-0.0007855549	-0.0009805328	-0.04057903	-0.03854846	

1.62e+10	0.188418	-0.03748209	0.001517624	0.003195533	0.1640346	0.04505638	-0.0003578426	0.001563677	
0.001517624	0.003195533	0.03171512	-0.01503165	-0.0004649917	0.0003170769	0.08173675	0.01378483	
0.1640346	0.04505638	-0.0004649917	0.0003170769	0.1347251	0.02899571	-0.0008872408	-0.0007463325	
-0.0003578426	0.001563677	0.08173675	0.01378483	-0.0008872408	-0.0007463325	-0.04721319	-0.02227726	

1.622e+10	0.1826717	-0.06342718	0.002371389	0.002622535	0.1737621	0.02727691	0.0001114099	0.001517115	
0.002371389	0.002622535	0.03713963	-0.003054216	-0.0002385011	0.0004191562	0.08453034	0.01734236	
0.1737621	0.02727691	-0.0002385011	0.0004191562	0.1384973	-0.0008681366	-0.0009599615	-0.0005292716	
0.0001114099	0.001517115	0.08453034	0.01734236	-0.0009599615	-0.0005292716	-0.0507846	-0.004693265	

1.624e+10	0.1727735	-0.08803631	0.0029859	0.001868044	0.1811017	0.008038815	0.0004958784	0.001377355	
0.0029859	0.001868044	0.04616361	0.007728038	-1.799972e-05	0.0004534829	0.08878793	0.02222787	
0.1811017	0.008038815	-1.799972e-05	0.0004534829	0.1356606	-0.0303312	-0.001001211	-0.0002933439	
0.0004958784	0.001377355	0.08878793	0.02222787	-0.001001211	-0.0002933439	-0.04969647	0.01533612	

1.626e+10	0.1573502	-0.1112741	0.003392844	0.001034319	0.1850722	-0.01358371	0.0008399507	0.001187579	
0.003392844	0.001034319	0.05916573	0.01582685	0.0002147929	0.00044127	0.09683579	0.0274821	
0.1850722	-0.01358371	0.0002147929	0.00044127	0.1263413	-0.05841	-0.0009665708	-4.439888e-05	
0.0008399507	0.001187579	0.09683579	0.0274821	-0.0009665708	-4.439888e-05	-0.04094122	0.03575307	

1.628e+10	0.1352996	-0.1306162	0.003631484	0.0001210081	0.1836507	-0.03684372	0.001164989	0.0009054834	
0.003631484	0.0001210081	0.0749762	0.01923806	0.0004753269	0.000349942	0.1090834	0.02991142	
0.1836507	-0.03684372	0.0004753269	0.000349942	0.1105744	-0.0837482	-0.0008441763	0.0001581358	
0.001164989	0.0009054834	0.1090834	0.02991142	-0.0008441763	0.0001581358	-0.02459682	0.05182412	

1.63e+10	0.1084171	-0.1427204	0.00365393	-0.0008960714	0.1759945	-0.05909194	0.001405422	0.0004903275	
0.00365393	-0.0008960714	0.09120565	0.0171659	0.0007248806	0.0001316024	0.1230323	0.02718551	
0.1759945	-0.05909194	0.0007248806	0.0001316024	0.08907217	-0.104434	-0.0006858686	0.0002642422	
0.001405422	0.0004903275	0.1230323	0.02718551	-0.0006858686	0.0002642422	-0.004486099	0.06052497	

1.632e+10	0.08036464	-0.14654	0.003359006	-0.001958757	0.1634505	-0.0779584	0.001461468	-9.636848e-06	
0.003359006	-0.001958757	0.1057821	0.01048015	0.0008840306	-0.0002170242	0.1356699	0.01988884	
0.1634505	-0.0779584	0.0008840306	-0.0002170242	0.06324368	-0.1190092	-0.0005650471	0.0002881544	
0.001461468	-9.636848e-06	0.1356699	0.01988884	-0.0005650471	0.0002881544	0.01545835	0.06287355	

1.634e+10	0.05401276	-0.1437901	0.002712633	-0.002909248	0.1481462	-0.09309778	0.001307083	-0.0004637096	
0.002712633	-0.002909248	0.118039	0.0004929188	0.0008908818	-0.0006390795	0.1462339	0.01006641	
0.1481462	-0.09309778	0.0008908818	-0.0006390795	0.03496043	-0.1267157	-0.0005114635	0.0002946988	
0.001307083	-0.0004637096	0.1462339	0.01006641	-0.0005114635	0.0002946988	0.03454477	0.0613246	

1.636e+10	0.02935705	-0.1364271	0.001806247	-0.003609038	0.1307047	-0.1054202	0.001031236	-0.0007713506	
0.001806247	-0.003609038	0.1279123	-0.01227577	0.0007392984	-0.001067006	0.1558399	-0.001776538	
0.1307047	-0.1054202	0.0007392984	-0.001067006	0.006000032	-0.127609	-0.0004931449	0.0003355185	
0.001031236	-0.0007713506	0.1558399	-0.001776538	-0.0004931449	0.0003355185	0.05401848	0.05598273	

1.638e+10	0.005531974	-0.1238265	0.0007613539	-0.004035915	0.1101533	-0.1145782	0.0007436608	-0.0009447189	
0.0007613539	-0.004035915	0.1347352	-0.02793175	0.0004359199	-0.001475138	0.1643887	-0.01714133	
0.1101533	-0.1145782	0.0004359199	-0.001475138	-0.02263728	-0.1217839	-0.0004671484	0.0004122816	
0.0007436608	-0.0009447189	0.1643887	-0.01714133	-0.0004671484	0.0004122816	0.0732647	0.04464377	

1.64e+10	-0.01566296	-0.1040578	-0.000384923	-0.004208433	0.08663909	-0.1182344	0.00047859	-0.001045572	
-0.000384923	-0.004208433	0.1370297	-0.04582822	-6.355269e-05	-0.0018346	0.1695276	-0.03686692	
0.08663909	-0.1182344	-6.355269e-05	-0.0018346	-0.04981264	-0.1087	-0.0004155231	0.000513678	
0.00047859	-0.001045572	0.1695276	-0.03686692	-0.0004155231	0.000513678	0.0887434	0.02639654	

1.642e+10	-0.03013237	-0.07748527	-0.001631486	-0.004060496	0.06307374	-0.1145649	0.0002259959	-0.001101454	
-0.001631486	-0.004060496	0.1338836	-0.06408308	-0.0008094467	-0.002016612	0.1686591	-0.05923879	
0.06307374	-0.1145649	-0.0008094467	-0.002016612	-0.07289425	-0.08820801	-0.0003114328	0.0006376842	
0.0002259959	-0.001101454	0.1686591	-0.05923879	-0.0003114328	0.0006376842	0.09709858	0.004001562	

1.644e+10	-0.03488564	-0.04819262	-0.002860032	-0.003463334	0.04307794	-0.1046289	-1.523419e-05	-0.001123297	
-0.002860032	-0.003463334	0.1256333	-0.08068302	-0.001709194	-0.001804265	0.1612402	-0.08117298	
0.04307794	-0.1046289	-0.001709194	-0.001804265	-0.08903931	-0.06179179	-0.0001072598	0.0007333577	
-1.523419e-05	-0.001123297	0.1612402	-0.08117298	-0.0001072598	0.0007333577	0.09820272	-0.0185911	

1.646e+10	-0.03097334	-0.02089965	-0.003805556	-0.002417875	0.02793643	-0.09175957	-0.0002613603	-0.001130276	
-0.003805556	-0.002417875	0.1135146	-0.09437219	-0.002447779	-0.001112423	0.1488416	-0.1006711	
0.02793643	-0.09175957	-0.002447779	-0.001112423	-0.09675377	-0.03273052	0.00015934	0.0006895186	
-0.0002613603	-0.001130276	0.1488416	-0.1006711	0.00015934	0.0006895186	0.09425446	-0.0395087	

1.648e+10	-0.02180532	0.002882341	-0.004275256	-0.001148751	0.01601358	-0.07791542	-0.0005456132	-0.00110348	
-0.004275256	-0.001148751	0.09844655	-0.1048313	-0.002752079	-0.0001712173	0.1328439	-0.1178739	
0.01601358	-0.07791542	-0.002752079	-0.0001712173	-0.09689335	-0.004027153	0.0003428757	0.0004942901	
-0.0005456132	-0.00110348	0.1328439	-0.1178739	0.0003428757	0.0004942901	0.08659642	-0.05941599	

1.65e+10	-0.008644749	0.02452077	-0.004304535	8.114819e-05	0.006137745	-0.06211751	-0.0008622304	-0.001000668	
-0.004304535	8.114819e-05	0.0807964	-0.1117636	-0.002646955	0.0007122212	0.1125756	-0.1331209	
0.006137745	-0.06211751	-0.002646955	0.0007122212	-0.09086273	0.02341412	0.0003740591	0.000260501	
-0.0008622304	-0.001000668	0.1125756	-0.1331209	0.0003740591	0.000260501	0.0739351	-0.07877971	

1.652e+10	0.0102499	0.04399066	-0.004050383	0.001160664	-3.855278e-05	-0.04331198	-0.001190882	-0.0007909207	
-0.004050383	0.001160664	0.06085858	-0.1140594	-0.002309804	0.001410464	0.08678099	-0.1446794	
-3.855278e-05	-0.04331198	-0.002309804	0.001410464	-0.07862298	0.04920544	0.0002786794	8.163414e-05	
-0.001190882	-0.0007909207	0.08678099	-0.1446794	0.0002786794	8.163414e-05	0.05443648	-0.09529812	

1.654e+10	0.03564226	0.05782479	-0.00361922	0.002116596	-8.490456e-05	-0.02327585	-0.001483384	-0.0004351773	
-0.00361922	0.002116596	0.04008654	-0.1104186	-0.001870486	0.001947121	0.05631816	-0.1493333	
-8.490456e-05	-0.02327585	-0.001870486	0.001947121	-0.05970303	0.0716578	0.0001164239	1.60864e-05	
-0.001483384	-0.0004351773	0.05631816	-0.1493333	0.0001164239	1.60864e-05	0.02931666	-0.1050146	

1.656e+10	0.06448104	0.06246684	-0.002996872	0.002993736	0.005966125	-0.005462351	-0.001638549	6.896205e-05	
-0.002996872	0.002993736	0.02077333	-0.1005669	-0.001356269	0.002377792	0.0243199	-0.1450655	
0.005966125	-0.005462351	-0.001356269	0.002377792	-0.03496942	0.08818774	-2.359929e-05	7.652058e-05	
-0.001638549	6.896205e-05	0.0243199	-0.1450655	-2.359929e-05	7.652058e-05	0.002422417	-0.1060123	

1.658e+10	0.09170088	0.05784328	-0.002121894	0.003732175	0.01547303	0.008015661	-0.001560829	0.0006252352	
-0.002121894	0.003732175	0.004954873	-0.08551758	-0.0007380862	0.002701694	-0.005749534	-0.1323752	
0.01547303	0.008015661	-0.0007380862	0.002701694	-0.006911712	0.09699305	-6.62057e-05	0.0002050992	
-0.001560829	0.0006252352	-0.005749534	-0.1323752	-6.62057e-05	0.0002050992	-0.02275241	-0.09950182	

1.66e+10	0.1145689	0.04722424	-0.001014949	0.004185705	0.0258187	0.01786172	-0.001263001	0.001079849	
-0.001014949	0.004185705	-0.006416531	-0.06676035	-2.275812e-05	0.002853209	-0.03225105	-0.1131432	
0.0258187	0.01786172	-2.275812e-05	0.002853209	0.02156531	0.09795421	-1.206527e-05	0.0003091446	
-0.001263001	0.001079849	-0.03225105	-0.1131432	-1.206527e-05	0.0003091446	-0.04527668	-0.0876844	

1.662e+10	0.1337539	0.03327173	0.0001604836	0.004252973	0.03678556	0.02578911	-0.0008683082	0.001353048	
0.0001604836	0.004252973	-0.01294128	-0.04525083	0.0007077914	0.002780426	-0.05501458	-0.08793924	
0.03678556	0.02578911	0.0007077914	0.002780426	0.04854249	0.09211189	6.859915e-05	0.0003468004	
-0.0008683082	0.001353048	-0.05501458	-0.08793924	6.859915e-05	0.0003468004	-0.06575006	-0.07053299	

1.664e+10	0.1504232	0.01550359	0.001231822	0.003987256	0.04960329	0.03157644	-0.0004815498	0.001490018	
0.001231822	0.003987256	-0.01379501	-0.02170396	0.00135361	0.002513716	-0.07255965	-0.0561007	
0.04960329	0.03157644	0.00135361	0.002513716	0.07313622	0.08024051	0.0001230592	0.0003561174	
-0.0004815498	0.001490018	-0.07255965	-0.0561007	0.0001230592	0.0003561174	-0.08251614	-0.04649546	

1.666e+10	0.1627421	-0.007394629	0.002141414	0.003509577	0.0638695	0.03328662	-0.0001067553	0.001555541	
0.002141414	0.003509577	-0.007695357	0.002343898	0.001878059	0.00213264	-0.08153059	-0.01850833	
0.0638695	0.03328662	0.001878059	0.00213264	0.09411941	0.06251621	0.0001678242	0.0003825682	
-0.0001067553	0.001555541	-0.08153059	-0.01850833	0.0001678242	0.0003825682	-0.09137852	-0.01626054	

1.668e+10	0.1672517	-0.03393656	0.002914974	0.002870544	0.07707823	0.03006704	0.0002865718	0.001539454	
0.002914974	0.002870544	0.005704852	0.02414828	0.002302413	0.001682583	-0.07928223	0.02124361	
0.07707823	0.03006704	0.002302413	0.001682583	0.1095454	0.03967865	0.0002391495	0.0004181877	
0.0002865718	0.001539454	-0.07928223	0.02124361	0.0002391495	0.0004181877	-0.08939253	0.01589104	

1.67e+10	0.1626972	-0.05977387	0.003527136	0.002048394	0.08681012	0.02357765	0.000655317	0.001393945	
0.003527136	0.002048394	0.02505664	0.04108161	0.002633163	0.001162352	-0.06610116	0.05858428	
0.08681012	0.02357765	0.002633163	0.001162352	0.1177541	0.01380022	0.0003277129	0.0004326702	
0.000655317	0.001393945	-0.06610116	0.05858428	0.0003277129	0.0004326702	-0.0774831	0.0448612	

1.672e+10	0.1514106	-0.0810734	0.003864243	0.001081752	0.09297275	0.0165141	0.0008860198	0.001159537	
0.003864243	0.001081752	0.048045	0.05177683	0.002834037	0.0005929388	-0.04448986	0.09049507	
0.09297275	0.0165141	0.002834037	0.0005929388	0.1183931	-0.01229677	0.0003920832	0.0004510083	
0.0008860198	0.001159537	-0.04448986	0.09049507	0.0003920832	0.0004510083	-0.0590418	0.06801566	

1.674e+10	0.1368299	-0.09752776	0.003864677	0.000165066	0.0972987	0.009929053	0.0009532659	0.001032683	
0.003864677	0.000165066	0.07266862	0.05596439	0.002907825	6.715566e-05	-0.01674847	0.1161689	
0.0972987	0.009929053	0.002907825	6.715566e-05	0.1124821	-0.03654548	0.00047151	0.0005779018	
0.0009532659	0.001032683	-0.01674847	0.1161689	0.00047151	0.0005779018	-0.03636409	0.08550242	

1.676e+10	0.1199002	-0.1107609	0.003737936	-0.0004758304	0.1006122	0.002758686	0.001138021	0.001204391	
0.003737936	-0.0004758304	0.09711962	0.05358195	0.003025586	-0.0003555049	0.01584622	0.1348924	
0.1006122	0.002758686	0.003025586	-0.0003555049	0.1011729	-0.05798215	0.0008185654	0.000835133	
0.001138021	0.001204391	0.01584622	0.1348924	0.0008185654	0.000835133	-0.01027649	0.09683122	

1.678e+10	0.09892735	-0.1205691	0.003909039	-0.001045742	0.1014438	-0.005631983	0.001947277	0.001337376	
0.003909039	-0.001045742	0.1192558	0.04527247	0.003386993	-0.0009752362	0.05135175	0.1457481	
0.1014438	-0.005631983	0.003386993	-0.0009752362	0.08496089	-0.07587579	0.001688051	0.0007635324	
0.001947277	0.001337376	0.05135175	0.1457481	0.001688051	0.0007635324	0.0169435	0.1009581	

1.68e+10	0.0738989	-0.1235103	0.004164023	-0.002223942	0.09831746	-0.0133598	0.003055446	0.0005044014	
0.004164023	-0.002223942	0.1380315	0.03307983	0.003533598	-0.002227896	0.08820761	0.1493115	
0.09831746	-0.0133598	0.003533598	-0.002227896	0.06423831	-0.08875153	0.002445203	-0.0002666575	
0.003055446	0.0005044014	0.08820761	0.1493115	0.002445203	-0.0002666575	0.04343034	0.09927585	

1.682e+10	0.04868874	-0.1168522	0.003644029	-0.003841348	0.09217003	-0.01769911	0.003299045	-0.00110788	
0.003644029	-0.003841348	0.1540342	0.01754344	0.002833443	-0.003627816	0.1258725	0.1446519	
0.09217003	-0.01769911	0.002833443	-0.003627816	0.04058111	-0.09492982	0.002202917	-0.001647273	
0.003299045	-0.00110788	0.1258725	0.1446519	0.002202917	-0.001647273	0.0690648	0.09173867	

1.684e+10	0.0283413	-0.1018296	0.002279487	-0.00514735	0.08586948	-0.01764678	0.002538887	-0.002542523	
0.002279487	-0.00514735	0.1660742	-0.001385245	0.001507919	-0.004554991	0.16141	0.1310948	
0.08586948	-0.01764678	0.001507919	-0.004554991	0.01651099	-0.09354302	0.001211482	-0.002557247	
0.002538887	-0.002542523	0.16141	0.1310948	0.001211482	-0.002557247	0.09148815	0.07817694	

1.686e+10	0.01490451	-0.08252996	0.0004079194	-0.005772705	0.08163709	-0.01475062	0.001170097	-0.003346326	
0.0004079194	-0.005772705	0.1730774	-0.02215791	-8.811602e-05	-0.004849299	0.1924001	0.110492	
0.08163709	-0.01475062	-8.811602e-05	-0.004849299	-0.005414628	-0.08523218	-7.50001e-05	-0.002786091	
0.001170097	-0.003346326	0.1924001	0.110492	-7.50001e-05	-0.002786091	0.1091223	0.0609289	

1.688e+10	0.007025616	-0.06168218	-0.001559122	-0.005535625	0.07933629	-0.01095449	-0.0003620757	-0.003272833	
-0.001559122	-0.005535625	0.175209	-0.04304844	-0.001617218	-0.00443845	0.2184617	0.08470938	
0.07933629	-0.01095449	-0.001617218	-0.00443845	-0.02363712	-0.0715139	-0.001247005	-0.00224319	
-0.0003620757	-0.003272833	0.2184617	0.08470938	-0.001247005	-0.00224319	0.1225305	0.04187992	

1.69e+10	0.003755585	-0.0385937	-0.00310876	-0.004553856	0.0778862	-0.006000401	-0.001371379	-0.002422918	
-0.00310876	-0.004553856	0.1734368	-0.06307441	-0.002655183	-0.003531234	0.2397016	0.05432251	
0.0778862	-0.006000401	-0.002655183	-0.003531234	-0.03756355	-0.05330896	-0.001701342	-0.001174554	
-0.001371379	-0.002422918	0.2397016	0.05432251	-0.001701342	-0.001174554	0.1327557	0.0215286	

1.692e+10	0.007756938	-0.01276495	-0.004058571	-0.003356349	0.07848794	0.001432087	-0.001570552	-0.001588749	
-0.004058571	-0.003356349	0.1683698	-0.08239608	-0.00319475	-0.002675966	0.2552609	0.01890421	
0.07848794	0.001432087	-0.00319475	-0.002675966	-0.04588257	-0.03100648	-0.001357391	-0.0004389488	
-0.001570552	-0.001588749	0.2552609	0.01890421	-0.001357391	-0.0004389488	0.1399157	-0.001093399	

1.694e+10	0.02230159	0.01180011	-0.004729269	-0.002122442	0.08412041	0.0100784	-0.001591462	-0.001206672	
-0.004729269	-0.002122442	0.1593696	-0.1008155	-0.003701178	-0.001928354	0.2625507	-0.02063091	
0.08412041	0.0100784	-0.003701178	-0.001928354	-0.04625976	-0.006353251	-0.001010764	-0.0003589234	
-0.001591462	-0.001206672	0.2625507	-0.02063091	-0.001010764	-0.0003589234	0.1420095	-0.0258331	

1.696e+10	0.04566616	0.0287564	-0.005084582	-0.0007055441	0.09522521	0.01579329	-0.001776152	-0.0008909823	
-0.005084582	-0.0007055441	0.1462717	-0.1169386	-0.004135253	-0.000960782	0.2601972	-0.06125393	
0.09522521	0.01579329	-0.004135253	-0.000960782	-0.03803592	0.01664121	-0.001030794	-0.0004041715	
-0.001776152	-0.0008909823	0.2601972	-0.06125393	-0.001030794	-0.0004041715	0.1382239	-0.05038315	

1.698e+10	0.07199443	0.03573208	-0.005009203	0.000750418	0.1086992	0.01599664	-0.001935051	-0.0004570702	
-0.005009203	0.000750418	0.1300254	-0.1295814	-0.004276967	0.0001501024	0.2490374	-0.1002285	
0.1086992	0.01599664	-0.004276967	0.0001501024	-0.02343661	0.03493001	-0.001174237	-0.0002973458	
-0.001935051	-0.0004570702	0.2490374	-0.1002285	-0.001174237	-0.0002973458	0.1298257	-0.07315901	

1.7e+10	0.09706893	0.03471557	-0.004514767	0.002144734	0.1214183	0.01115934	-0.001971035	3.233988e-05	
-0.004514767	0.002144734	0.1117446	-0.1384767	-0.004104974	0.001302963	0.230103	-0.1364731	
0.1214183	0.01115934	-0.004104974	0.001302963	-0.004928488	0.0475945	-0.001292758	-8.269266e-05	
-0.001971035	3.233988e-05	0.230103	-0.1364731	-0.001292758	-8.269266e-05	0.1176209	-0.09445135	

1.702e+10	0.1199983	0.02847257	-0.003552301	0.003307941	0.1319924	0.003151602	-0.001862088	0.000514653	
-0.003552301	0.003307941	0.09188033	-0.1435423	-0.003541972	0.002391789	0.2031547	-0.169064	
0.1319924	0.003151602	-0.003541972	0.002391789	0.01571414	0.05460383	-0.001343471	0.0001974283	
-0.001862088	0.000514653	0.2031547	-0.169064	-0.001343471	0.0001974283	0.1006985	-0.1142723	

1.704e+10	0.14168	0.0176085	-0.002303505	0.003976954	0.1409579	-0.006762309	-0.001631219	0.0009180197	
-0.002303505	0.003976954	0.07087702	-0.1442699	-0.002649968	0.003176079	0.1681539	-0.1956212	
0.1409579	-0.006762309	-0.002649968	0.003176079	0.03722034	0.05611882	-0.001306666	0.0004888024	
-0.001631219	0.0009180197	0.1681539	-0.1956212	-0.001306666	0.0004888024	0.07825797	-0.1307026	

1.706e+10	0.1615092	0.0005042407	-0.001101077	0.004182184	0.1489143	-0.01922353	-0.001345109	0.001224814	
-0.001101077	0.004182184	0.04971136	-0.1399535	-0.001678063	0.003592068	0.1265608	-0.2131358	
0.1489143	-0.01922353	-0.001678063	0.003592068	0.05877146	0.05192532	-0.001207006	0.0007580345	
-0.001345109	0.001224814	0.1265608	-0.2131358	-0.001207006	0.0007580345	0.05115423	-0.1411888	

1.708e+10	0.1760829	-0.02331714	-4.089758e-05	0.004139898	0.1544589	-0.03533894	-0.001028392	0.00145568	
-4.089758e-05	0.004139898	0.02996433	-0.1303606	-0.0007514708	0.003767588	0.08156134	-0.219699	
0.1544589	-0.03533894	-0.0007514708	0.003767588	0.07875793	0.04154543	-0.001061528	0.0009985857	
-0.001028392	0.00145568	0.08156134	-0.219699	-0.001061528	0.0009985857	0.02196873	-0.1443074	

1.71e+10	0.1821517	-0.05082682	0.0009483341	0.003936171	0.1551903	-0.05425261	-0.0007084259	0.001597901	
0.0009483341	0.003936171	0.01319381	-0.116143	0.0001468977	0.003782549	0.03663905	-0.2153656	
0.1551903	-0.05425261	0.0001468977	0.003782549	0.09487068	0.0255963	-0.0009011898	0.001196354	
-0.0007084259	0.001597901	0.03663905	-0.2153656	-0.0009011898	0.001196354	-0.006900141	-0.1405808	

1.712e+10	0.1797168	-0.07781508	0.001890635	0.003544715	0.1500719	-0.07335389	-0.000475803	0.001700696	
0.001890635	0.003544715	0.0003266709	-0.09850946	0.001038919	0.003642329	-0.006131223	-0.2011366	
0.1500719	-0.07335389	0.001038919	0.003642329	0.105503	0.005939169	-0.0007976192	0.001404634	
-0.000475803	0.001700696	-0.006131223	-0.2011366	-0.0007976192	0.001404634	-0.0348769	-0.1308931	

1.714e+10	0.1711306	-0.101897	0.002774209	0.002961061	0.1401724	-0.09031761	-0.0003021112	0.002014978	
0.002774209	0.002961061	-0.008348145	-0.0783485	0.001948749	0.003341575	-0.04528745	-0.177411	
0.1401724	-0.09031761	0.001948749	0.003341575	0.1102736	-0.01530016	-0.0007055564	0.001838997	
-0.0003021112	0.002014978	-0.04528745	-0.177411	-0.0007055564	0.001838997	-0.06165517	-0.1145061	

1.716e+10	0.1582881	-0.1232772	0.003629502	0.002078467	0.1273189	-0.1047001	0.0003581235	0.002626295	
0.003629502	0.002078467	-0.01235673	-0.05620163	0.002928329	0.002752097	-0.07853419	-0.1440419	
0.1273189	-0.1047001	0.002928329	0.002752097	0.1097194	-0.0366541	-0.0001463848	0.002574742	
0.0003581235	0.002626295	-0.07853419	-0.1440419	-0.0001463848	0.002574742	-0.08489367	-0.08992961	

1.718e+10	0.140894	-0.1427206	0.004151986	0.0006965027	0.1119556	-0.1175732	0.001831606	0.002617748	
0.004151986	0.0006965027	-0.01081198	-0.03290417	0.003727283	0.00162872	-0.1022789	-0.1023861	
0.1119556	-0.1175732	0.003727283	0.00162872	0.104218	-0.05775233	0.001236745	0.002849485	
0.001831606	0.002617748	-0.1022789	-0.1023861	0.001236745	0.002849485	-0.1003865	-0.05814522	

1.72e+10	0.1170882	-0.1585769	0.003878946	-0.0007886165	0.09237498	-0.1287003	0.003001336	0.001341997	
0.003878946	-0.0007886165	-0.003020344	-0.01036907	0.003851919	0.0002055582	-0.1138512	-0.05634295	
0.09237498	-0.1287003	0.003851919	0.0002055582	0.09286478	-0.07775723	0.002611177	0.001944398	
0.003001336	0.001341997	-0.1138512	-0.05634295	0.002611177	0.001944398	-0.1053602	-0.02331922	

1.722e+10	0.08791444	-0.1667093	0.003097322	-0.001747531	0.06802788	-0.135088	0.002930767	-0.0002365762	
0.003097322	-0.001747531	0.01053506	0.009444935	0.003341934	-0.0009015353	-0.1134327	-0.01008369	
0.06802788	-0.135088	0.003341934	-0.0009015353	0.07527311	-0.09421203	0.002963906	0.0004262552	
0.002930767	-0.0002365762	-0.1134327	-0.01008369	0.002963906	0.0004262552	-0.1007304	0.009841204	

1.724e+10	0.05758038	-0.1654041	0.002362357	-0.002312341	0.0413838	-0.1344867	0.002194191	-0.001145487	
0.002362357	-0.002312341	0.02858677	0.02497211	0.002723907	-0.001561827	-0.1025269	0.03368929	
0.0413838	-0.1344867	0.002723907	-0.001561827	0.05322881	-0.1047294	0.00246193	-0.0006765571	
0.002194191	-0.001145487	-0.1025269	0.03368929	0.00246193	-0.0006765571	-0.0895722	0.03969294	

1.726e+10	0.02955952	-0.1560958	0.00159245	-0.00279141	0.01529998	-0.1268406	0.001459949	-0.001541048	
0.00159245	-0.00279141	0.04953397	0.0355335	0.002125529	-0.002068069	-0.08223138	0.07349752	
0.01529998	-0.1268406	0.002125529	-0.002068069	0.02900323	-0.1084383	0.001790651	-0.001227875	
0.001459949	-0.001541048	-0.08223138	0.07349752	0.001790651	-0.001227875	-0.07283935	0.06688543	

1.728e+10	0.004609296	-0.1408746	0.0006477492	-0.00307379	-0.008711401	-0.1133959	0.000810698	-0.001690013	
0.0006477492	-0.00307379	0.07224142	0.04093883	0.001429398	-0.002456839	-0.05291664	0.1076356	
-0.008711401	-0.1133959	0.001429398	-0.002456839	0.004525011	-0.1054129	0.001184055	-0.00147467	
0.000810698	-0.001690013	-0.05291664	0.1076356	0.001184055	-0.00147467	-0.04947718	0.09063463	

1.73e+10	-0.01751886	-0.1197655	-0.0003736414	-0.003029949	-0.03041852	-0.09474259	0.0002268356	-0.001684798	
-0.0003736414	-0.003029949	0.09570265	0.04073183	0.0006375062	-0.002650716	-0.01571174	0.133126	
-0.03041852	-0.09474259	0.0006375062	-0.002650716	-0.01884788	-0.09589123	0.0006515156	-0.001568251	
0.0002268356	-0.001684798	-0.01571174	0.133126	0.0006515156	-0.001568251	-0.01969705	0.1077444	

1.732e+10	-0.03499503	-0.09126037	-0.001352689	-0.002644524	-0.04902162	-0.06985432	-0.0003346161	-0.001548969	
-0.001352689	-0.002644524	0.1182451	0.03451681	-0.0002030686	-0.002606401	0.02617862	0.1473831	
-0.04902162	-0.06985432	-0.0002030686	-0.002606401	-0.03974348	-0.07960867	0.0001339012	-0.00156157	
-0.0003346161	-0.001548969	0.02617862	0.1473831	0.0001339012	-0.00156157	0.01340406	0.1154948	

1.734e+10	-0.04337601	-0.05626393	-0.002195097	-0.001897433	-0.06142923	-0.03859427	-0.0008804361	-0.001207379	
-0.002195097	-0.001897433	0.137655	0.02298047	-0.001033834	-0.002266444	0.06824325	0.1500722	
-0.06142923	-0.03859427	-0.001033834	-0.002266444	-0.05570523	-0.05686445	-0.0004045092	-0.00139233	
-0.0008804361	-0.001207379	0.06824325	0.1500722	-0.0004045092	-0.00139233	0.0453125	0.1140158	

1.736e+10	-0.03956742	-0.01943528	-0.002714959	-0.0007539453	-0.06444219	-0.003422386	-0.001271066	-0.0005640555	
-0.002714959	-0.0007539453	0.1525584	0.008038233	-0.001712515	-0.001559362	0.1072747	0.1433189	
-0.06444219	-0.003422386	-0.001712515	-0.001559362	-0.06413635	-0.029391	-0.0008709455	-0.0009571566	
-0.001271066	-0.0005640555	0.1072747	0.1433189	-0.0008709455	-0.0009571566	0.07351689	0.1061838	

1.738e+10	-0.02465286	0.01345793	-0.002583115	0.0006555477	-0.05721519	0.03138933	-0.001226573	0.0003110542	
-0.002583115	0.0006555477	0.1630359	-0.008160623	-0.001967475	-0.0005257116	0.1422395	0.1295596	
-0.05721519	0.03138933	-0.001967475	-0.0005257116	-0.06371207	-0.0003447188	-0.001038338	-0.0002685326	
-0.001226573	0.0003110542	0.1422395	0.1295596	-0.001038338	-0.0002685326	0.09837038	0.09456147	

1.74e+10	-0.002396002	0.03989411	-0.001540171	0.001819968	-0.04155346	0.06251931	-0.0005337091	0.001038931	
-0.001540171	0.001819968	0.1702684	-0.02441563	-0.001527358	0.0005018743	0.1733217	0.1099042	
-0.04155346	0.06251931	-0.001527358	0.0005018743	-0.05491462	0.02708089	-0.0006945667	0.000416843	
-0.0005337091	0.001038931	0.1733217	0.1099042	-0.0006945667	0.000416843	0.1208677	0.07948283	

1.742e+10	0.02447123	0.06015391	7.213407e-05	0.001957872	-0.01974761	0.0889288	0.0005825342	0.001042023	
7.213407e-05	0.001957872	0.1754537	-0.04091006	-0.0005104192	0.0009193065	0.1999826	0.0842375	
-0.01974761	0.0889288	-0.0005104192	0.0009193065	-0.03926273	0.05089176	7.641018e-05	0.0006494706	
0.0005825342	0.001042023	0.1999826	0.0842375	7.641018e-05	0.0006494706	0.1407083	0.0601101	

1.744e+10	0.05588682	0.07444237	0.001189377	0.000906259	0.007464332	0.110428	0.001352769	0.0001530572	
0.001189377	0.000906259	0.1784521	-0.0587687	0.0003724129	0.0004451008	0.220362	0.05271715	
0.007464332	0.110428	0.0003724129	0.0004451008	-0.01804558	0.06992811	0.0007553969	0.0001996691	
0.001352769	0.0001530572	0.220362	0.05271715	0.0007553969	0.0001996691	0.1561156	0.03651886	

1.746e+10	0.09139867	0.08050791	0.001087357	-0.0004442293	0.03982355	0.1256082	0.001179611	-0.001003643	
0.001087357	-0.0004442293	0.1775829	-0.07800518	0.0004879696	-0.0004304604	0.2321847	0.01718707	
0.03982355	0.1256082	0.0004879696	-0.0004304604	0.007662367	0.08302316	0.0008375269	-0.0005919493	
0.001179611	-0.001003643	0.2321847	0.01718707	0.0008375269	-0.0005919493	0.1655581	0.01032901	

1.748e+10	0.1279471	0.07612355	0.0001429219	-0.001061118	0.07566737	0.132369	0.000284088	-0.001601498	
0.0001429219	-0.001061118	0.1718017	-0.09668682	-7.91098e-05	-0.000952661	0.2347021	-0.01912448	
0.07566737	0.132369	-7.91098e-05	-0.000952661	0.03614309	0.08886728	0.0003438936	-0.001133167	
0.000284088	-0.001601498	0.2347021	-0.01912448	0.0003438936	-0.001133167	0.1690987	-0.01616917	

1.75e+10	0.1610067	0.06177245	-0.000708729	-0.0007923919	0.1118207	0.1298476	-0.000602142	-0.001455136	
-0.000708729	-0.0007923919	0.1620506	-0.11288	-0.0007307614	-0.0008668854	0.2292022	-0.05357323	
0.1118207	0.1298476	-0.0007307614	-0.0008668854	0.06490625	0.08692001	-0.0002681214	-0.001187815	
-0.000602142	-0.001455136	0.2292022	-0.05357323	-0.0002681214	-0.001187815	0.1681189	-0.04181079	

1.752e+10	0.1878959	0.04054215	-0.001020399	-0.0001808421	0.1454758	0.1191936	-0.00109297	-0.0009652791	
-0.001020399	-0.0001808421	0.1497932	-0.126218	-0.001084098	-0.0004554904	0.2170129	-0.08542239	
0.1454758	0.1191936	-0.001084098	-0.0004554904	0.09167504	0.07783415	-0.0006899208	-0.0009601264	
-0.00109297	-0.0009652791	0.2170129	-0.08542239	-0.0006899208	-0.0009601264	0.1632281	-0.06735779	

1.754e+10	0.2085675	0.01546374	-0.0009192645	0.0003233635	0.1752705	0.1023378	-0.001262434	-0.000476027	
-0.0009192645	0.0003233635	0.1355131	-0.1370018	-0.001144873	-2.738028e-05	0.1982787	-0.1140706	
0.1752705	0.1023378	-0.001144873	-2.738028e-05	0.1147228	0.06305636	-0.0009231284	-0.0006731568	
-0.001262434	-0.000476027	0.1982787	-0.1140706	-0.0009231284	-0.0006731568	0.1531856	-0.09277613	

1.756e+10	0.2240555	-0.01278556	-0.000675485	0.0006161543	0.2012557	0.08037025	-0.001284462	-6.079837e-05	
-0.000675485	0.0006161543	0.1190272	-0.1449009	-0.001058351	0.0003070788	0.1728332	-0.1376502	
0.2012557	0.08037025	-0.001058351	0.0003070788	0.1334393	0.04394748	-0.001058362	-0.0003858399	
-0.001284462	-6.079837e-05	0.1728332	-0.1376502	-0.001058362	-0.0003858399	0.1367387	-0.1162257	

1.758e+10	0.233547	-0.04423894	-0.0004185867	0.0007869158	0.2228697	0.05336643	-0.001216031	0.0003237881	
-0.0004185867	0.0007869158	0.1007308	-0.1488012	-0.0009118024	0.0005713075	0.1422773	-0.1535864	
0.2228697	0.05336643	-0.0009118024	0.0005713075	0.1473025	0.02161568	-0.00111853	-8.017723e-05	
-0.001216031	0.0003237881	0.1422773	-0.1535864	-0.00111853	-8.017723e-05	0.1146608	-0.1348403	

1.76e+10	0.2352785	-0.07771072	-0.000126003	0.0008945191	0.2386548	0.02170795	-0.001025826	0.0006766648	
-0.000126003	0.0008945191	0.08219762	-0.1478925	-0.0007049594	0.0007903955	0.109794	-0.1606687	
0.2386548	0.02170795	-0.0007049594	0.0007903955	0.1559011	-0.003001076	-0.001077487	0.0002292236	
-0.001025826	0.0006766648	0.109794	-0.1606687	-0.001077487	0.0002292236	0.08946169	-0.1472428	

1.762e+10	0.2285875	-0.1102133	0.0002262881	0.0008877638	0.2471496	-0.01297592	-0.0007127572	0.0009225328	
0.0002262881	0.0008877638	0.06511769	-0.1427491	-0.0004294333	0.0009327972	0.07818109	-0.159778	
0.2471496	-0.01297592	-0.0004294333	0.0009327972	0.1588012	-0.02867872	-0.0009373555	0.0004858789	
-0.0007127572	0.0009225328	0.07818109	-0.159778	-0.0009373555	0.0004858789	0.0631302	-0.1541649	

1.764e+10	0.2148449	-0.1391118	0.0005578191	0.0006995439	0.2479768	-0.04852527	-0.0003627258	0.0009998375	
0.0005578191	0.0006995439	0.05002229	-0.1345418	-0.000129384	0.000955187	0.04857495	-0.1524902	
0.2479768	-0.04852527	-0.000129384	0.000955187	0.1559959	-0.05397574	-0.0007549507	0.000652116	
-0.0003627258	0.0009998375	0.04857495	-0.1524902	-0.0007549507	0.000652116	0.03570552	-0.1564883	

1.766e+10	0.1963792	-0.1634487	0.0007355066	0.0003732406	0.2417982	-0.08328612	-8.448685e-05	0.0009453522	
0.0007355066	0.0003732406	0.03663173	-0.123627	0.0001194896	0.0008690236	0.02106663	-0.1389521	
0.2417982	-0.08328612	0.0001194896	0.0008690236	0.1479405	-0.07771332	-0.0005890884	0.0007548131	
-8.448685e-05	0.0009453522	0.02106663	-0.1389521	-0.0005890884	0.0007548131	0.006497442	-0.1529821	

1.768e+10	0.1743383	-0.1838684	0.0007174529	5.541787e-05	0.2293356	-0.116545	9.547018e-05	0.0008619992	
0.0007174529	5.541787e-05	0.02537658	-0.1093952	0.0002804411	0.0007425577	-0.002707983	-0.118419	
0.2293356	-0.116545	0.0002804411	0.0007425577	0.1354609	-0.09889568	-0.000442981	0.0008480654	
9.547018e-05	0.0008619992	-0.002707983	-0.118419	-0.000442981	0.0008480654	-0.02262963	-0.1412183	

1.77e+10	0.148325	-0.2004497	0.0006001388	-0.0001457766	0.2103653	-0.1479459	0.0002443164	0.0008080424	
0.0006001388	-0.0001457766	0.0180271	-0.09181704	0.0003890128	0.0006351347	-0.01953917	-0.09153173	
0.2103653	-0.1479459	0.0003890128	0.0006351347	0.1191401	-0.1172095	-0.0002704361	0.0009493733	
0.0002443164	0.0008080424	-0.01953917	-0.09153173	-0.0002704361	0.0009493733	-0.04755353	-0.1207217	

1.772e+10	0.1178964	-0.2115572	0.0005010037	-0.0002614064	0.1841773	-0.1761021	0.0004242353	0.000743824	
0.0005010037	-0.0002614064	0.01630006	-0.07271956	0.0005003596	0.0005388281	-0.0269336	-0.06185445	
0.1841773	-0.1761021	0.0005003596	0.0005388281	0.09926564	-0.1322383	-4.283216e-05	0.001017699	
0.0004242353	0.000743824	-0.0269336	-0.06185445	-4.283216e-05	0.001017699	-0.06473522	-0.09464967	

1.774e+10	0.08459845	-0.2148977	0.0004238802	-0.0003880202	0.1509915	-0.1984992	0.0006089994	0.0006009324	
0.0004238802	-0.0003880202	0.01996829	-0.05482372	0.0006174116	0.0004032076	-0.02551776	-0.03358189	
0.1509915	-0.1984992	0.0006174116	0.0004032076	0.07604199	-0.1431347	0.0002114254	0.001006943	
0.0006089994	0.0006009324	-0.02551776	-0.03358189	0.0002114254	0.001006943	-0.07425067	-0.06704356	

1.776e+10	0.05130505	-0.2095714	0.0002798747	-0.0005404408	0.1124544	-0.2128383	0.0007159021	0.0003852963	
0.0002798747	-0.0005404408	0.02719278	-0.03941965	0.0006882342	0.0002135707	-0.01794736	-0.008633622	
0.1124544	-0.2128383	0.0006882342	0.0002135707	0.05005829	-0.1487108	0.0004384138	0.0009206419	
0.0007159021	0.0003852963	-0.01794736	-0.008633622	0.0004384138	0.0009206419	-0.07826297	-0.03925954	

1.778e+10	0.02072199	-0.1966613	3.162564e-05	-0.0006187423	0.07118445	-0.2180339	0.000717107	0.0001854164	
3.162564e-05	-0.0006187423	0.036815	-0.02604429	0.0006752957	1.853599e-05	-0.005684584	0.0132185	
0.07118445	-0.2180339	0.0006752957	1.853599e-05	0.02277471	-0.1480384	0.0006201161	0.0008036691	
0.000717107	0.0001854164	-0.005684584	0.0132185	0.0006201161	0.0008036691	-0.07700285	-0.01045225	

1.78e+10	-0.006357092	-0.1776863	-0.0002252475	-0.0005371544	0.02917969	-0.2141007	0.0006860045	6.1211e-05	
-0.0002252475	-0.0005371544	0.04923775	-0.01449146	0.0006083259	-0.0001235221	0.01171053	0.03161696	
0.02917969	-0.2141007	0.0006083259	-0.0001235221	-0.004133563	-0.1408494	0.0007898268	0.0006790465	
0.0006860045	6.1211e-05	0.01171053	0.03161696	0.0007898268	0.0006790465	-0.06825931	0.01878893	

1.782e+10	-0.02972232	-0.1529081	-0.000359568	-0.0003507652	-0.01217334	-0.2009316	0.0007025114	-3.652076e-05	
-0.000359568	-0.0003507652	0.06475773	-0.006117074	0.0005520251	-0.0002173149	0.03398769	0.0440035	
-0.01217334	-0.2009316	0.0005520251	-0.0002173149	-0.02930789	-0.1274537	0.0009738771	0.0005120777	
0.0007025114	-3.652076e-05	0.03398769	0.0440035	0.0009738771	0.0005120777	-0.05108156	0.04457699	

1.784e+10	-0.04786793	-0.1214577	-0.0003645434	-0.0002012388	-0.05117192	-0.1775218	0.0007414109	-0.0002010617	
-0.0003645434	-0.0002012388	0.0819494	-0.002547875	0.000519955	-0.0003250554	0.05816869	0.04809397	
-0.05117192	-0.1775218	0.000519955	-0.0003250554	-0.05171662	-0.107796	0.001135847	0.0002535381	
0.0007414109	-0.0002010617	0.05816869	0.04809397	0.001135847	0.0002535381	-0.02817702	0.06331636	

1.786e+10	-0.05730354	-0.08422471	-0.000358793	-0.0001452532	-0.0841594	-0.1436759	0.0006990472	-0.0004382055	
-0.000358793	-0.0001452532	0.09827547	-0.003750284	0.0004536448	-0.0004760578	0.08001909	0.04451977	
-0.0841594	-0.1436759	0.0004536448	-0.0004760578	-0.06950403	-0.08195634	0.001198838	-8.288481e-05	
0.0006990472	-0.0004382055	0.08001909	0.04451977	0.001198838	-8.288481e-05	-0.003958138	0.07480135	

1.788e+10	-0.05532366	-0.04472033	-0.0004256139	-9.505799e-05	-0.1072446	-0.1013099	0.000524749	-0.0006486358	
-0.0004256139	-9.505799e-05	0.112417	-0.007839078	0.0002997886	-0.0006184613	0.0976116	0.0364353	
-0.1072446	-0.1013099	0.0002997886	-0.0006184613	-0.08019808	-0.05075791	0.001128236	-0.0004217854	
0.000524749	-0.0006486358	0.0976116	0.0364353	0.001128236	-0.0004217854	0.01981882	0.08179624	

1.79e+10	-0.0420973	-0.007817474	-0.0005036127	4.991216e-05	-0.1180655	-0.05455394	0.000287167	-0.0007421275	
-0.0005036127	4.991216e-05	0.1250494	-0.01335046	8.687222e-05	-0.0006776745	0.1117401	0.02610966	
-0.1180655	-0.05455394	8.687222e-05	-0.0006776745	-0.08168778	-0.01679781	0.0009638042	-0.0006969604	
0.000287167	-0.0007421275	0.1117401	0.02610966	0.0009638042	-0.0006969604	0.04447861	0.08562131	

1.792e+10	-0.02031579	0.02346146	-0.0004722375	0.0002577931	-0.1168126	-0.007451571	8.695764e-05	-0.0007419113	
-0.0004722375	0.0002577931	0.1371289	-0.02061617	-0.0001064684	-0.0006468363	0.1233805	0.01343675	
-0.1168126	-0.007451571	-0.0001064684	-0.0006468363	-0.07353159	0.01647669	0.0007615755	-0.0009104788	
8.695764e-05	-0.0007419113	0.1233805	0.01343675	0.0007615755	-0.0009104788	0.07107199	0.08449344	

1.794e+10	0.007788511	0.04850062	-0.0003199959	0.0003974261	-0.1046206	0.03735663	-6.728032e-05	-0.0007330489	
-0.0003199959	0.0003974261	0.148058	-0.03066402	-0.0002475749	-0.0005872352	0.1314105	-0.002266339	
-0.1046206	0.03735663	-0.0002475749	-0.0005872352	-0.0568457	0.04618078	0.0005246798	-0.001094209	
-6.728032e-05	-0.0007330489	0.1314105	-0.002266339	0.0005246798	-0.001094209	0.0972961	0.07617752	

1.796e+10	0.04149706	0.0665409	-0.0001665545	0.000409559	-0.08220668	0.07801122	-0.0002476265	-0.0007336887	
-0.0001665545	0.000409559	0.1561752	-0.04323784	-0.0003810898	-0.0005384317	0.13374	-0.0196095	
-0.08220668	0.07801122	-0.0003810898	-0.0005384317	-0.03315894	0.07056221	0.0002166556	-0.00123565	
-0.0002476265	-0.0007336887	0.13374	-0.0196095	0.0002166556	-0.00123565	0.1194805	0.06145739	

1.798e+10	0.07975134	0.07535384	-0.0001055037	0.0003809503	-0.05026886	0.1118533	-0.0004837764	-0.0006690481	
-0.0001055037	0.0003809503	0.1606383	-0.05657597	-0.0005499735	-0.0004601755	0.1300372	-0.03532545	
-0.05026886	0.1118533	-0.0005499735	-0.0004601755	-0.003960773	0.08807098	-0.0001578848	-0.00127083	
-0.0004837764	-0.0006690481	0.1300372	-0.03532545	-0.0001578848	-0.00127083	0.1361157	0.04363907	

1.8e+10	0.1189437	0.07286879	-8.804335e-05	0.0004225449	-0.01114124	0.1358038	-0.0007015314	-0.0004760446	
-8.804335e-05	0.0004225449	0.1624033	-0.06909338	-0.0007193892	-0.0002922599	0.122718	-0.04708247	
-0.01114124	0.1358038	-0.0007193892	-0.0002922599	0.02871373	0.09722873	-0.0005260139	-0.001160668	
-0.0007015314	-0.0004760446	0.122718	-0.04708247	-0.0005260139	-0.001160668	0.1487661	0.02522761	

1.802e+10	0.1545725	0.05980888	4.24858e-06	0.0005212427	0.03126763	0.148504	-0.0007995257	-0.0001960864	
4.24858e-06	0.0005212427	0.1629804	-0.08095738	-0.0008094143	-4.32696e-05	0.1144939	-0.05530167	
0.03126763	0.148504	-0.0008094143	-4.32696e-05	0.06202731	0.09727718	-0.0008115055	-0.0009431291	
-0.0007995257	-0.0001960864	0.1144939	-0.05530167	-0.0008115055	-0.0009431291	0.159427	0.005445295	

1.804e+10	0.1836649	0.03943134	0.000198201	0.0005592679	0.07328691	0.1507275	-0.0007632258	6.100549e-05	
0.000198201	0.0005592679	0.1623356	-0.09336597	-0.00078878	0.0002126815	0.1058533	-0.06171449	
0.07328691	0.1507275	-0.00078878	0.0002126815	0.09294406	0.08892175	-0.001004058	-0.0006887803	
-0.0007632258	6.100549e-05	0.1058533	-0.06171449	-0.001004058	-0.0006887803	0.1670104	-0.01755026	

1.806e+10	0.2062134	0.01488611	0.0003914317	0.0004653674	0.1131131	0.1443259	-0.0006718262	0.0002373784	
0.0003914317	0.0004653674	0.1590421	-0.1064694	-0.0006995056	0.000419807	0.09561354	-0.06647295	
0.1131131	0.1443259	-0.0006995056	0.000419807	0.1195084	0.07404926	-0.00114382	-0.0004249284	
-0.0006718262	0.0002373784	0.09561354	-0.06647295	-0.00114382	-0.0004249284	0.1684936	-0.04314583	

1.808e+10	0.2230678	-0.01253938	0.0004801157	0.0003057968	0.1498917	0.1304689	-0.0005929675	0.0003742793	
0.0004801157	0.0003057968	0.1522385	-0.1185785	-0.0005933031	0.0005906169	0.08365959	-0.06771477	
0.1498917	0.1304689	-0.0005933031	0.0005906169	0.1407638	0.05475984	-0.001247481	-0.0001267145	
-0.0005929675	0.0003742793	0.08365959	-0.06771477	-0.001247481	-0.0001267145	0.1626258	-0.06768794	

1.81e+10	0.2339589	-0.04284665	0.000485719	0.0001949723	0.1828775	0.1093762	-0.0005027016	0.0005351356	
0.000485719	0.0001949723	0.1429645	-0.1279508	-0.0004626235	0.0007675053	0.07231748	-0.0640554	
0.1828775	0.1093762	-0.0004626235	0.0007675053	0.1568025	0.03252362	-0.001279263	0.0002278715	
-0.0005027016	0.0005351356	0.07231748	-0.0640554	-0.001279263	0.0002278715	0.1515806	-0.08807334	

1.812e+10	0.2374075	-0.07485884	0.0005159975	0.0001475896	0.210171	0.08158328	-0.0003270839	0.0007036768	
0.0005159975	0.0001475896	0.1331503	-0.1345567	-0.0002553672	0.0009425075	0.06447751	-0.05683658	
0.210171	0.08158328	-0.0002553672	0.0009425075	0.167562	0.008350821	-0.001189917	0.0006052467	
-0.0003270839	0.0007036768	0.06447751	-0.05683658	-0.001189917	0.0006052467	0.1386389	-0.1043809	

1.814e+10	0.2328517	-0.1058223	0.0006133761	6.612384e-05	0.230022	0.0488885	-5.335411e-05	0.0007816211	
0.0006133761	6.612384e-05	0.1233807	-0.1398151	4.524624e-05	0.001045521	0.06063577	-0.04912466	
0.230022	0.0488885	4.524624e-05	0.001045521	0.1728311	-0.016741	-0.0009725181	0.0009407913	
-5.335411e-05	0.0007816211	0.06063577	-0.04912466	-0.0009725181	0.0009407913	0.124314	-0.1188843	

1.816e+10	0.2216837	-0.1331747	0.0006924879	-0.0001216968	0.2418223	0.01369864	0.0002146674	0.0006997424	
0.0006924879	-0.0001216968	0.1124227	-0.1443197	0.0003774442	0.001012644	0.05879584	-0.04250013	
0.2418223	0.01369864	0.0003774442	0.001012644	0.1725637	-0.04135561	-0.0006614401	0.001183508	
0.0002146674	0.0006997424	0.05879584	-0.04250013	-0.0006614401	0.001183508	0.1065985	-0.1317839	

1.818e+10	0.2063816	-0.155955	0.0006528899	-0.0003574172	0.2461536	-0.02205827	0.0003509549	0.000531625	
0.0006528899	-0.0003574172	0.09942734	-0.1465558	0.0006468761	0.0008627179	0.05751127	-0.03585195	
0.2461536	-0.02205827	0.0006468761	0.0008627179	0.1674761	-0.06420088	-0.0003127252	0.001314719	
0.0003509549	0.000531625	0.05751127	-0.03585195	-0.0003127252	0.001314719	0.08463237	-0.1402303	

1.82e+10	0.1883807	-0.1750542	0.0005077896	-0.0005332689	0.2437423	-0.05748799	0.0003777879	0.0004305267	
0.0005077896	-0.0005332689	0.08572434	-0.1447155	0.0008257437	0.0006820472	0.05785294	-0.02786761	
0.2437423	-0.05748799	0.0008257437	0.0006820472	0.1587231	-0.0843839	2.898342e-05	0.001367693	
0.0003777879	0.0004305267	0.05785294	-0.02786761	2.898342e-05	0.001367693	0.06118287	-0.1415208	

1.822e+10	0.1674107	-0.1909961	0.0003422981	-0.0006195606	0.2344241	-0.09216254	0.0004448408	0.0004257085	
0.0003422981	-0.0006195606	0.07377385	-0.1390176	0.0009687204	0.0005185964	0.06188151	-0.01961214	
0.2344241	-0.09216254	0.0009687204	0.0005185964	0.1473238	-0.1021793	0.0003897547	0.001373885	
0.0004448408	0.0004257085	0.06188151	-0.01961214	0.0003897547	0.001373885	0.04018838	-0.1364341	

1.824e+10	0.1427907	-0.202719	0.0002014044	-0.0006702957	0.2174922	-0.1247304	0.0006315022	0.0003853495	
0.0002014044	-0.0006702957	0.06459782	-0.1315002	0.001129173	0.0003460202	0.06942549	-0.0141008	
0.2174922	-0.1247304	0.001129173	0.0003460202	0.1334255	-0.1177297	0.0007994452	0.001294311	
0.0006315022	0.0003853495	0.06942549	-0.0141008	0.0007994452	0.001294311	0.02300787	-0.1284253	

1.826e+10	0.1155567	-0.2081441	4.253646e-05	-0.000718512	0.1929521	-0.152773	0.0008349446	0.0001837273	
4.253646e-05	-0.000718512	0.05708608	-0.123472	0.00131009	0.0001038587	0.07755929	-0.01274822	
0.1929521	-0.152773	0.00131009	0.0001038587	0.1166908	-0.1307778	0.001226161	0.001061797	
0.0008349446	0.0001837273	0.07755929	-0.01274822	0.001226161	0.001061797	0.007452262	-0.1192474	

1.828e+10	0.0881986	-0.2063295	-0.0001572493	-0.0007098923	0.1624674	-0.1739752	0.0009076078	-0.0001277902	
-0.0001572493	-0.0007098923	0.0501788	-0.1141913	0.001454251	-0.000263889	0.08395859	-0.01393403	
0.1624674	-0.1739752	0.001454251	-0.000263889	0.09726102	-0.1401594	0.001575691	0.0006492276	
0.0009076078	-0.0001277902	0.08395859	-0.01393403	0.001575691	0.0006492276	-0.008011969	-0.1070807	

1.83e+10	0.06319193	-0.198389	-0.0003362035	-0.0006075271	0.1285555	-0.1872594	0.0008357605	-0.0004243724	
-0.0003362035	-0.0006075271	0.04476813	-0.1023144	0.001450314	-0.0007367097	0.0891318	-0.01535056	
0.1285555	-0.1872594	0.001450314	-0.0007367097	0.0763132	-0.144937	0.001749679	0.000114174	
0.0008357605	-0.0004243724	0.0891318	-0.01535056	0.001749679	0.000114174	-0.02126579	-0.08961125	

1.832e+10	0.04114289	-0.1861987	-0.0004276088	-0.0004504481	0.09311107	-0.1928929	0.0006918725	-0.0006506439	
-0.0004276088	-0.0004504481	0.04298453	-0.08841708	0.001254769	-0.001205468	0.0949506	-0.01716131	
0.09311107	-0.1928929	0.001254769	-0.001205468	0.05523179	-0.1452536	0.001726177	-0.0004397082	
0.0006918725	-0.0006506439	0.0949506	-0.01716131	0.001726177	-0.0004397082	-0.02848006	-0.06818403	

1.834e+10	0.02130078	-0.1700209	-0.0004150152	-0.0003241287	0.05684773	-0.1908744	0.0005338367	-0.0008401544	
-0.0004150152	-0.0003241287	0.04555723	-0.07477846	0.0009107428	-0.001590504	0.1013458	-0.0214456	
0.05684773	-0.1908744	0.0009107428	-0.001590504	0.03449897	-0.1416494	0.00154425	-0.0009500658	
0.0005338367	-0.0008401544	0.1013458	-0.0214456	0.00154425	-0.0009500658	-0.02869419	-0.04695332	

1.836e+10	0.004473515	-0.1485427	-0.0003754159	-0.0003110127	0.02101842	-0.1800876	0.0003275543	-0.001048947	
-0.0003754159	-0.0003110127	0.05103396	-0.06305544	0.0004638123	-0.001873337	0.1057743	-0.02889491	
0.02101842	-0.1800876	0.0004638123	-0.001873337	0.0141742	-0.1338918	0.001226467	-0.001403797	
0.0003275543	-0.001048947	0.1057743	-0.02889491	0.001226467	-0.001403797	-0.0247133	-0.02856002	

1.838e+10	-0.006333746	-0.1215451	-0.0004451586	-0.0003744601	-0.0114715	-0.1595281	-1.710982e-05	-0.001234581	
-0.0004451586	-0.0003744601	0.05786031	-0.05276524	-8.227632e-05	-0.00203874	0.1061812	-0.03720285	
-0.0114715	-0.1595281	-8.227632e-05	-0.00203874	-0.004982553	-0.1208974	0.0007575708	-0.001766183	
-1.710982e-05	-0.001234581	0.1061812	-0.03720285	0.0007575708	-0.001766183	-0.01923647	-0.01171896	

1.84e+10	-0.008109532	-0.09202638	-0.0006543526	-0.0003518907	-0.03654738	-0.1306339	-0.000496156	-0.001252508	
-0.0006543526	-0.0003518907	0.06642782	-0.04277208	-0.0007104725	-0.002018621	0.1036875	-0.04344147	
-0.03654738	-0.1306339	-0.0007104725	-0.002018621	-0.02052038	-0.1023226	0.000159399	-0.001950899	
-0.000496156	-0.001252508	0.1036875	-0.04344147	0.000159399	-0.001950899	-0.01124721	0.005839965	

1.842e+10	-0.0009439142	-0.06437908	-0.0008526592	-0.0001347429	-0.05188568	-0.09705091	-0.0009538633	-0.001016828	
-0.0008526592	-0.0001347429	0.07832262	-0.0336873	-0.001317771	-0.001751919	0.1011017	-0.04741976	
-0.05188568	-0.09705091	-0.001317771	-0.001751919	-0.02998457	-0.07985729	-0.0004636333	-0.001897582	
-0.0009538633	-0.001016828	0.1011017	-0.04741976	-0.0004636333	-0.001897582	0.002250027	0.02308862	

1.844e+10	0.01231399	-0.0411229	-0.0008707858	0.0001822339	-0.05781024	-0.06245124	-0.001227733	-0.0006204414	
-0.0008707858	0.0001822339	0.09358113	-0.02790486	-0.001765422	-0.001286424	0.09923701	-0.05129464	
-0.05781024	-0.06245124	-0.001765422	-0.001286424	-0.03275173	-0.05638623	-0.0009924829	-0.001647207	
-0.001227733	-0.0006204414	0.09923701	-0.05129464	-0.0009924829	-0.001647207	0.0215293	0.03594578	

1.846e+10	0.02951771	-0.02187706	-0.000726218	0.0004120464	-0.0556518	-0.02863799	-0.001320287	-0.0002290025	
-0.000726218	0.0004120464	0.1100498	-0.02694326	-0.002009605	-0.0007565619	0.09628542	-0.05610697	
-0.0556518	-0.02863799	-0.002009605	-0.0007565619	-0.02984394	-0.03395869	-0.00139522	-0.001295158	
-0.001320287	-0.0002290025	0.09628542	-0.05610697	-0.00139522	-0.001295158	0.04296305	0.04185567	

1.848e+10	0.05112756	-0.00628166	-0.0005782161	0.0005086909	-0.04542753	0.003575224	-0.001346242	0.000114467	
-0.0005782161	0.0005086909	0.1254325	-0.03004192	-0.00211709	-0.0002430837	0.09074645	-0.06011161	
-0.04542753	0.003575224	-0.00211709	-0.0002430837	-0.02219066	-0.01300357	-0.001710135	-0.0008770045	
-0.001346242	0.000114467	0.09074645	-0.06011161	-0.001710135	-0.0008770045	0.0628409	0.04241386	

1.85e+10	0.07743525	0.003215849	-0.0005034352	0.0005925813	-0.02677881	0.03174459	-0.001341466	0.000493032	
-0.0005034352	0.0005925813	0.13933	-0.03549406	-0.002139431	0.0002778636	0.08385526	-0.06094006	
-0.02677881	0.03174459	-0.002139431	0.0002778636	-0.009632962	0.005690112	-0.001930555	-0.0003619912	
-0.001341466	0.000493032	0.08385526	-0.06094006	-0.001930555	-0.0003619912	0.0810484	0.04074538	

1.852e+10	0.1057427	0.003774106	-0.0004031703	0.0007534876	-0.001245407	0.05245822	-0.001202666	0.0009433493	
-0.0004031703	0.0007534876	0.1527177	-0.04294138	-0.002032117	0.0008342607	0.07855059	-0.05870564	
-0.001245407	0.05245822	-0.002032117	0.0008342607	0.007570244	0.02029828	-0.001974557	0.0002417454	
-0.001202666	0.0009433493	0.07855059	-0.05870564	-0.001974557	0.0002417454	0.09999897	0.03715949	

1.854e+10	0.1311838	-0.004472383	-0.0001624421	0.0009055353	0.02722428	0.06388512	-0.0008403912	0.001343863	
-0.0001624421	0.0009055353	0.1655954	-0.05365188	-0.001732517	0.001357979	0.07595414	-0.05602278	
0.02722428	0.06388512	-0.001732517	0.001357979	0.02747504	0.02904896	-0.001785657	0.0008266027	
-0.0008403912	0.001343863	0.07595414	-0.05602278	-0.001785657	0.0008266027	0.1200324	0.02880393	

1.856e+10	0.1509518	-0.01790533	0.000167688	0.0008935313	0.05485037	0.06719572	-0.0003300197	0.001532877	
0.000167688	0.0008935313	0.1760515	-0.06833889	-0.001275015	0.00173002	0.07430427	-0.05466781	
0.05485037	0.06719572	-0.001275015	0.00173002	0.04716539	0.03188897	-0.001420649	0.001269315	
-0.0003300197	0.001532877	0.07430427	-0.05466781	-0.001420649	0.001269315	0.1377671	0.01393484	

1.858e+10	0.1658583	-0.0331568	0.0004129388	0.0007007512	0.08035903	0.06471892	0.0001506842	0.001490704	
0.0004129388	0.0007007512	0.1820315	-0.08561482	-0.0007783344	0.001910108	0.07174543	-0.05363925	
0.08035903	0.06471892	-0.0007783344	0.001910108	0.0649311	0.030672	-0.0009958751	0.001544704	
0.0001506842	0.001490704	0.07174543	-0.05363925	-0.0009958751	0.001544704	0.1495232	-0.005094746	

1.86e+10	0.1777985	-0.04983295	0.0004809892	0.0004744025	0.1039321	0.05746356	0.0005082987	0.001340784	
0.0004809892	0.0004744025	0.1833038	-0.1029999	-0.0003310222	0.00196045	0.0688128	-0.05100062	
0.1039321	0.05746356	-0.0003310222	0.00196045	0.08087678	0.02702019	-0.0005711416	0.001709937	
0.0005082987	0.001340784	0.0688128	-0.05100062	-0.0005711416	0.001709937	0.1552709	-0.02416459	

1.862e+10	0.1864393	-0.06923616	0.0004588459	0.0003484218	0.1251301	0.04489426	0.0008034025	0.00118564	
0.0004588459	0.0003484218	0.1813015	-0.1192424	7.924301e-05	0.001956796	0.06772776	-0.04674668	
0.1251301	0.04489426	7.924301e-05	0.001956796	0.0957114	0.02117139	-0.0001233771	0.001801881	
0.0008034025	0.00118564	0.06772776	-0.04674668	-0.0001233771	0.001801881	0.1579594	-0.04169633	

1.864e+10	0.189398	-0.09068741	0.0004825916	0.0002937434	0.1417393	0.02727672	0.001122938	0.0009866293	
0.0004825916	0.0002937434	0.1770117	-0.1348077	0.0005014449	0.00189508	0.06942221	-0.04324347	
0.1417393	0.02727672	0.0005014449	0.00189508	0.1089954	0.0126754	0.0003677026	0.001780733	
0.001122938	0.0009866293	0.06942221	-0.04324347	0.0003677026	0.001780733	0.1591593	-0.05950724	

1.866e+10	0.1856465	-0.1110587	0.0005601113	0.0001850873	0.1518691	0.006771505	0.00143065	0.0006398107	
0.0005601113	0.0001850873	0.1697317	-0.1502346	0.0009259069	0.001719452	0.07200884	-0.04237921	
0.1518691	0.006771505	0.0009259069	0.001719452	0.1195851	0.001890805	0.0008484636	0.001593379	
0.00143065	0.0006398107	0.07200884	-0.04237921	0.0008484636	0.001593379	0.1569628	-0.07919482	

1.868e+10	0.1771968	-0.1272257	0.0005684232	-1.533541e-05	0.1556801	-0.01356521	0.0015837	0.0001436347	
0.0005684232	-1.533541e-05	0.1582721	-0.1643656	0.001275872	0.001415707	0.07305782	-0.04331477	
0.1556801	-0.01356521	0.001275872	0.001415707	0.1269221	-0.0096712	0.001224116	0.001256766	
0.0015837	0.0001436347	0.07305782	-0.04331477	0.001224116	0.001256766	0.148625	-0.09873128	

1.87e+10	0.167444	-0.1389999	0.0004253888	-0.0001897245	0.1550795	-0.03201664	0.001501173	-0.0003598456	
0.0004253888	-0.0001897245	0.1429707	-0.1748876	0.001488486	0.001051452	0.07241429	-0.04371068	
0.1550795	-0.03201664	0.001488486	0.001051452	0.1318783	-0.02055138	0.001446953	0.000857192	
0.001501173	-0.0003598456	0.07241429	-0.04371068	0.001446953	0.000857192	0.1346621	-0.114129	

1.872e+10	0.1576861	-0.1486842	0.0002162817	-0.0002036925	0.1514872	-0.04901665	0.00126271	-0.0007283211	
0.0002162817	-0.0002036925	0.1260083	-0.1805213	0.001587424	0.0007147157	0.07197826	-0.04277666	
0.1514872	-0.04901665	0.001587424	0.0007147157	0.1359455	-0.03084115	0.001551591	0.0004706405	
0.00126271	-0.0007283211	0.07197826	-0.04277666	0.001551591	0.0004706405	0.1188052	-0.1235863	

1.874e+10	0.1463884	-0.1573564	0.0001064008	-7.779946e-05	0.1445824	-0.06497185	0.001011301	-0.0009658123	
0.0001064008	-7.779946e-05	0.109472	-0.1819688	0.001648912	0.0004257928	0.07294309	-0.04208486	
0.1445824	-0.06497185	0.001648912	0.0004257928	0.1394224	-0.04168289	0.001595442	0.0001004382	
0.001011301	-0.0009658123	0.07294309	-0.04208486	0.001595442	0.0001004382	0.1040001	-0.1291007	

1.876e+10	0.1322372	-0.1632003	0.0001453273	3.323901e-05	0.1334235	-0.07874938	0.0007761217	-0.001184233	
0.0001453273	3.323901e-05	0.09362449	-0.1806277	0.001708284	0.0001283656	0.07393222	-0.04334976	
0.1334235	-0.07874938	0.001708284	0.0001283656	0.1412494	-0.05360765	0.001578154	-0.0002945168	
0.0007761217	-0.001184233	0.07393222	-0.04334976	0.001578154	-0.0002945168	0.08950968	-0.1332949	

1.878e+10	0.1170058	-0.1636552	0.000218531	3.34091e-05	0.1188706	-0.0879339	0.0004534784	-0.001418371	
0.000218531	3.34091e-05	0.07771922	-0.1764632	0.00171861	-0.0002181532	0.07264613	-0.04567161	
0.1188706	-0.0879339	0.00171861	-0.0002181532	0.1404808	-0.06559385	0.0014416	-0.0007085116	
0.0004534784	-0.001418371	0.07264613	-0.04567161	0.0014416	-0.0007085116	0.0730072	-0.1355721	

1.88e+10	0.1043749	-0.1588593	0.0002088859	-3.174268e-06	0.1037179	-0.09143959	-2.617044e-05	-0.001547279	
0.0002088859	-3.174268e-06	0.06214554	-0.1681004	0.001618883	-0.0005748032	0.06888604	-0.04635759	
0.1037179	-0.09143959	0.001618883	-0.0005748032	0.13764	-0.07625116	0.001153826	-0.001062782	
-2.617044e-05	-0.001547279	0.06888604	-0.04635759	0.001153826	-0.001062782	0.05473447	-0.1328353	

1.882e+10	0.09620201	-0.1521354	0.0001644134	5.668269e-05	0.09047281	-0.09068782	-0.0005560437	-0.001428388	
0.0001644134	5.668269e-05	0.04917901	-0.1549005	0.001423458	-0.0008573299	0.06508097	-0.04400517	
0.09047281	-0.09068782	0.001423458	-0.0008573299	0.1342128	-0.08551289	0.0007726412	-0.001269573	
-0.0005560437	-0.001428388	0.06508097	-0.04400517	0.0007726412	-0.001269573	0.03840726	-0.123684	

1.884e+10	0.09073587	-0.1462964	0.0002418708	0.0001967524	0.07944709	-0.08792275	-0.000940937	-0.001090856	
0.0002418708	0.0001967524	0.0410991	-0.1385529	0.001218839	-0.001042865	0.06336988	-0.04012117	
0.07944709	-0.08792275	0.001218839	-0.001042865	0.1307273	-0.09467603	0.0004040205	-0.001326957	
-0.000940937	-0.001090856	0.06336988	-0.04012117	0.0004040205	-0.001326957	0.02737468	-0.1107984	

1.886e+10	0.08540115	-0.1405597	0.0004837115	0.00024307	0.06931092	-0.08361895	-0.001115182	-0.0007112702	
0.0004837115	0.00024307	0.03805726	-0.121761	0.001056104	-0.001200869	0.063166	-0.03690532	
0.06931092	-0.08361895	0.001056104	-0.001200869	0.1258834	-0.1045847	9.303098e-05	-0.001311003	
-0.001115182	-0.0007112702	0.063166	-0.03690532	9.303098e-05	-0.001311003	0.02104854	-0.09810746	

1.888e+10	0.08085147	-0.1325236	0.0007366456	7.758446e-05	0.06021952	-0.0765556	-0.001189873	-0.0003999743	
0.0007366456	7.758446e-05	0.03851048	-0.1057033	0.0008844972	-0.001397516	0.06243533	-0.03420926	
0.06021952	-0.0765556	0.0008844972	-0.001397516	0.1184366	-0.1141334	-0.0002031349	-0.001267222	
-0.001189873	-0.0003999743	0.06243533	-0.03420926	-0.0002031349	-0.001267222	0.01633996	-0.08633636	

1.89e+10	0.0801825	-0.1224897	0.0008294737	-0.0002111219	0.05426942	-0.0665314	-0.001267658	-8.931028e-05	
0.0008294737	-0.0002111219	0.04178994	-0.08977831	0.0006235123	-0.001599144	0.06101917	-0.02985206	
0.05426942	-0.0665314	0.0006235123	-0.001599144	0.1087648	-0.1216468	-0.0005211898	-0.001150558	
-0.001267658	-8.931028e-05	0.06101917	-0.02985206	-0.0005211898	-0.001150558	0.01236489	-0.07299717	

1.892e+10	0.08451857	-0.1141328	0.0007747684	-0.0004447562	0.05325024	-0.05585771	-0.001280251	0.0003279983	
0.0007747684	-0.0004447562	0.04902573	-0.0738204	0.0002787547	-0.00170861	0.06144186	-0.02288665	
0.05325024	-0.05585771	0.0002787547	-0.00170861	0.09855172	-0.1267686	-0.0008028816	-0.0008982896	
-0.001280251	0.0003279983	0.06144186	-0.02288665	-0.0008028816	-0.0008982896	0.01194579	-0.05683925	

1.894e+10	0.09087206	-0.1104918	0.0007285313	-0.0005882917	0.05609518	-0.04760585	-0.001071946	0.0007911734	
0.0007285313	-0.0005882917	0.0612902	-0.05978972	-5.113752e-05	-0.001692127	0.06585624	-0.01551437	
0.05609518	-0.04760585	-5.113752e-05	-0.001692127	0.08839564	-0.1307416	-0.0009369603	-0.0005453239	
-0.001071946	0.0007911734	0.06585624	-0.01551437	-0.0009369603	-0.0005453239	0.01777387	-0.04070795	

1.896e+10	0.09523995	-0.1102626	0.0007491242	-0.0007816983	0.05995235	-0.04244235	-0.0006331669	0.001097562	
0.0007491242	-0.0007816983	0.07738839	-0.05029502	-0.0002985065	-0.001626434	0.07329547	-0.01073891	
0.05995235	-0.04244235	-0.0002985065	-0.001626434	0.07722572	-0.1342996	-0.0008929652	-0.0002186724	
-0.0006331669	0.001097562	0.07329547	-0.01073891	-0.0008929652	-0.0002186724	0.02847882	-0.02882688	

1.898e+10	0.09730014	-0.1098155	0.0007025033	-0.001117891	0.063411	-0.03861819	-0.0001431278	0.001134406	
0.0007025033	-0.001117891	0.09450805	-0.0460722	-0.0005078783	-0.001593313	0.08100825	-0.008939388	
0.063411	-0.03861819	-0.0005078783	-0.001593313	0.06377447	-0.1361872	-0.0007562289	-4.091632e-06	
-0.0001431278	0.001134406	0.08100825	-0.008939388	-0.0007562289	-4.091632e-06	0.03985697	-0.02196775	

1.9e+10	0.09995983	-0.1081094	0.0004417976	-0.001490815	0.06758313	-0.03496445	0.0002284241	0.0009909127	
0.0004417976	-0.001490815	0.1107801	-0.04571001	-0.0007600171	-0.001573572	0.0879318	-0.008207342	
0.06758313	-0.03496445	-0.0007600171	-0.001573572	0.0487513	-0.1343588	-0.0006143062	0.0001258755	
0.0002284241	0.0009909127	0.0879318	-0.008207342	-0.0006143062	0.0001258755	0.04978807	-0.01721731	

1.902e+10	0.1046112	-0.1076267	2.486706e-06	-0.001716598	0.07363121	-0.03275963	0.0004922857	0.0008162967	
2.486706e-06	-0.001716598	0.1264617	-0.04790195	-0.001052972	-0.001490473	0.09565117	-0.007477519	
0.07363121	-0.03275963	-0.001052972	-0.001490473	0.03441582	-0.1283251	-0.0004579798	0.0002277418	
0.0004922857	0.0008162967	0.09565117	-0.007477519	-0.0004579798	0.0002277418	0.0601803	-0.01242222	

1.904e+10	0.1088503	-0.1105583	-0.000442915	-0.001756828	0.08030249	-0.03394423	0.0007637179	0.0006125321	
-0.000442915	-0.001756828	0.1420892	-0.05305148	-0.001308015	-0.00133151	0.1054942	-0.008423747	
0.08030249	-0.03394423	-0.001308015	-0.00133151	0.02206456	-0.119317	-0.0002294102	0.0002694608	
0.0007637179	0.0006125321	0.1054942	-0.008423747	-0.0002294102	0.0002694608	0.07325386	-0.009237489	

1.906e+10	0.1093997	-0.1151463	-0.0008197819	-0.001748458	0.08477885	-0.03826665	0.001034896	0.0002406183	
-0.0008197819	-0.001748458	0.1566876	-0.06224907	-0.001494453	-0.001184914	0.1161001	-0.01330512	
0.08477885	-0.03826665	-0.001494453	-0.001184914	0.01140555	-0.108462	3.930409e-05	0.0001377317	
0.001034896	0.0002406183	0.1161001	-0.01330512	3.930409e-05	0.0001377317	0.08769725	-0.01071986	

1.908e+10	0.1065309	-0.1174007	-0.001252299	-0.001785151	0.08590143	-0.04305187	0.0011108	-0.0003502127	
-0.001252299	-0.001785151	0.1681548	-0.07506788	-0.001707026	-0.001120454	0.124566	-0.0219778	
0.08590143	-0.04305187	-0.001707026	-0.001120454	0.001783192	-0.0952073	0.0001866629	-0.0002133359	
0.0011108	-0.0003502127	0.124566	-0.0219778	0.0001866629	-0.0002133359	0.09971325	-0.01686846	

1.91e+10	0.1039293	-0.1158555	-0.001894993	-0.001751713	0.08526295	-0.0462497	0.000804227	-0.0009848508	
-0.001894993	-0.001751713	0.1753801	-0.08941849	-0.002080865	-0.001074475	0.129641	-0.03199168	
0.08526295	-0.0462497	-0.002080865	-0.001074475	-0.005675225	-0.07840587	4.735973e-05	-0.0006718829	
0.000804227	-0.0009848508	0.129641	-0.03199168	4.735973e-05	-0.0006718829	0.107481	-0.02428301	

1.912e+10	0.104156	-0.1131499	-0.002717999	-0.001410081	0.08492233	-0.04856858	0.0001337423	-0.001383651	
-0.002717999	-0.001410081	0.1792048	-0.1033681	-0.002655396	-0.0008761321	0.1326907	-0.04157004	
0.08492233	-0.04856858	-0.002655396	-0.0008761321	-0.008614264	-0.05847692	-0.0004231366	-0.001038937	
0.0001337423	-0.001383651	0.1326907	-0.04157004	-0.0004231366	-0.001038937	0.113111	-0.03007113	

1.914e+10	0.105617	-0.1121447	-0.003496954	-0.0006166073	0.08437883	-0.05181484	-0.0007019702	-0.001368235	
-0.003496954	-0.0006166073	0.181166	-0.1166641	-0.003341646	-0.0003582988	0.1352849	-0.051371	
0.08437883	-0.05181484	-0.003341646	-0.0003582988	-0.005804065	-0.03799626	-0.001165187	-0.001136264	
-0.0007019702	-0.001368235	0.1352849	-0.051371	-0.001165187	-0.001136264	0.119633	-0.03500807	

1.916e+10	0.1052715	-0.1119343	-0.003976536	0.0005942973	0.08142709	-0.05570838	-0.001485738	-0.000901213	
-0.003976536	0.0005942973	0.1816281	-0.130244	-0.003974114	0.0006003188	0.1369097	-0.06304963	
0.08142709	-0.05570838	-0.003974114	0.0006003188	0.001608538	-0.01914755	-0.002077419	-0.0007895523	
-0.001485738	-0.000901213	0.1369097	-0.06304963	-0.002077419	-0.0007895523	0.1271011	-0.04196578	

1.918e+10	0.1033417	-0.1088462	-0.003940354	0.002099536	0.07537914	-0.05734247	-0.001985316	2.70289e-05	
-0.003940354	0.002099536	0.1796413	-0.1443476	-0.004269627	0.002083359	0.1354835	-0.07656239	
0.07537914	-0.05734247	-0.004269627	0.002083359	0.01174014	-0.002016123	-0.002893454	0.0002389021	
-0.001985316	2.70289e-05	0.1354835	-0.07656239	-0.002893454	0.0002389021	0.1328859	-0.05178602	

1.92e+10	0.1039762	-0.101537	-0.003162567	0.003625318	0.06896875	-0.05423993	-0.001821855	0.001239992	
-0.003162567	0.003625318	0.1744409	-0.1579128	-0.00374235	0.003927109	0.1299085	-0.08994959	
0.06896875	-0.05423993	-0.00374235	0.003927109	0.0247174	0.01499653	-0.002966273	0.001935165	
-0.001821855	0.001239992	0.1299085	-0.08994959	-0.002966273	0.001935165	0.1352814	-0.06235411	

1.922e+10	0.110734	-0.09356427	-0.001670355	0.004644677	0.06611713	-0.04753798	-0.0008455248	0.002111825	
-0.001670355	0.004644677	0.1664777	-0.1694976	-0.002133377	0.005407587	0.1210687	-0.1012866	
0.06611713	-0.04753798	-0.002133377	0.005407587	0.0430185	0.03168701	-0.001782372	0.003490568	
-0.0008455248	0.002111825	0.1210687	-0.1012866	-0.001782372	0.003490568	0.1354459	-0.0714367	

1.924e+10	0.1222265	-0.08998807	2.87956e-05	0.004824114	0.06780882	-0.04120572	0.0003919833	0.002123016	
2.87956e-05	0.004824114	0.1572061	-0.1786104	4.166923e-06	0.005823099	0.1106254	-0.1103169	
0.06780882	-0.04120572	4.166923e-06	0.005823099	0.06826972	0.04457072	0.0001185396	0.003933814	
0.0003919833	0.002123016	0.1106254	-0.1103169	0.0001185396	0.003933814	0.1357462	-0.07925695	

1.926e+10	0.1337491	-0.09179607	0.001436236	0.004356035	0.07147298	-0.03742396	0.001221121	0.00146996	
0.001436236	0.004356035	0.1474499	-0.1860955	0.001867118	0.005248695	0.09895187	-0.1180936	
0.07147298	-0.03742396	0.001867118	0.005248695	0.09816774	0.04976241	0.001714995	0.003254704	
0.001221121	0.00146996	0.09895187	-0.1180936	0.001714995	0.003254704	0.1365669	-0.08825105	

1.928e+10	0.1431729	-0.09605591	0.002416401	0.003586647	0.07503794	-0.03513437	0.001450918	0.0006559381	
0.002416401	0.003586647	0.1365726	-0.1926887	0.003121643	0.004174761	0.08479392	-0.1247143	
0.07503794	-0.03513437	0.003121643	0.004174761	0.1288859	0.04638907	0.002542128	0.002080263	
0.001450918	0.0006559381	0.08479392	-0.1247143	0.002542128	0.002080263	0.1353552	-0.09958114	

1.93e+10	0.1522139	-0.1008285	0.003021188	0.002754086	0.07907161	-0.03287386	0.001234215	5.41028e-05	
0.003021188	0.002754086	0.1236248	-0.197511	0.003805435	0.002995873	0.06736181	-0.1282564	
0.07907161	-0.03287386	0.003805435	0.002995873	0.1578064	0.03577165	0.002679636	0.0009567056	
0.001234215	5.41028e-05	0.06736181	-0.1282564	0.002679636	0.0009567056	0.1297902	-0.1110277	

1.932e+10	0.1625831	-0.1079545	0.003379942	0.002004629	0.08499275	-0.03143303	0.0008659646	-0.0001736813	
0.003379942	0.002004629	0.1091302	-0.1989099	0.004089939	0.001930599	0.04821319	-0.1263969	
0.08499275	-0.03143303	0.004089939	0.001930599	0.184206	0.01896761	0.002421209	0.000158635	
0.0008659646	-0.0001736813	0.04821319	-0.1263969	0.002421209	0.000158635	0.1208309	-0.1193261	

1.934e+10	0.1723129	-0.1201044	0.003674851	0.001354995	0.09222329	-0.03283742	0.0006430716	-0.0001082561	
0.003674851	0.001354995	0.09503979	-0.1962146	0.004178928	0.001047038	0.03034708	-0.118857	
0.09222329	-0.03283742	0.004178928	0.001047038	0.2071029	-0.003919447	0.002078828	-0.0002931778	
0.0006430716	-0.0001082561	0.03034708	-0.118857	0.002078828	-0.0002931778	0.1116638	-0.1238282	

1.936e+10	0.1774366	-0.1365558	0.004010397	0.00066158	0.09839976	-0.03757521	0.0006816319	-3.322305e-06	
0.004010397	0.00066158	0.08293056	-0.1905998	0.00422064	0.0002641868	0.01555777	-0.107591	
0.09839976	-0.03757521	0.00422064	0.0002641868	0.2246139	-0.03268835	0.00183121	-0.0005595777	
0.0006816319	-3.322305e-06	0.01555777	-0.107591	0.00183121	-0.0005595777	0.1039739	-0.1269318	

1.938e+10	0.1764621	-0.1534502	0.004294237	-0.0002393032	0.1019843	-0.04387075	0.0008593488	-7.128103e-05	
0.004294237	-0.0002393032	0.07259825	-0.1835869	0.004219632	-0.0005388631	0.003286959	-0.09426771	
0.1019843	-0.04387075	0.004219632	-0.0005388631	0.2345475	-0.06553098	0.0016648	-0.0008097845	
0.0008593488	-7.128103e-05	0.003286959	-0.09426771	0.0016648	-0.0008097845	0.0959307	-0.1306416	

1.94e+10	0.1715088	-0.1679831	0.00431473	-0.001343641	0.1036337	-0.05001151	0.0009689435	-0.0003215359	
0.00431473	-0.001343641	0.06299576	-0.1749966	0.004082919	-0.001401001	-0.007327879	-0.07833801	
0.1036337	-0.05001151	0.004082919	-0.001401001	0.2360941	-0.09972034	0.001475105	-0.001090285	
0.0009689435	-0.0003215359	-0.007327879	-0.07833801	0.001475105	-0.001090285	0.08511037	-0.1333191	

1.942e+10	0.1651696	-0.1807634	0.003952599	-0.002460372	0.104734	-0.05598856	0.000920807	-0.0006124779	
0.003952599	-0.002460372	0.05460375	-0.1635348	0.003739325	-0.002248324	-0.01495221	-0.05844672	
0.104734	-0.05598856	0.003739325	-0.002248324	0.2299904	-0.132785	0.00120769	-0.001340381	
0.000920807	-0.0006124779	-0.01495221	-0.05844672	0.00120769	-0.001340381	0.07249009	-0.1316521	

1.944e+10	0.157026	-0.1937864	0.003285815	-0.00339781	0.1053109	-0.06316215	0.0007788473	-0.0008413436	
0.003285815	-0.00339781	0.04951506	-0.1490823	0.003215835	-0.002984575	-0.01667309	-0.03543212	
0.1053109	-0.06316215	0.003215835	-0.002984575	0.2173493	-0.1636834	0.0008976142	-0.001503077	
0.0007788473	-0.0008413436	-0.01667309	-0.03543212	0.0008976142	-0.001503077	0.06191354	-0.1250636	

1.946e+10	0.1444629	-0.206652	0.002465183	-0.004119999	0.1036641	-0.07193848	0.0006123262	-0.001024218	
0.002465183	-0.004119999	0.04925607	-0.1337804	0.002600567	-0.003580425	-0.01110354	-0.01277766	
0.1036641	-0.07193848	0.002600567	-0.003580425	0.1985552	-0.1918229	0.0006025146	-0.001583549	
0.0006123262	-0.001024218	-0.01110354	-0.01277766	0.0006025146	-0.001583549	0.05568843	-0.1168372	

1.948e+10	0.1266138	-0.2159376	0.001549985	-0.004688642	0.09830796	-0.08067065	0.0004110019	-0.001187908	
0.001549985	-0.004688642	0.0529172	-0.1199567	0.001945132	-0.004090357	-0.0002019903	0.006477852	
0.09830796	-0.08067065	0.001945132	-0.004090357	0.1733117	-0.2160578	0.0003461561	-0.001615224	
0.0004110019	-0.001187908	-0.0002019903	0.006477852	0.0003461561	-0.001615224	0.05182829	-0.110046	

1.95e+10	0.106163	-0.218605	0.0005061844	-0.005136619	0.08983524	-0.08708986	0.000171574	-0.001307289	
0.0005061844	-0.005136619	0.05860976	-0.1078425	0.001220066	-0.004585669	0.01334943	0.02238233	
0.08983524	-0.08708986	0.001220066	-0.004585669	0.1421533	-0.2341232	0.0001444646	-0.001635131	
0.000171574	-0.001307289	0.01334943	0.02238233	0.0001444646	-0.001635131	0.04714258	-0.1037519	

1.952e+10	0.08684879	-0.2149583	-0.0007293031	-0.005416825	0.08007133	-0.09038332	-6.677538e-05	-0.001391198	
-0.0007293031	-0.005416825	0.06609772	-0.09614042	0.0003066226	-0.005075747	0.02934139	0.03656123	
0.08007133	-0.09038332	0.0003066226	-0.005075747	0.1069459	-0.2440345	-1.873075e-05	-0.001714298	
-6.677538e-05	-0.001391198	0.02934139	0.03656123	-1.873075e-05	-0.001714298	0.04193425	-0.09455872	

1.954e+10	0.07018861	-0.2076377	-0.002166901	-0.005393055	0.07029073	-0.09139641	-0.0003216069	-0.001498886	
-0.002166901	-0.005393055	0.07705909	-0.08499924	-0.0009058473	-0.005421849	0.04970402	0.04848719	
0.07029073	-0.09139641	-0.0009058473	-0.005421849	0.07057612	-0.2451429	-0.0002443685	-0.001896824	
-0.0003216069	-0.001498886	0.04970402	0.04848719	-0.0002443685	-0.001896824	0.03999967	-0.0817253	

1.956e+10	0.05469483	-0.1978802	-0.003694029	-0.004925353	0.05989846	-0.0908753	-0.0006912127	-0.001633148	
-0.003694029	-0.004925353	0.09206591	-0.07682628	-0.002378787	-0.005411328	0.07458074	0.05496357	
0.05989846	-0.0908753	-0.002378787	-0.005411328	0.03492383	-0.2381428	-0.0006554362	-0.002119992	
-0.0006912127	-0.001633148	0.07458074	0.05496357	-0.0006554362	-0.002119992	0.0436467	-0.06866753	

1.958e+10	0.0396937	-0.1837925	-0.00513411	-0.003963799	0.04814216	-0.08767173	-0.001259754	-0.001674181	
-0.00513411	-0.003963799	0.1091634	-0.07374811	-0.003943864	-0.004901673	0.1008606	0.05360368	
0.04814216	-0.08767173	-0.003943864	-0.004901673	0.001010307	-0.2234977	-0.001308486	-0.002229369	
-0.001259754	-0.001674181	0.1008606	0.05360368	-0.001308486	-0.002229369	0.05091756	-0.05882647	

1.96e+10	0.0279948	-0.1634499	-0.006313006	-0.002522466	0.03621178	-0.07972114	-0.001972925	-0.001429209	
-0.006313006	-0.002522466	0.1255434	-0.07558327	-0.005391011	-0.003843951	0.1248269	0.04529269	
0.03621178	-0.07972114	-0.005391011	-0.003843951	-0.03008776	-0.2005556	-0.002133859	-0.002033468	
-0.001972925	-0.001429209	0.1248269	0.04529269	-0.002133859	-0.002033468	0.05850577	-0.05187998	

1.962e+10	0.02384364	-0.1384722	-0.007044528	-0.0006708662	0.02725774	-0.06671981	-0.002609666	-0.0007933748	
-0.007044528	-0.0006708662	0.1399569	-0.08042681	-0.006490692	-0.002285734	0.1452404	0.03267274	
0.02725774	-0.06671981	-0.006490692	-0.002285734	-0.05551475	-0.1690479	-0.002913257	-0.001423409	
-0.002609666	-0.0007933748	0.1452404	0.03267274	-0.002913257	-0.001423409	0.06596205	-0.04516516	

1.964e+10	0.02871573	-0.1136586	-0.007147224	0.001422968	0.02362521	-0.05099634	-0.002921981	0.0001306423	
-0.007147224	0.001422968	0.1531103	-0.08707775	-0.007045941	-0.0003840613	0.1629822	0.01693774	
0.02362521	-0.05099634	-0.007045941	-0.0003840613	-0.07191316	-0.1304857	-0.003399048	-0.0004837562	
-0.002921981	0.0001306423	0.1629822	0.01693774	-0.003399048	-0.0004837562	0.07581422	-0.0380146	

1.966e+10	0.04007208	-0.09262329	-0.006541471	0.003475234	0.02506854	-0.03540819	-0.002823901	0.00109702	
-0.006541471	0.003475234	0.1655512	-0.09603615	-0.006961714	0.001611078	0.178049	-0.002732614	
0.02506854	-0.03540819	-0.006961714	0.001611078	-0.077116	-0.08858682	-0.003488143	0.0005624572	
-0.002823901	0.00109702	0.178049	-0.002732614	-0.003488143	0.0005624572	0.08948571	-0.03311952	

1.968e+10	0.05512747	-0.07507716	-0.005317288	0.00521071	0.03022208	-0.02072217	-0.002421591	0.001920018	
-0.005317288	0.00521071	0.1763325	-0.1080229	-0.006281521	0.003463296	0.1883628	-0.026588	
0.03022208	-0.02072217	-0.006281521	0.003463296	-0.07127476	-0.04678316	-0.003252163	0.001536596	
-0.002421591	0.001920018	0.1883628	-0.026588	-0.003252163	0.001536596	0.1048282	-0.03316691	

1.97e+10	0.07423654	-0.05998267	-0.003680621	0.00646592	0.0391425	-0.006730905	-0.001846393	0.002579966	
-0.003680621	0.00646592	0.1839569	-0.1224059	-0.005127002	0.005011974	0.1918661	-0.05250302	
0.0391425	-0.006730905	-0.005127002	0.005011974	-0.0552223	-0.007564515	-0.002791945	0.002400604	
-0.001846393	0.002579966	0.1918661	-0.05250302	-0.002791945	0.002400604	0.1186118	-0.03763726	

1.972e+10	0.09896322	-0.04931537	-0.001817472	0.007209027	0.05304823	0.005336812	-0.001111737	0.00310667	
-0.001817472	0.007209027	0.1879714	-0.1374937	-0.003617575	0.006175882	0.1887125	-0.07737741	
0.05304823	0.005336812	-0.003617575	0.006175882	-0.02940542	0.0270681	-0.002108905	0.003160974	
-0.001111737	0.00310667	0.1887125	-0.07737741	-0.002108905	0.003160974	0.1299164	-0.04382776	

1.974e+10	0.1277183	-0.04696589	0.0001495647	0.007444198	0.07148208	0.01246058	-0.0001929048	0.003432083	
0.0001495647	0.007444198	0.1892705	-0.1521285	-0.001862176	0.006882425	0.1809487	-0.09951853	
0.07148208	0.01246058	-0.001862176	0.006882425	0.005238426	0.05406682	-0.001175237	0.003725109	
-0.0001929048	0.003432083	0.1809487	-0.09951853	-0.001175237	0.003725109	0.1406137	-0.05044948	

1.976e+10	0.1556	-0.05438365	0.002107836	0.007162275	0.09141949	0.01270421	0.000829472	0.003445461	
0.002107836	0.007162275	0.1888809	-0.166515	-3.457546e-06	0.007075099	0.170212	-0.1193919	
0.09141949	0.01270421	-3.457546e-06	0.007075099	0.04606745	0.0706269	-7.791145e-05	0.003956933	
0.000829472	0.003445461	0.170212	-0.1193919	-7.791145e-05	0.003956933	0.1521752	-0.05921438	

1.978e+10	0.1785243	-0.06887604	0.003923786	0.006371045	0.1095082	0.006973529	0.001801012	0.003132689	
0.003923786	0.006371045	0.1865396	-0.1815033	0.001789351	0.006763818	0.1561422	-0.1377354	
0.1095082	0.006973529	0.001789351	0.006763818	0.08902524	0.07548553	0.001001992	0.003832171	
0.001801012	0.003132689	0.1561422	-0.1377354	0.001001992	0.003832171	0.1629533	-0.07246632	

1.98e+10	0.196104	-0.08671304	0.005452462	0.005129702	0.124556	-0.002445531	0.002620896	0.002581849	
0.005452462	0.005129702	0.1810098	-0.1969018	0.003384787	0.006030879	0.1377672	-0.153544	
0.124556	-0.002445531	0.003384787	0.006030879	0.1303418	0.06951419	0.001951527	0.00345367	
0.002620896	0.002581849	0.1377672	-0.153544	0.001951527	0.00345367	0.1695828	-0.08973262	

1.982e+10	0.2100378	-0.106775	0.006585908	0.003554305	0.1372187	-0.01437844	0.003289918	0.001870529	
0.006585908	0.003554305	0.1715863	-0.2112047	0.004719533	0.004973002	0.1155847	-0.1646253	
0.1372187	-0.01437844	0.004719533	0.004973002	0.167852	0.0545708	0.002784304	0.002908115	
0.003289918	0.001870529	0.1155847	-0.1646253	0.002784304	0.002908115	0.1705454	-0.1079894	

1.984e+10	0.2202977	-0.1300295	0.007286464	0.00178366	0.1474745	-0.0291098	0.003821374	0.0009970316	
0.007286464	0.00178366	0.1589889	-0.222812	0.005764605	0.003663836	0.09182627	-0.1697441	
0.1474745	-0.0291098	0.005764605	0.003663836	0.2002247	0.03227979	0.003528415	0.002180299	
0.003821374	0.0009970316	0.09182627	-0.1697441	0.003528415	0.002180299	0.1672307	-0.1246408	

1.986e+10	0.2246147	-0.1562741	0.007565626	-8.4655e-05	0.1540432	-0.04664336	0.004153508	-6.395638e-05	
0.007565626	-8.4655e-05	0.144698	-0.2312507	0.006488172	0.002152795	0.06875456	-0.1696362	
0.1540432	-0.04664336	0.006488172	0.002152795	0.2264571	0.003859993	0.00411943	0.00121898	
0.004153508	-6.395638e-05	0.06875456	-0.1696362	0.00411943	0.00121898	0.1617675	-0.1397917	

1.988e+10	0.2213548	-0.1828345	0.007425261	-0.002000014	0.1556673	-0.06553562	0.004185048	-0.001265852	
0.007425261	-0.002000014	0.12938	-0.2371422	0.006843074	0.0005052378	0.04688285	-0.1659236	
0.1556673	-0.06553562	0.006843074	0.0005052378	0.2452368	-0.02920799	0.004432146	6.345986e-05	
0.004185048	-0.001265852	0.04688285	-0.1659236	0.004432146	6.345986e-05	0.1539436	-0.15506	

1.99e+10	0.2113653	-0.2063348	0.006832146	-0.003902204	0.1523737	-0.0837439	0.003866694	-0.002499467	
0.006832146	-0.003902204	0.1124785	-0.2406185	0.006807154	-0.001190659	0.02531175	-0.1588966	
0.1523737	-0.0837439	0.006807154	-0.001190659	0.2556746	-0.06492831	0.004410386	-0.00116124	
0.003866694	-0.002499467	0.02531175	-0.1588966	0.004410386	-0.00116124	0.1413971	-0.1700417	

1.992e+10	0.1972996	-0.2252624	0.005744656	-0.005686994	0.1453701	-0.09994002	0.003200482	-0.003678361	
0.005744656	-0.005686994	0.09366209	-0.2402804	0.006389542	-0.002856039	0.004080707	-0.1471034	
0.1453701	-0.09994002	0.006389542	-0.002856039	0.257609	-0.1008055	0.004088129	-0.002366946	
0.003200482	-0.003678361	0.004080707	-0.1471034	0.004088129	-0.002366946	0.1230806	-0.1814072	

1.994e+10	0.1809939	-0.2403789	0.004160706	-0.007204231	0.1357123	-0.1141873	0.002170239	-0.004740651	
0.004160706	-0.007204231	0.07435187	-0.2343584	0.005590369	-0.004439139	-0.01463403	-0.1294454	
0.1357123	-0.1141873	0.005590369	-0.004439139	0.2519537	-0.1348474	0.003474464	-0.003547015	
0.002170239	-0.004740651	-0.01463403	-0.1294454	0.003474464	-0.003547015	0.1014901	-0.1857524	

1.996e+10	0.1622565	-0.2522753	0.002159693	-0.008304258	0.1233768	-0.1265791	0.0007283423	-0.00558047	
0.002159693	-0.008304258	0.05730564	-0.2226744	0.004394502	-0.005865497	-0.02805616	-0.107096	
0.1233768	-0.1265791	0.004394502	-0.005865497	0.239882	-0.1657926	0.002486905	-0.004672269	
0.0007283423	-0.00558047	-0.02805616	-0.107096	0.002486905	-0.004672269	0.08075762	-0.1829377	

1.998e+10	0.1407305	-0.2594956	-0.0001513092	-0.008890813	0.1080463	-0.1361594	-0.001141306	-0.005988615	
-0.0001513092	-0.008890813	0.04445094	-0.2069398	0.002799449	-0.007026136	-0.03525685	-0.08281869	
0.1080463	-0.1361594	0.002799449	-0.007026136	0.2222426	-0.1928047	0.001018405	-0.005579011	
-0.001141306	-0.005988615	-0.03525685	-0.08281869	0.001018405	-0.005579011	0.06288052	-0.1755799	

2e+10	0.1183382	-0.2598857	-0.002677026	-0.008894785	0.09056344	-0.1413219	-0.003291016	-0.005688736	
-0.002677026	-0.008894785	0.03583044	-0.1889223	0.0008525628	-0.007801051	-0.03736059	-0.05846408	
0.09056344	-0.1413219	0.0008525628	-0.007801051	0.1997349	-0.2147673	-0.0008974892	-0.005975274	
-0.003291016	-0.005688736	-0.03736059	-0.05846408	-0.0008974892	-0.005975274	0.04681541	-0.165288	

2.002e+10	0.09924505	-0.2536344	-0.005345512	-0.008240809	0.07347365	-0.1413101	-0.005379055	-0.004497588	
-0.005345512	-0.008240809	0.03116923	-0.1687658	-0.001382808	-0.008111071	-0.03524307	-0.03359672	
0.07347365	-0.1413101	-0.001382808	-0.008111071	0.1740557	-0.2303434	-0.003010202	-0.005606952	
-0.005379055	-0.004497588	-0.03524307	-0.03359672	-0.003010202	-0.005606952	0.03194574	-0.1504866	

2.004e+10	0.08619818	-0.2447866	-0.008094683	-0.00673945	0.05918322	-0.138005	-0.006976609	-0.002474659	
-0.008094683	-0.00673945	0.03182636	-0.1464108	-0.003919297	-0.007836901	-0.02736527	-0.007929633	
0.05918322	-0.138005	-0.003919297	-0.007836901	0.1476836	-0.2394379	-0.004949215	-0.004425109	
-0.006976609	-0.002474659	-0.02736527	-0.007929633	-0.004949215	-0.004425109	0.02121113	-0.1294436	

2.006e+10	0.0770876	-0.2380284	-0.01061678	-0.004049908	0.04733388	-0.1345467	-0.007786723	0.0001168862	
-0.01061678	-0.004049908	0.03992205	-0.1237709	-0.00668886	-0.006633057	-0.01174829	0.01615235	
0.04733388	-0.1345467	-0.00668886	-0.006633057	0.1223563	-0.2437764	-0.00643125	-0.002572316	
-0.007786723	0.0001168862	-0.01174829	0.01615235	-0.00643125	-0.002572316	0.01894347	-0.1044257	

2.008e+10	0.06690043	-0.2334325	-0.0121729	-4.886542e-05	0.03478252	-0.1316838	-0.007679294	0.003024955	
-0.0121729	-4.886542e-05	0.05549546	-0.1046227	-0.009207696	-0.004109162	0.01074834	0.03463453	
0.03478252	-0.1316838	-0.009207696	-0.004109162	0.09737431	-0.244977	-0.007312809	-0.00017489	
-0.007679294	0.003024955	0.01074834	0.03463453	-0.007312809	-0.00017489	0.02599978	-0.08081987	

2.01e+10	0.05387066	-0.2266869	-0.01193512	0.004807567	0.01979295	-0.1267135	-0.0064455	0.006063321	
-0.01193512	0.004807567	0.07588074	-0.09161657	-0.01065154	-0.0002714793	0.03657838	0.04555128	
0.01979295	-0.1267135	-0.01065154	-0.0002714793	0.07151556	-0.2424422	-0.00734505	0.002740359	
-0.0064455	0.006063321	0.03657838	0.04555128	-0.00734505	0.002740359	0.03913453	-0.06205808	

2.012e+10	0.04115634	-0.2146093	-0.009344601	0.009552393	0.004191668	-0.1167047	-0.003716015	0.008741655	
-0.009344601	0.009552393	0.09825005	-0.08477725	-0.01017927	0.00432504	0.06286157	0.04996833	
0.004191668	-0.1167047	-0.01017927	0.00432504	0.04534202	-0.2341808	-0.005999887	0.005912562	
-0.003716015	0.008741655	0.06286157	0.04996833	-0.005999887	0.005912562	0.0552375	-0.0475688	

2.014e+10	0.03279495	-0.1985498	-0.004432313	0.01277812	-0.008586494	-0.101658	0.0005060405	0.01000321	
-0.004432313	0.01277812	0.1215194	-0.08328397	-0.007271679	0.00849601	0.08935099	0.04913534	
-0.008586494	-0.101658	-0.007271679	0.00849601	0.02149654	-0.2192386	-0.002869603	0.008424583	
0.0005060405	0.01000321	0.08935099	0.04913534	-0.002869603	0.008424583	0.0746178	-0.0361054	

2.016e+10	0.02918776	-0.1825108	0.001707016	0.01309319	-0.01682402	-0.08442601	0.005186194	0.008800546	
0.001707016	0.01309319	0.1454128	-0.08761827	-0.002333396	0.01064834	0.1161226	0.04204498	
-0.01682402	-0.08442601	-0.002333396	0.01064834	0.002836683	-0.1994098	0.00153883	0.008970469	
0.005186194	0.008800546	0.1161226	0.04204498	0.00153883	0.008970469	0.09852833	-0.02953555	

2.018e+10	0.02688236	-0.1678509	0.007051321	0.01012326	-0.02232739	-0.06715775	0.008592645	0.005156248	
0.007051321	0.01012326	0.168178	-0.09899328	0.003015023	0.009707567	0.1407534	0.02716088	
-0.02232739	-0.06715775	0.003015023	0.009707567	-0.01067477	-0.1777898	0.005690557	0.006917944	
0.008592645	0.005156248	0.1407534	0.02716088	0.005690557	0.006917944	0.1248788	-0.03129326	

2.02e+10	0.02385626	-0.1509465	0.009751127	0.00502776	-0.0273219	-0.04809524	0.009468753	0.0003270657	
0.009751127	0.00502776	0.1867182	-0.117119	0.00669159	0.006057781	0.1594123	0.00558073	
-0.0273219	-0.04809524	0.00669159	0.006057781	-0.02139252	-0.155142	0.007971336	0.002945998	
0.009468753	0.0003270657	0.1594123	0.00558073	0.007971336	0.002945998	0.1489608	-0.04204215	

2.022e+10	0.02395256	-0.1280388	0.009232347	-9.144541e-05	-0.02979371	-0.02384366	0.0076698	-0.00396682	
0.009232347	-9.144541e-05	0.1985318	-0.139427	0.00748741	0.001451473	0.1701002	-0.01901757	
-0.02979371	-0.02384366	0.00748741	0.001451473	-0.02983077	-0.1289033	0.007665091	-0.001387732	
0.0076698	-0.00396682	0.1701002	-0.01901757	0.007665091	-0.001387732	0.1671319	-0.0587286	

2.024e+10	0.03358186	-0.1011512	0.006440849	-0.003417598	-0.02431488	0.005421654	0.004123932	-0.006316214	
0.006440849	-0.003417598	0.2033483	-0.162674	0.005747923	-0.002168864	0.1737201	-0.04307182	
-0.02431488	0.005421654	0.005747923	-0.002168864	-0.03245788	-0.09728844	0.005214161	-0.004505987	
0.004123932	-0.006316214	0.1737201	-0.04307182	0.005214161	-0.004505987	0.1793218	-0.07744347	

2.026e+10	0.05503287	-0.0774216	0.003124325	-0.004314818	-0.007186809	0.03440132	0.0004470598	-0.006253641	
0.003124325	-0.004314818	0.2026766	-0.1847127	0.002864876	-0.003762185	0.1725994	-0.06516137	
-0.007186809	0.03440132	0.002864876	-0.003762185	-0.02473735	-0.06302512	0.00193077	-0.005543483	
0.0004470598	-0.006253641	0.1725994	-0.06516137	0.00193077	-0.005543483	0.1876642	-0.09656224	

2.028e+10	0.08454485	-0.06295583	0.0007643857	-0.003455055	0.02035716	0.05685223	-0.001972118	-0.004555115	
0.0007643857	-0.003455055	0.1979993	-0.2052134	0.0003026137	-0.003495425	0.1680344	-0.08579519	
0.02035716	0.05685223	0.0003026137	-0.003495425	-0.005351547	-0.03178869	-0.0007717671	-0.004776654	
-0.001972118	-0.004555115	0.1680344	-0.08579519	-0.0007717671	-0.004776654	0.1932125	-0.1172581	

2.03e+10	0.1161782	-0.05901963	-0.0002012905	-0.002093545	0.0537384	0.06926914	-0.002847403	-0.002541404	
-0.0002012905	-0.002093545	0.1896265	-0.2243847	-0.001187144	-0.002282427	0.1596728	-0.1052489	
0.0537384	0.06926914	-0.001187144	-0.002282427	0.02277777	-0.008697986	-0.002260766	-0.003223916	
-0.002847403	-0.002541404	0.1596728	-0.1052489	-0.002260766	-0.003223916	0.1942343	-0.140375	

2.032e+10	0.1464502	-0.06351432	-0.000257322	-0.001086854	0.08867735	0.0715766	-0.002785177	-0.0009879245	
-0.000257322	-0.001086854	0.1770037	-0.2416855	-0.001693534	-0.0009817073	0.1470034	-0.1223222	
0.08867735	0.0715766	-0.001693534	-0.0009817073	0.05489046	0.004443188	-0.002777822	-0.001708928	
-0.002785177	-0.0009879245	0.1470034	-0.1223222	-0.002777822	-0.001708928	0.18851	-0.1641005	

2.034e+10	0.17443	-0.07504925	-2.145201e-05	-0.0005479402	0.1226658	0.06469349	-0.002375195	8.169851e-05	
-2.145201e-05	-0.0005479402	0.160212	-0.2554692	-0.001636269	6.085717e-05	0.1310066	-0.1353395	
0.1226658	0.06469349	-0.001636269	6.085717e-05	0.08736174	0.008610076	-0.002772709	-0.0004629975	
-0.002375195	8.169851e-05	0.1310066	-0.1353395	-0.002772709	-0.0004629975	0.1761403	-0.1849978	

2.036e+10	0.1987328	-0.09347843	0.0002712576	-0.0002634275	0.1535567	0.04924551	-0.001789385	0.0008569458	
0.0002712576	-0.0002634275	0.1406891	-0.2643084	-0.001286377	0.0008533727	0.1135907	-0.1438102	
0.1535567	0.04924551	-0.001286377	0.0008533727	0.118264	0.005239623	-0.002450545	0.0005639513	
-0.001789385	0.0008569458	0.1135907	-0.1438102	-0.002450545	0.0005639513	0.159585	-0.2011298	

2.038e+10	0.2167181	-0.1175802	0.0006583444	-0.0001613151	0.1789469	0.02644214	-0.001008068	0.001339696	
0.0006583444	-0.0001613151	0.1202588	-0.2680383	-0.0007078116	0.001422758	0.09607255	-0.1486933	
0.1789469	0.02644214	-0.0007078116	0.001422758	0.1464571	-0.00462	-0.001843727	0.001354848	
-0.001008068	0.001339696	0.09607255	-0.1486933	-0.001843727	0.001354848	0.1410031	-0.2130809	

2.04e+10	0.2268763	-0.1440801	0.001101204	-0.0003556154	0.1969663	-0.001210811	-0.0001387727	0.001403958	
0.001101204	-0.0003556154	0.09993403	-0.2673853	4.725058e-05	0.00169054	0.07818592	-0.1509197	
0.1969663	-0.001210811	4.725058e-05	0.00169054	0.1705885	-0.01994084	-0.00104165	0.001804191	
-0.0001387727	0.001403958	0.07818592	-0.1509197	-0.00104165	0.001804191	0.1200949	-0.222009	

2.042e+10	0.2302826	-0.1697232	0.001374221	-0.0008889896	0.2074055	-0.03086819	0.0005655689	0.001050419	
0.001374221	-0.0008889896	0.0796156	-0.262408	0.0008260359	0.001591613	0.05912545	-0.1498149	
0.2074055	-0.03086819	0.0008260359	0.001591613	0.1895054	-0.03906534	-0.0002311692	0.001879739	
0.0005655689	0.001050419	0.05912545	-0.1498149	-0.0002311692	0.001879739	0.09555072	-0.2266415	

2.044e+10	0.2293545	-0.1932576	0.00126567	-0.001572265	0.2113313	-0.06060625	0.0009228084	0.0004830685	
0.00126567	-0.001572265	0.05986788	-0.2519036	0.001449351	0.001180378	0.03961647	-0.1435331	
0.2113313	-0.06060625	0.001449351	0.001180378	0.2031238	-0.059929	0.0004379077	0.001681514	
0.0009228084	0.0004830685	0.03961647	-0.1435331	0.0004379077	0.001681514	0.06812128	-0.2237081	

2.046e+10	0.2255889	-0.2155021	0.0007972867	-0.002115763	0.2097157	-0.08974132	0.0009650204	-5.470997e-05	
0.0007972867	-0.002115763	0.04303468	-0.23487	0.001828404	0.0006050053	0.02229629	-0.1312801	
0.2097157	-0.08974132	0.001828404	0.0006050053	0.2124217	-0.08099702	0.000933509	0.001342793	
0.0009650204	-5.470997e-05	0.02229629	-0.1312801	0.000933509	0.001342793	0.04178663	-0.2111346	

2.048e+10	0.2185064	-0.2372081	0.0001872077	-0.002394192	0.2027243	-0.1179884	0.0008534108	-0.0004752755	
0.0001872077	-0.002394192	0.03236598	-0.2125296	0.001994262	-1.238951e-05	0.009800096	-0.1145716	
0.2027243	-0.1179884	0.001994262	-1.238951e-05	0.2186003	-0.1020326	0.001299281	0.0009273844	
0.0008534108	-0.0004752755	0.009800096	-0.1145716	0.001299281	0.0009273844	0.02100957	-0.1904547	

2.05e+10	0.2071348	-0.2575501	-0.0004166778	-0.002501231	0.1901093	-0.144463	0.000671798	-0.0008474158	
-0.0004166778	-0.002501231	0.02950892	-0.1879678	0.002000038	-0.0006499675	0.00276248	-0.09601627	
0.1901093	-0.144463	0.002000038	-0.0006499675	0.2219211	-0.1236009	0.001550346	0.0004225566	
0.000671798	-0.0008474158	0.00276248	-0.09601627	0.001550346	0.0004225566	0.007530502	-0.1653886	

2.052e+10	0.1919006	-0.2747355	-0.00106428	-0.002534297	0.1722002	-0.1676329	0.0003500484	-0.001216436	
-0.00106428	-0.002534297	0.03390856	-0.16394	0.001822817	-0.001321246	0.0003005058	-0.07686441	
0.1722002	-0.1676329	0.001822817	-0.001321246	0.2217088	-0.1456299	0.001628713	-0.000176049	
0.0003500484	-0.001216436	0.0003005058	-0.07686441	0.001628713	-0.000176049	0.0003439737	-0.1378196	

2.054e+10	0.1744842	-0.2879036	-0.001853377	-0.002406659	0.1501578	-0.1863253	-0.000196135	-0.001466644	
-0.001853377	-0.002406659	0.04473999	-0.1415267	0.001385646	-0.001970478	0.002549555	-0.05693494	
0.1501578	-0.1863253	0.001385646	-0.001970478	0.2174727	-0.1672529	0.001458283	-0.0007937288	
-0.000196135	-0.001466644	0.002549555	-0.05693494	0.001458283	-0.0007937288	-0.0001778106	-0.1072399	

2.056e+10	0.156401	-0.2977864	-0.002699738	-0.001927838	0.1254096	-0.2001217	-0.0008770463	-0.001407391	
-0.002699738	-0.001927838	0.06235034	-0.1220007	0.0006711502	-0.00244309	0.01134275	-0.03731933	
0.1254096	-0.2001217	0.0006711502	-0.00244309	0.2096374	-0.1872532	0.001036113	-0.001287974	
-0.0008770463	-0.001407391	0.01134275	-0.03731933	0.001036113	-0.001287974	0.009277844	-0.07461439	

2.058e+10	0.1374391	-0.3056731	-0.003332605	-0.001064211	0.09885724	-0.2093421	-0.001442141	-0.001003808	
-0.003332605	-0.001064211	0.08672682	-0.1082412	-0.000196965	-0.002590523	0.02723813	-0.02178598	
0.09885724	-0.2093421	-0.000196965	-0.002590523	0.1991983	-0.2053056	0.0004738758	-0.001543808	
-0.001442141	-0.001003808	0.02723813	-0.02178598	0.0004738758	-0.001543808	0.03094676	-0.04532716	

2.06e+10	0.1162793	-0.3113342	-0.003566111	-3.672312e-05	0.07057135	-0.2139516	-0.00173173	-0.0004446326	
-0.003566111	-3.672312e-05	0.1152226	-0.1034668	-0.001025749	-0.002407163	0.04725068	-0.01384751	
0.07057135	-0.2139516	-0.001025749	-0.002407163	0.1864113	-0.2220068	-8.344231e-05	-0.001571186	
-0.00173173	-0.0004446326	0.04725068	-0.01384751	-8.344231e-05	-0.001571186	0.06200688	-0.02548019	

2.062e+10	0.09258335	-0.3128168	-0.003474831	0.0009213347	0.04081046	-0.2130872	-0.001815642	8.435315e-05	
-0.003474831	0.0009213347	0.1434195	-0.1083886	-0.001714449	-0.002004526	0.06685331	-0.01358688	
0.04081046	-0.2130872	-0.001714449	-0.002004526	0.1704462	-0.2373495	-0.0005819446	-0.001452024	
-0.001815642	8.435315e-05	0.06685331	-0.01358688	-0.0005819446	-0.001452024	0.09636062	-0.01705341	

2.064e+10	0.06804486	-0.3083309	-0.003219699	0.001783974	0.01084004	-0.2056044	-0.0018219	0.0005895112	
-0.003219699	0.001783974	0.1678778	-0.1209838	-0.002277405	-0.001454782	0.08370828	-0.0183968	
0.01084004	-0.2056044	-0.002277405	-0.001454782	0.1505424	-0.2499218	-0.001043844	-0.001211013	
-0.0018219	0.0005895112	0.08370828	-0.0183968	-0.001043844	-0.001211013	0.1300395	-0.01778475	

2.066e+10	0.04515749	-0.2978867	-0.002811874	0.002647923	-0.01734869	-0.1911845	-0.001728626	0.001165973	
-0.002811874	0.002647923	0.1876662	-0.1387694	-0.002712114	-0.0007348321	0.09809756	-0.02644671	
-0.01734869	-0.1911845	-0.002712114	-0.0007348321	0.127383	-0.2577287	-0.001442857	-0.0008047341	
-0.001728626	0.001165973	0.09809756	-0.02644671	-0.001442857	-0.0008047341	0.1625031	-0.02574582	

2.068e+10	0.02532175	-0.2829994	-0.002117043	0.003498409	-0.04182574	-0.1706696	-0.001397023	0.001783612	
-0.002117043	0.003498409	0.2027365	-0.1606006	-0.002915789	0.0001640389	0.1101947	-0.03793017	
-0.04182574	-0.1706696	-0.002915789	0.0001640389	0.1029925	-0.2596924	-0.001668916	-0.0002351449	
-0.001397023	0.001783612	0.1101947	-0.03793017	-0.001668916	-0.0002351449	0.1935224	-0.04172789	

2.07e+10	0.008204224	-0.2645928	-0.001077126	0.004138112	-0.06163399	-0.1453416	-0.0007875958	0.002254064	
-0.001077126	0.004138112	0.2122569	-0.1859674	-0.002769604	0.001128	0.1184104	-0.05290058	
-0.06163399	-0.1453416	-0.002769604	0.001128	0.0792311	-0.2563344	-0.001633921	0.0003772204	
-0.0007875958	0.002254064	0.1184104	-0.05290058	-0.001633921	0.0003772204	0.2201004	-0.06668284	

2.072e+10	-0.006151124	-0.2416717	0.0001542561	0.004377883	-0.07644533	-0.1156717	-5.522384e-05	0.002435374	
0.0001542561	0.004377883	0.2148841	-0.213337	-0.002281028	0.00196546	0.1210821	-0.06937808	
-0.07644533	-0.1156717	-0.002281028	0.00196546	0.05646943	-0.2483304	-0.001382563	0.0008845258	
-5.522384e-05	0.002435374	0.1210821	-0.06937808	-0.001382563	0.0008845258	0.2382662	-0.0984642	

2.074e+10	-0.01517714	-0.2131403	0.001355467	0.004224573	-0.08479478	-0.08165687	0.0006270432	0.002377295	
0.001355467	0.004224573	0.2101746	-0.2403596	-0.001582296	0.00256596	0.1185538	-0.08464481	
-0.08479478	-0.08165687	-0.001582296	0.00256596	0.03504435	-0.2351328	-0.001032154	0.001248103	
0.0006270432	0.002377295	0.1185538	-0.08464481	-0.001032154	0.001248103	0.24663	-0.1328188	

2.076e+10	-0.01504542	-0.181066	0.002436146	0.003806952	-0.08411842	-0.04472656	0.001235327	0.002202408	
0.002436146	0.003806952	0.1990727	-0.2647452	-0.0007848461	0.00294553	0.1127901	-0.09728567	
-0.08411842	-0.04472656	-0.0007848461	0.00294553	0.01693913	-0.2159065	-0.0006326531	0.001517611	
0.001235327	0.002202408	0.1127901	-0.09728567	-0.0006326531	0.001517611	0.2467121	-0.1663405	

2.078e+10	-0.004413987	-0.1503152	0.003438315	0.003179236	-0.07283413	-0.008452961	0.001846182	0.001929693	
0.003438315	0.003179236	0.1831889	-0.2854556	9.781183e-05	0.003131573	0.1053891	-0.1078041	
-0.07283413	-0.008452961	9.781183e-05	0.003131573	0.005137326	-0.1917112	-0.0001502768	0.00170499	
0.001846182	0.001929693	0.1053891	-0.1078041	-0.0001502768	0.00170499	0.2406114	-0.1983377	

2.08e+10	0.01422593	-0.1250534	0.004361403	0.002262668	-0.05201659	0.02296374	0.002467203	0.001460146	
0.004361403	0.002262668	0.1636194	-0.3023806	0.001064958	0.003068659	0.09637408	-0.1171275	
-0.05201659	0.02296374	0.001064958	0.003068659	0.001308753	-0.1658948	0.0004238759	0.001738677	
0.002467203	0.001460146	0.09637408	-0.1171275	0.0004238759	0.001738677	0.2284664	-0.2292573	

2.082e+10	0.03742593	-0.1060285	0.00504644	0.000987237	-0.0245649	0.04730964	0.002966572	0.0007263545	
0.00504644	0.000987237	0.1404332	-0.3152997	0.002024483	0.002670834	0.08476492	-0.1249153	
-0.0245649	0.04730964	0.002024483	0.002670834	0.004375505	-0.1417525	0.001007577	0.001549755	
0.002966572	0.0007263545	0.08476492	-0.1249153	0.001007577	0.001549755	0.208873	-0.2581393	

2.084e+10	0.06418713	-0.09247711	0.005274142	-0.0005378948	0.007295414	0.0642904	0.003188379	-0.0001927587	
0.005274142	-0.0005378948	0.113712	-0.3229028	0.002806055	0.001943367	0.07050357	-0.1295816	
0.007295414	0.0642904	0.002806055	0.001943367	0.01224594	-0.1203084	0.001484069	0.001158815	
0.003188379	-0.0001927587	0.07050357	-0.1295816	0.001484069	0.001158815	0.1814586	-0.2819792	

2.086e+10	0.09462035	-0.08572731	0.004973348	-0.002052405	0.0424836	0.0731791	0.003095635	-0.001132535	
0.004973348	-0.002052405	0.08473107	-0.3234356	0.003288273	0.001018519	0.05502713	-0.1298626	
0.0424836	0.0731791	0.003288273	0.001018519	0.02401739	-0.1014662	0.001798033	0.0006546438	
0.003095635	-0.001132535	0.05502713	-0.1298626	0.001798033	0.0006546438	0.1483802	-0.2976566	

2.088e+10	0.1262802	-0.08830086	0.004270201	-0.003357542	0.07884723	0.0724073	0.002762941	-0.001998052	
0.004270201	-0.003357542	0.05607519	-0.315922	0.003481239	4.259607e-05	0.04016885	-0.1258656	
0.07884723	0.0724073	0.003481239	4.259607e-05	0.03966644	-0.0858854	0.001969978	9.770942e-05	
0.002762941	-0.001998052	0.04016885	-0.1258656	0.001969978	9.770942e-05	0.1130278	-0.3042965	

2.09e+10	0.1544451	-0.1000872	0.003310512	-0.004433475	0.1126462	0.06178957	0.002237176	-0.002798353	
0.003310512	-0.004433475	0.03025085	-0.301054	0.003448934	-0.0009409988	0.02671416	-0.1185883	
0.1126462	0.06178957	0.003448934	-0.0009409988	0.05831114	-0.07494173	0.002010805	-0.0005177836	
0.002237176	-0.002798353	0.02671416	-0.1185883	0.002010805	-0.0005177836	0.07765615	-0.3029556	

2.092e+10	0.1760642	-0.1173891	0.002104346	-0.005315513	0.1405946	0.04370153	0.001460063	-0.00353537	
0.002104346	-0.005315513	0.008595996	-0.2800681	0.003187297	-0.001946375	0.01435377	-0.1082828	
0.1405946	0.04370153	0.003187297	-0.001946375	0.07782181	-0.06923201	0.001866244	-0.001193788	
0.001460063	-0.00353537	0.01435377	-0.1082828	0.001866244	-0.001193788	0.0424829	-0.2942288	

2.094e+10	0.1917405	-0.1362326	0.0005996042	-0.005918404	0.1617928	0.02153719	0.0003528012	-0.004079272	
0.0005996042	-0.005918404	-0.00794079	-0.2535257	0.002624257	-0.002936309	0.003532762	-0.09388256	
0.1617928	0.02153719	0.002624257	-0.002936309	0.09630111	-0.06763637	0.001456606	-0.001856344	
0.0003528012	-0.004079272	0.003532762	-0.09388256	0.001456606	-0.001856344	0.008136241	-0.2765804	

2.096e+10	0.2039069	-0.1555268	-0.001139776	-0.006055264	0.1772612	-0.002579693	-0.001027496	-0.004202205	
-0.001139776	-0.006055264	-0.0174608	-0.2216132	0.001710917	-0.003785737	-0.003431743	-0.07451101	
0.1772612	-0.002579693	0.001710917	-0.003785737	0.1135669	-0.06841065	0.000770238	-0.002363669	
-0.001027496	-0.004202205	-0.003431743	-0.07451101	0.000770238	-0.002363669	-0.02209082	-0.2481587	

2.098e+10	0.2132903	-0.17633	-0.002891008	-0.005630126	0.1877114	-0.02821445	-0.002430655	-0.003755783	
-0.002891008	-0.005630126	-0.0169591	-0.1861692	0.0004975779	-0.004343593	-0.003282483	-0.05172695	
0.1877114	-0.02821445	0.0004975779	-0.004343593	0.1306287	-0.07094333	-9.934132e-05	-0.002578887	
-0.002430655	-0.003755783	-0.003282483	-0.05172695	-9.934132e-05	-0.002578887	-0.04292181	-0.2100291	

2.1e+10	0.2186075	-0.1988687	-0.004463046	-0.00472284	0.1926869	-0.05495375	-0.003568419	-0.002808069	
-0.004463046	-0.00472284	-0.004607873	-0.1515099	-0.0009120088	-0.004518989	0.00545261	-0.0294627	
0.1926869	-0.05495375	-0.0009120088	-0.004518989	0.1480451	-0.07605871	-0.0009993345	-0.002457372	
-0.003568419	-0.002808069	0.00545261	-0.0294627	-0.0009993345	-0.002457372	-0.05059612	-0.1671606	

2.102e+10	0.218962	-0.2215298	-0.00580621	-0.003410571	0.1917122	-0.0812783	-0.004299424	-0.001552976	
-0.00580621	-0.003410571	0.01825545	-0.1226185	-0.002427782	-0.004244298	0.02124727	-0.01137169	
0.1917122	-0.0812783	-0.002427782	-0.004244298	0.1649689	-0.08471699	-0.001811551	-0.002037533	
-0.004299424	-0.001552976	0.02124727	-0.01137169	-0.001811551	-0.002037533	-0.0456161	-0.124922	

2.104e+10	0.2152739	-0.2423836	-0.0068457	-0.001649827	0.1855485	-0.1053292	-0.004601603	-0.0001454151	
-0.0068457	-0.001649827	0.04816728	-0.102231	-0.003928354	-0.003417274	0.0416169	0.001261115	
0.1855485	-0.1053292	-0.003928354	-0.003417274	0.180052	-0.09672924	-0.002473551	-0.001359846	
-0.004601603	-0.0001454151	0.0416169	0.001261115	-0.002473551	-0.001359846	-0.03018985	-0.08596811	

2.106e+10	0.2094959	-0.2611945	-0.007337109	0.0005619835	0.1759058	-0.1262289	-0.004453976	0.001309187	
-0.007337109	0.0005619835	0.08205371	-0.09099884	-0.005171107	-0.001956062	0.06529338	0.008011119	
0.1759058	-0.1262289	-0.005171107	-0.001956062	0.1926693	-0.1109867	-0.002906175	-0.0004400365	
-0.004453976	0.001309187	0.06529338	0.008011119	-0.002906175	-0.0004400365	-0.005082191	-0.05164655	

2.108e+10	0.2024009	-0.2794519	-0.006994988	0.002998056	0.1641856	-0.144459	-0.003820607	0.002675218	
-0.006994988	0.002998056	0.1177122	-0.08929665	-0.005814537	6.495171e-05	0.09120655	0.007470659	
0.1641856	-0.144459	-0.005814537	6.495171e-05	0.2033731	-0.1268301	-0.002980932	0.0006635865	
-0.003820607	0.002675218	0.09120655	0.007470659	-0.002980932	0.0006635865	0.02963713	-0.02486146	

2.11e+10	0.1927073	-0.2981424	-0.005732299	0.005254525	0.1504987	-0.1608658	-0.002734557	0.003754141	
-0.005732299	0.005254525	0.1522827	-0.09753499	-0.005550736	0.002356148	0.116316	-0.001806464	
0.1504987	-0.1608658	-0.005550736	0.002356148	0.2125487	-0.1449691	-0.002585214	0.001792759	
-0.002734557	0.003754141	0.116316	-0.001806464	-0.002585214	0.001792759	0.07120939	-0.009685097	

2.112e+10	0.1787424	-0.3164028	-0.003649791	0.006972512	0.1343009	-0.1754107	-0.001329955	0.004393935	
-0.003649791	0.006972512	0.182616	-0.1146258	-0.004239807	0.004436705	0.1366076	-0.01861455	
0.1343009	-0.1754107	-0.004239807	0.004436705	0.2190789	-0.1663864	-0.001687711	0.002706154	
-0.001329955	0.004393935	0.1366076	-0.01861455	-0.001687711	0.002706154	0.1140365	-0.007756036	

2.114e+10	0.1601452	-0.332193	-0.0009477411	0.007790665	0.1153913	-0.1873095	0.0002370642	0.004475626	
-0.0009477411	0.007790665	0.2065599	-0.1381493	-0.002038221	0.005733488	0.1500697	-0.03953525	
0.1153913	-0.1873095	-0.002038221	0.005733488	0.2208391	-0.1908049	-0.000421178	0.003118789	
0.0002370642	0.004475626	0.1500697	-0.03953525	-0.000421178	0.003118789	0.1534128	-0.01689221	

2.116e+10	0.1378625	-0.3439495	0.001898445	0.007379516	0.09414751	-0.1957902	0.001691825	0.003911825	
0.001898445	0.007379516	0.2234365	-0.1653585	0.0005094108	0.005823763	0.1573005	-0.0615124	
0.09414751	-0.1957902	0.0005094108	0.005823763	0.2160602	-0.216279	0.0008762012	0.002868252	
0.001691825	0.003911825	0.1573005	-0.0615124	0.0008762012	0.002868252	0.1876642	-0.03372217	

2.118e+10	0.1130407	-0.3509857	0.004175077	0.00579123	0.07111617	-0.2002149	0.002687481	0.002848796	
0.004175077	0.00579123	0.2337679	-0.1943882	0.002682483	0.004716081	0.1596684	-0.0834052	
0.07111617	-0.2002149	0.002682483	0.004716081	0.2045687	-0.2401126	0.001819438	0.002065273	
0.002687481	0.002848796	0.1596684	-0.0834052	0.001819438	0.002065273	0.2169279	-0.05640039	

2.12e+10	0.08650763	-0.3528606	0.005357346	0.003597409	0.04705453	-0.1999273	0.003079782	0.001652472	
0.005357346	0.003597409	0.238018	-0.2241949	0.003909726	0.002860125	0.1575933	-0.1050738	
0.04705453	-0.1999273	0.003909726	0.002860125	0.1875622	-0.2601571	0.002206345	0.001041004	
0.003079782	0.001652472	0.1575933	-0.1050738	0.002206345	0.001041004	0.2408279	-0.08470495	

2.122e+10	0.05886274	-0.3488691	0.005494903	0.001520154	0.02309556	-0.1944935	0.00302083	0.000630369	
0.005494903	0.001520154	0.2362423	-0.2540669	0.004054796	0.0009652408	0.1507384	-0.1257599	
0.02309556	-0.1944935	0.004054796	0.0009652408	0.1667803	-0.2754304	0.002106852	0.0001306729	
0.00302083	0.000630369	0.1507384	-0.1257599	0.002106852	0.0001306729	0.2576051	-0.1178919	

2.124e+10	0.03134169	-0.3377891	0.005031216	-8.297074e-05	0.0003594622	-0.1838896	0.002736912	-0.0001478043	
0.005031216	-8.297074e-05	0.2283305	-0.282761	0.003487549	-0.0004463818	0.1393966	-0.1438913	
0.0003594622	-0.1838896	0.003487549	-0.0004463818	0.1432688	-0.2857897	0.001737321	-0.0005134307	
0.002736912	-0.0001478043	0.1393966	-0.1438913	0.001737321	-0.0005134307	0.2657704	-0.1534921	

2.126e+10	0.006513484	-0.3186534	0.004307493	-0.001253236	-0.01996125	-0.1680486	0.002337528	-0.000721351	
0.004307493	-0.001253236	0.2146292	-0.3088455	0.002663027	-0.001312046	0.1249493	-0.1583496	
-0.01996125	-0.1680486	0.002663027	-0.001312046	0.1175384	-0.2905673	0.00126876	-0.000897136	
0.002337528	-0.000721351	0.1249493	-0.1583496	0.00126876	-0.000897136	0.2655332	-0.188607	

2.128e+10	-0.01204872	-0.2923518	0.003437066	-0.00207509	-0.03615743	-0.1473177	0.001878777	-0.001097209	
0.003437066	-0.00207509	0.1961514	-0.3310407	0.001811822	-0.001777429	0.1089838	-0.1691746	
-0.03615743	-0.1473177	0.001811822	-0.001777429	0.09094258	-0.2883277	0.0007942691	-0.001072766	
0.001878777	-0.001097209	0.1089838	-0.1691746	0.0007942691	-0.001072766	0.2585225	-0.2213537	

2.13e+10	-0.02199316	-0.262129	0.002510423	-0.002539509	-0.04647753	-0.1231943	0.001449882	-0.001288669	
0.002510423	-0.002539509	0.1743488	-0.3487135	0.0009928016	-0.001939687	0.09229613	-0.1771482	
-0.04647753	-0.1231943	0.0009928016	-0.001939687	0.06645137	-0.2787179	0.0003764725	-0.001081021	
0.001449882	-0.001288669	0.09229613	-0.1771482	0.0003764725	-0.001081021	0.2463255	-0.2513813	

2.132e+10	-0.02368932	-0.2312498	0.001675134	-0.00269961	-0.05052357	-0.09784571	0.001113204	-0.001392791	
0.001675134	-0.00269961	0.1501598	-0.3620887	0.0002698512	-0.001836076	0.07464967	-0.1828596	
-0.05052357	-0.09784571	0.0002698512	-0.001836076	0.04648266	-0.2635625	5.496797e-05	-0.0009972262	
0.001113204	-0.001392791	0.07464967	-0.1828596	5.496797e-05	-0.0009972262	0.2291256	-0.2790315	

2.134e+10	-0.01837847	-0.2007806	0.0009873809	-0.00270854	-0.04896937	-0.07273692	0.000811712	-0.001503362	
0.0009873809	-0.00270854	0.1237889	-0.3711929	-0.0002881607	-0.001550246	0.05558997	-0.1859275	
-0.04896937	-0.07273692	-0.0002881607	-0.001550246	0.0313609	-0.2450817	-0.000208049	-0.0008912183	
0.000811712	-0.001503362	0.05558997	-0.1859275	-0.000208049	-0.0008912183	0.2062066	-0.3034465	

2.136e+10	-0.005209849	-0.1709106	0.0003572934	-0.002649215	-0.04196501	-0.04812235	0.0004510917	-0.001586933	
0.0003572934	-0.002649215	0.09525077	-0.3752704	-0.0006959711	-0.001173082	0.03540025	-0.1854515	
-0.04196501	-0.04812235	-0.0006959711	-0.001173082	0.02067114	-0.2238476	-0.000477475	-0.0007386292	
0.0004510917	-0.001586933	0.03540025	-0.1854515	-0.000477475	-0.0007386292	0.1778152	-0.3224974	

2.138e+10	0.0177387	-0.1446161	-0.0002657767	-0.002440169	-0.02841055	-0.02517091	4.750271e-05	-0.001532864	
-0.0002657767	-0.002440169	0.06554353	-0.3730864	-0.000991803	-0.0006973095	0.0150227	-0.1809073	
-0.02841055	-0.02517091	-0.000991803	-0.0006973095	0.01549694	-0.1997598	-0.0007274191	-0.0004531309	
4.750271e-05	-0.001532864	0.0150227	-0.1809073	-0.0007274191	-0.0004531309	0.1456846	-0.3343492	

2.14e+10	0.04910441	-0.1272438	-0.000751614	-0.002004947	-0.008192777	-0.00696767	-0.0002611498	-0.001305741	
-0.000751614	-0.002004947	0.03651875	-0.3639424	-0.001093543	-7.627619e-05	-0.004627206	-0.1723379	
-0.008192777	-0.00696767	-0.001093543	-7.627619e-05	0.01803282	-0.1744404	-0.0008278662	-1.488406e-05	
-0.0002611498	-0.001305741	-0.004627206	-0.1723379	-0.0008278662	-1.488406e-05	0.1122336	-0.3385304	

2.142e+10	0.08326736	-0.1218095	-0.000917957	-0.001475333	0.01593539	0.003572789	-0.0003517961	-0.001031034	
-0.000917957	-0.001475333	0.0101062	-0.3483034	-0.0008388144	0.0005810392	-0.02304634	-0.1600492	
0.01593539	0.003572789	-0.0008388144	0.0005810392	0.02868202	-0.1517227	-0.000658333	0.0004570423	
-0.0003517961	-0.001031034	-0.02304634	-0.1600492	-0.000658333	0.0004570423	0.07914319	-0.3358201	

2.144e+10	0.114904	-0.1263443	-0.00078444	-0.001127821	0.04007191	0.006439356	-0.000270045	-0.0009006781	
-0.00078444	-0.001127821	-0.01256169	-0.3271389	-0.0002136708	0.001005242	-0.04004128	-0.1437993	
0.04007191	0.006439356	-0.0002136708	0.001005242	0.04489724	-0.1346521	-0.0002259893	0.0007708252	
-0.000270045	-0.0009006781	-0.04004128	-0.1437993	-0.0002259893	0.0007708252	0.04662724	-0.3265984	

2.146e+10	0.1426138	-0.1372068	-0.0006091635	-0.00111266	0.06215853	0.00377412	-0.0002014124	-0.0009864478	
-0.0006091635	-0.00111266	-0.03085273	-0.3007114	0.0005688968	0.0009829399	-0.05482455	-0.1226767	
0.06215853	0.00377412	0.0005688968	0.0009829399	0.06342286	-0.1234287	0.0003283385	0.000789637	
-0.0002014124	-0.0009864478	-0.05482455	-0.1226767	0.0003283385	0.000789637	0.0152466	-0.3096349	

2.148e+10	0.1672842	-0.1533254	-0.0006579575	-0.001311623	0.08231552	-0.003076638	-0.0003003773	-0.001195852	
-0.0006579575	-0.001311623	-0.04309765	-0.2688273	0.001205462	0.0005053437	-0.06512943	-0.09619577	
0.08231552	-0.003076638	0.001205462	0.0005053437	0.08307653	-0.1167489	0.0008210269	0.0004942203	
-0.0003003773	-0.001195852	-0.06512943	-0.09619577	0.0008210269	0.0004942203	-0.01212723	-0.2835508	

2.15e+10	0.187889	-0.1756697	-0.0009941107	-0.001473275	0.10023	-0.01440605	-0.0006042879	-0.001382503	
-0.0009941107	-0.001473275	-0.04638399	-0.2327634	0.001471177	-0.0002489974	-0.06808376	-0.06561008	
0.10023	-0.01440605	0.001471177	-0.0002489974	0.1039748	-0.1146159	0.001096854	-4.04556e-05	
-0.0006042879	-0.001382503	-0.06808376	-0.06561008	0.001096854	-4.04556e-05	-0.0312799	-0.2493557	

2.152e+10	0.2012417	-0.2032608	-0.001497523	-0.001420104	0.1140403	-0.02999878	-0.001067456	-0.001433146	
-0.001497523	-0.001420104	-0.03842013	-0.1960101	0.001298748	-0.001029191	-0.06197016	-0.03391361	
0.1140403	-0.02999878	0.001298748	-0.001029191	0.1252722	-0.1182241	0.001054754	-0.0006762045	
-0.001067456	-0.001433146	-0.06197016	-0.03391361	0.001054754	-0.0006762045	-0.03915401	-0.2108454	

2.154e+10	0.2055816	-0.2322534	-0.002011188	-0.00111482	0.1221098	-0.04771176	-0.001615627	-0.001279153	
-0.002011188	-0.00111482	-0.01960329	-0.1631868	0.0007627538	-0.001614931	-0.04698841	-0.004474812	
0.1221098	-0.04771176	0.0007627538	-0.001614931	0.1444547	-0.1279916	0.0006718704	-0.001232349	
-0.001615627	-0.001279153	-0.04698841	-0.004474812	0.0006718704	-0.001232349	-0.03574532	-0.1726076	

2.156e+10	0.2024842	-0.258814	-0.002432952	-0.0005854476	0.1248961	-0.06483126	-0.002161478	-0.0008675942	
-0.002432952	-0.0005854476	0.007539148	-0.1374734	1.736577e-05	-0.001870219	-0.02438799	0.02053659	
0.1248961	-0.06483126	1.736577e-05	-0.001870219	0.159184	-0.1423219	2.677003e-05	-0.001529066	
-0.002161478	-0.0008675942	-0.02438799	0.02053659	2.677003e-05	-0.001529066	-0.02266901	-0.1371999	

2.158e+10	0.1949882	-0.2819666	-0.002672833	0.0001438198	0.1242875	-0.08003951	-0.002562404	-0.0001724408	
-0.002672833	0.0001438198	0.04026786	-0.1202573	-0.0007468474	-0.001746734	0.004858	0.03933817	
0.1242875	-0.08003951	-0.0007468474	-0.001746734	0.1688945	-0.1584861	-0.0006952136	-0.001449724	
-0.002562404	-0.0001724408	0.004858	0.03933817	-0.0006952136	-0.001449724	-0.0006316367	-0.1061281	

2.16e+10	0.1845271	-0.3029456	-0.002607671	0.0009968158	0.1217419	-0.09383854	-0.002638037	0.0007172332	
-0.002607671	0.0009968158	0.07653158	-0.1126043	-0.001337107	-0.001297559	0.03936949	0.04944992	
0.1217419	-0.09383854	-0.001337107	-0.001297559	0.1748134	-0.1749782	-0.001261184	-0.001022016	
-0.002638037	0.0007172332	0.03936949	0.04944992	-0.001261184	-0.001022016	0.03016504	-0.08228298	

2.162e+10	0.170072	-0.3223794	-0.002172468	0.001783215	0.1170891	-0.1069771	-0.002311203	0.001577778	
-0.002172468	0.001783215	0.1134126	-0.1157768	-0.001624665	-0.0006832798	0.07568029	0.04862506	
0.1170891	-0.1069771	-0.001624665	-0.0006832798	0.1777861	-0.1919982	-0.001522278	-0.0004250278	
-0.002311203	0.001577778	0.07568029	0.04862506	-0.001522278	-0.0004250278	0.06692194	-0.06955676	

2.164e+10	0.1505471	-0.3384363	-0.001466882	0.002302543	0.1095479	-0.118924	-0.001692087	0.00220119	
-0.001466882	0.002302543	0.146702	-0.1294354	-0.001616416	-9.659905e-05	0.1089736	0.03720591	
0.1095479	-0.118924	-0.001616416	-9.659905e-05	0.1770339	-0.2099146	-0.001500559	0.0001402593	
-0.001692087	0.00220119	0.1089736	0.03720591	-0.001500559	0.0001402593	0.1039773	-0.06938096	

2.166e+10	0.1271594	-0.3484212	-0.0006921805	0.002487491	0.09936761	-0.1282241	-0.0009691214	0.002533896	
-0.0006921805	0.002487491	0.173006	-0.1507952	-0.001423781	0.000347607	0.1360659	0.01829238	
0.09936761	-0.1282241	-0.001423781	0.000347607	0.1713014	-0.2274733	-0.001315063	0.0005827557	
-0.0009691214	0.002533896	0.1360659	0.01829238	-0.001315063	0.0005827557	0.1364431	-0.07925248	

2.168e+10	0.1030318	-0.3512715	-7.171966e-06	0.002417189	0.08802096	-0.1340195	-0.0002649858	0.002646869	
-7.171966e-06	0.002417189	0.1912987	-0.1760376	-0.001164004	0.0006417696	0.1564862	-0.004806783	
0.08802096	-0.1340195	-0.001164004	0.0006417696	0.1607064	-0.2422034	-0.001053689	0.0009172503	
-0.0002649858	0.002646869	0.1564862	-0.004806783	-0.001053689	0.0009172503	0.1626999	-0.09507035	

2.17e+10	0.08072585	-0.3484411	0.0005518002	0.002214796	0.07702692	-0.1368403	0.0004093247	0.002616881	
0.0005518002	0.002214796	0.2025364	-0.202268	-0.0008933432	0.0008315997	0.1709222	-0.03031663	
0.07702692	-0.1368403	-0.0008933432	0.0008315997	0.1472437	-0.252412	-0.0007312808	0.00116984	
0.0004093247	0.002616881	0.1709222	-0.03031663	-0.0007312808	0.00116984	0.1836111	-0.1143546	

2.172e+10	0.06028023	-0.3418662	0.001030416	0.001932558	0.0666475	-0.13791	0.00107815	0.002440454	
0.001030416	0.001932558	0.2081378	-0.2284119	-0.0006141366	0.0009453262	0.1795621	-0.05758542	
0.0666475	-0.13791	-0.0006141366	0.0009453262	0.1331128	-0.258399	-0.0003456123	0.001320211	
0.00107815	0.002440454	0.1795621	-0.05758542	-0.0003456123	0.001320211	0.1996987	-0.1367263	

2.174e+10	0.04069792	-0.331219	0.001441284	0.001543913	0.05602115	-0.1373442	0.00170234	0.002077781	
0.001441284	0.001543913	0.2086112	-0.2540307	-0.0003286981	0.0009744558	0.1818965	-0.0853847	
0.05602115	-0.1373442	-0.0003286981	0.0009744558	0.1187736	-0.2613136	6.228205e-05	0.001335048	
0.00170234	0.002077781	0.1818965	-0.0853847	6.228205e-05	0.001335048	0.2099464	-0.1615871	

2.176e+10	0.02307408	-0.3144345	0.001722947	0.001034187	0.04509232	-0.1339118	0.002200236	0.001536448	
0.001722947	0.001034187	0.2040671	-0.2782003	-7.27899e-05	0.0009066728	0.1781765	-0.1118609	
0.04509232	-0.1339118	-7.27899e-05	0.0009066728	0.1036581	-0.2609452	0.0004304428	0.001223808	
0.002200236	0.001536448	0.1781765	-0.1118609	0.0004304428	0.001223808	0.213519	-0.1869547	

2.178e+10	0.01133828	-0.2911693	0.001797883	0.0004644286	0.03561239	-0.126534	0.002508713	0.000880063	
0.001797883	0.0004644286	0.1950871	-0.2996859	0.0001040874	0.0007648197	0.1696798	-0.1356379	
0.03561239	-0.126534	0.0001040874	0.0007648197	0.08839883	-0.2556268	0.0007261107	0.001029862	
0.002508713	0.000880063	0.1696798	-0.1356379	0.0007261107	0.001029862	0.2111689	-0.2103083	

2.18e+10	0.009100451	-0.2648437	0.001653688	-4.117191e-05	0.03005717	-0.1162057	0.002616028	0.0001938444	
0.001653688	-4.117191e-05	0.1831077	-0.3175612	0.0001768631	0.0006087271	0.1578807	-0.1564106	
0.03005717	-0.1162057	0.0001768631	0.0006087271	0.07577774	-0.2444962	0.0009519977	0.0007901672	
0.002616028	0.0001938444	0.1578807	-0.1564106	0.0009519977	0.0007901672	0.2050981	-0.2303023	

2.182e+10	0.01619108	-0.240656	0.001380504	-0.0003828216	0.02928914	-0.1056347	0.002558956	-0.000466333	
0.001380504	-0.0003828216	0.1696686	-0.3320759	0.0001713521	0.0005008492	0.1435268	-0.1746516	
0.02928914	-0.1056347	0.0001713521	0.0005008492	0.06888239	-0.2294224	0.001121249	0.000514603	
0.002558956	-0.000466333	0.1435268	-0.1746516	0.001121249	0.000514603	0.1971997	-0.2476211	

2.184e+10	0.02931727	-0.2211653	0.001098923	-0.0005677064	0.0319355	-0.09681904	0.002367579	-0.001096584	
0.001098923	-0.0005677064	0.1554201	-0.3441533	0.0001449412	0.0004595549	0.1264665	-0.1905276	
0.0319355	-0.09681904	0.0001449412	0.0004595549	0.06835933	-0.2137343	0.001228032	0.000195523	
0.002367579	-0.001096584	0.1264665	-0.1905276	0.001228032	0.000195523	0.1875249	-0.2635419	

2.186e+10	0.04665859	-0.2056842	0.0008499752	-0.00066985	0.03668244	-0.0896549	0.002022133	-0.001693646	
0.0008499752	-0.00066985	0.1399107	-0.3542951	0.0001315755	0.0004615936	0.1065484	-0.203324	
0.03668244	-0.0896549	0.0001315755	0.0004615936	0.07276014	-0.1995275	0.001243574	-0.0001582312	
0.002022133	-0.001693646	0.1065484	-0.203324	0.001243574	-0.0001582312	0.1750712	-0.2778901	

2.188e+10	0.06907643	-0.1947525	0.0006049826	-0.0007144825	0.04398122	-0.08401756	0.001493726	-0.002198941	
0.0006049826	-0.0007144825	0.1227055	-0.3619143	0.0001305687	0.0004927546	0.08435025	-0.2121352	
0.04398122	-0.08401756	0.0001305687	0.0004927546	0.08116028	-0.186986	0.00114598	-0.0005094085	
0.001493726	-0.002198941	0.08435025	-0.2121352	0.00114598	-0.0005094085	0.1596093	-0.2891078	

2.19e+10	0.09607804	-0.192014	0.0003683559	-0.0006617234	0.05425109	-0.08174109	0.0008143023	-0.002516322	
0.0003683559	-0.0006617234	0.1044532	-0.366007	0.0001504251	0.0005666124	0.06098535	-0.2164112	
0.05425109	-0.08174109	0.0001504251	0.0005666124	0.09411379	-0.1768012	0.0009432743	-0.0008081127	
0.0008143023	-0.002516322	0.06098535	-0.2164112	0.0009432743	-0.0008081127	0.1427343	-0.2958924	

2.192e+10	0.1228991	-0.2002783	0.0002221971	-0.0004971003	0.06530807	-0.08512344	9.202506e-05	-0.002591166	
0.0002221971	-0.0004971003	0.08650501	-0.3664275	0.0002369495	0.0006860113	0.03746291	-0.2162794	
0.06530807	-0.08512344	0.0002369495	0.0006860113	0.1115098	-0.1714348	0.0006742729	-0.001020456	
9.202506e-05	-0.002591166	0.03746291	-0.2162794	0.0006742729	-0.001020456	0.1264574	-0.2986394	

2.194e+10	0.1437706	-0.217461	0.000251755	-0.0003097292	0.07338626	-0.09379171	-0.0005619558	-0.002469467	
0.000251755	-0.0003097292	0.06975646	-0.3640878	0.0004418698	0.000799555	0.01428302	-0.2121297	
0.07338626	-0.09379171	0.0004418698	0.000799555	0.1308204	-0.1732834	0.0003833444	-0.001151571	
-0.0005619558	-0.002469467	0.01428302	-0.2121297	0.0003833444	-0.001151571	0.1114329	-0.2990109	

2.196e+10	0.1567632	-0.238504	0.0004309257	-0.0002478333	0.076547	-0.1047646	-0.001131565	-0.002243036	
0.0004309257	-0.0002478333	0.0538211	-0.3598676	0.000763563	0.0008127992	-0.008406778	-0.2038968	
0.076547	-0.1047646	0.000763563	0.0008127992	0.1483077	-0.182239	8.012915e-05	-0.001227788	
-0.001131565	-0.002243036	-0.008406778	-0.2038968	8.012915e-05	-0.001227788	0.09651139	-0.2977386	

2.198e+10	0.1636486	-0.2601717	0.000615687	-0.0003841862	0.07560685	-0.1153855	-0.001672319	-0.001931941	
0.000615687	-0.0003841862	0.037924	-0.35323	0.001125872	0.000649132	-0.03007637	-0.1908648	
0.07560685	-0.1153855	0.001125872	0.000649132	0.161534	-0.1959913	-0.0002546302	-0.001249315	
-0.001672319	-0.001931941	-0.03007637	-0.1908648	-0.0002546302	-0.001249315	0.08082902	-0.2933479	

2.2e+10	0.1661274	-0.2824114	0.0006660076	-0.0006498615	0.07204746	-0.1250266	-0.002193806	-0.001468071	
0.0006660076	-0.0006498615	0.02269994	-0.3427591	0.001414827	0.0003010406	-0.04909079	-0.1724488	
0.07204746	-0.1250266	0.001414827	0.0003010406	0.1703536	-0.2122259	-0.0006257255	-0.001180295	
-0.002193806	-0.001468071	-0.04909079	-0.1724488	-0.0006257255	-0.001180295	0.06609959	-0.2839787	

2.202e+10	0.1634034	-0.305642	0.0005632159	-0.0009081265	0.06605533	-0.1340708	-0.002599279	-0.0007941834	
0.0005632159	-0.0009081265	0.01035955	-0.3281865	0.001540655	-0.0001615325	-0.06327109	-0.1492746	
0.06605533	-0.1340708	0.001540655	-0.0001615325	0.1753183	-0.2300632	-0.0009956412	-0.0009790973	
-0.002599279	-0.0007941834	-0.06327109	-0.1492746	-0.0009956412	-0.0009790973	0.05552271	-0.2700309	

2.204e+10	0.1540101	-0.3281351	0.0003965738	-0.001099358	0.05707188	-0.1418277	-0.002748118	3.165744e-05	
0.0003965738	-0.001099358	0.002742854	-0.3111879	0.001487955	-0.0006423853	-0.07105427	-0.1234176	
0.05707188	-0.1418277	0.001487955	-0.0006423853	0.1761747	-0.2494015	-0.001291929	-0.0006396335	
-0.002748118	3.165744e-05	-0.07105427	-0.1234176	-0.001291929	-0.0006396335	0.05088735	-0.2545738	

2.206e+10	0.138346	-0.3468901	0.0002144244	-0.001286452	0.04533073	-0.1467481	-0.002589362	0.0008493364	
0.0002144244	-0.001286452	-0.0003233358	-0.2940598	0.001289764	-0.001089588	-0.07254485	-0.09707863	
0.04533073	-0.1467481	0.001289764	-0.001089588	0.1718157	-0.2693334	-0.001452944	-0.0002145521	
-0.002589362	0.0008493364	-0.07254485	-0.09707863	-0.001452944	-0.0002145521	0.05090135	-0.2404003	

2.208e+10	0.1188838	-0.3599138	-6.800221e-05	-0.001512672	0.03238419	-0.147722	-0.002207353	0.001533579	
-6.800221e-05	-0.001512672	-0.0002324611	-0.2774799	0.0009510852	-0.001490034	-0.06851989	-0.0712027	
0.03238419	-0.147722	0.0009510852	-0.001490034	0.1617602	-0.2878411	-0.001478807	0.0002268175	
-0.002207353	0.001533579	-0.06851989	-0.0712027	-0.001478807	0.0002268175	0.05348991	-0.2275373	

2.21e+10	0.09825861	-0.3675528	-0.0005444604	-0.001665779	0.02007928	-0.1450569	-0.001694437	0.002085004	
-0.0005444604	-0.001665779	0.002998777	-0.2607128	0.0004450727	-0.001787215	-0.05854889	-0.04618937	
0.02007928	-0.1450569	0.0004450727	-0.001787215	0.1470594	-0.3027089	-0.001401187	0.0006629366	
-0.001694437	0.002085004	-0.05854889	-0.04618937	-0.001401187	0.0006629366	0.05916325	-0.2147908	

2.212e+10	0.07721892	-0.3712443	-0.00114042	-0.001573115	0.009147389	-0.1400115	-0.001038728	0.002526397	
-0.00114042	-0.001573115	0.0109867	-0.2443932	-0.0001927528	-0.00186778	-0.04168206	-0.02408455	
0.009147389	-0.1400115	-0.0001927528	-0.00186778	0.1297526	-0.3131424	-0.001208728	0.001106043	
-0.001038728	0.002526397	-0.04168206	-0.02408455	-0.001208728	0.001106043	0.07006074	-0.2036559	

2.214e+10	0.05489582	-0.3710815	-0.001658188	-0.001209615	-0.0009468873	-0.1332966	-0.0002063818	0.002775237	
-0.001658188	-0.001209615	0.02396426	-0.2314627	-0.0008228275	-0.001664865	-0.01912872	-0.008305498	
-0.0009468873	-0.1332966	-0.0008228275	-0.001664865	0.1110135	-0.3197573	-0.0008511293	0.001519801	
-0.0002063818	0.002775237	-0.01912872	-0.008305498	-0.0008511293	0.001519801	0.08540816	-0.1982774	

2.216e+10	0.03137065	-0.3650245	-0.00199315	-0.00070542	-0.01063119	-0.1241858	0.0007189062	0.002695788	
-0.00199315	-0.00070542	0.03922902	-0.2241024	-0.001301174	-0.001234337	0.005334661	-0.0004776262	
-0.01063119	-0.1241858	-0.001301174	-0.001234337	0.09066607	-0.3226845	-0.0003234779	0.001805044	
0.0007189062	0.002695788	0.005334661	-0.0004776262	-0.0003234779	0.001805044	0.1005606	-0.2006399	

2.218e+10	0.00939477	-0.3512744	-0.002192879	-0.0001514181	-0.0188365	-0.1115812	0.001535511	0.002258927	
-0.002192879	-0.0001514181	0.05359696	-0.2213742	-0.001577555	-0.0006856129	0.02838059	0.000994147	
-0.0188365	-0.1115812	-0.001577555	-0.0006856129	0.0687731	-0.3206067	0.0002929891	0.001883245	
0.001535511	0.002258927	0.02838059	0.000994147	0.0002929891	0.001883245	0.1111481	-0.2079609	

2.22e+10	-0.007142621	-0.3307829	-0.002283274	0.0005024282	-0.02343375	-0.0956935	0.002091657	0.001603709	
-0.002283274	0.0005024282	0.06642633	-0.2207524	-0.001655807	-7.490016e-05	0.0495591	-0.00147339	
-0.02343375	-0.0956935	-0.001655807	-7.490016e-05	0.04706451	-0.311899	0.0009031743	0.001759199	
0.002091657	0.001603709	0.0495591	-0.00147339	0.0009031743	0.001759199	0.1172992	-0.2159035	

2.222e+10	-0.01615237	-0.3069753	-0.002122165	0.001290804	-0.02291378	-0.0785116	0.002407532	0.000892102	
-0.002122165	0.001290804	0.07925973	-0.2214004	-0.001488814	0.0005649527	0.06978365	-0.007588201	
-0.02291378	-0.0785116	-0.001488814	0.0005649527	0.02868953	-0.2965957	0.001473111	0.001469157	
0.002407532	0.000892102	0.06978365	-0.007588201	0.001473111	0.001469157	0.121739	-0.223415	

2.224e+10	-0.01863197	-0.2829071	-0.001538498	0.002016645	-0.01774671	-0.06225907	0.002567526	0.000139259	
-0.001538498	0.002016645	0.09256044	-0.2247243	-0.001003383	0.001099615	0.08817707	-0.01843721	
-0.01774671	-0.06225907	-0.001003383	0.001099615	0.01585111	-0.2769267	0.001998575	0.0009914928	
0.002567526	0.000139259	0.08817707	-0.01843721	0.001998575	0.0009914928	0.1250888	-0.2322568	

2.226e+10	-0.01605326	-0.2587625	-0.0006330623	0.002342981	-0.009245739	-0.04752092	0.002516276	-0.0007143117	
-0.0006330623	0.002342981	0.1045974	-0.2314636	-0.0002749683	0.001295848	0.1023137	-0.03337607	
-0.009245739	-0.04752092	-0.0002749683	0.001295848	0.008590893	-0.2552054	0.002385719	0.000262349	
0.002516276	-0.0007143117	0.1023137	-0.03337607	0.002385719	0.000262349	0.1250376	-0.2428171	

2.228e+10	-0.00722666	-0.2339884	0.0002196841	0.002151916	0.002631309	-0.03381879	0.002101893	-0.001570301	
0.0002196841	0.002151916	0.1138096	-0.2401799	0.0004136722	0.00103693	0.111124	-0.04962207	
0.002631309	-0.03381879	0.0004136722	0.00103693	0.006337565	-0.2321135	0.002442885	-0.0006631678	
0.002101893	-0.001570301	0.111124	-0.04962207	0.002442885	-0.0006631678	0.1200266	-0.2521392	

2.23e+10	0.01035119	-0.2109662	0.0007223551	0.001679549	0.01927118	-0.02208786	0.00132558	-0.002169009	
0.0007223551	0.001679549	0.1207108	-0.2488815	0.000775928	0.0004769808	0.1160888	-0.06488248	
0.01927118	-0.02208786	0.000775928	0.0004769808	0.009997842	-0.2076895	0.002065326	-0.001553229	
0.00132558	-0.002169009	0.1160888	-0.06488248	0.002065326	-0.001553229	0.1120779	-0.2569394	

2.232e+10	0.0361832	-0.1948285	0.0009032061	0.001248189	0.04070186	-0.01535804	0.0004275973	-0.002338529	
0.0009032061	0.001248189	0.1271122	-0.2572825	0.0007570155	-8.857663e-05	0.1192964	-0.07921236	
0.04070186	-0.01535804	0.0007570155	-8.857663e-05	0.0212989	-0.1838	0.001369463	-0.002166695	
0.0004275973	-0.002338529	0.1192964	-0.07921236	0.001369463	-0.002166695	0.1051155	-0.2570262	

2.234e+10	0.06559214	-0.188843	0.0009789833	0.0009545161	0.06406391	-0.01613692	-0.0003345987	-0.002168133	
0.0009789833	0.0009545161	0.1336649	-0.2669342	0.0005125841	-0.0004831531	0.1210007	-0.0940609	
0.06406391	-0.01613692	0.0005125841	-0.0004831531	0.04023915	-0.1640469	0.0005787053	-0.002451727	
-0.0003345987	-0.002168133	0.1210007	-0.0940609	0.0005787053	-0.002451727	0.1010165	-0.2553338	

2.236e+10	0.09372365	-0.1918729	0.001049844	0.0006969073	0.08570172	-0.02398963	-0.0009150118	-0.00184976	
0.001049844	0.0006969073	0.1390348	-0.2788729	0.0001858257	-0.0007144181	0.119756	-0.1095287	
0.08570172	-0.02398963	0.0001858257	-0.0007144181	0.06428158	-0.1512031	-0.0001966501	-0.002502586	
-0.0009150118	-0.00184976	0.119756	-0.1095287	-0.0001966501	-0.002502586	0.09825383	-0.2540629	

2.238e+10	0.1190862	-0.2010593	0.001051	0.0004239914	0.1038844	-0.03674048	-0.001394388	-0.00143739	
0.001051	0.0004239914	0.1417129	-0.2922875	-0.0001975822	-0.0008185822	0.1149547	-0.1238533	
0.1038844	-0.03674048	-0.0001975822	-0.0008185822	0.0901208	-0.1457245	-0.0009691703	-0.002356051	
-0.001394388	-0.00143739	0.1149547	-0.1238533	-0.0009691703	-0.002356051	0.09501943	-0.2521935	

2.24e+10	0.1419839	-0.2156328	0.0009488092	0.0002235547	0.1185922	-0.05313086	-0.001754976	-0.0008700326	
0.0009488092	0.0002235547	0.1416777	-0.3055955	-0.000625433	-0.0007536052	0.10801	-0.1355879	
0.1185922	-0.05313086	-0.000625433	-0.0007536052	0.1158171	-0.14655	-0.001702791	-0.001948511	
-0.001754976	-0.0008700326	0.10801	-0.1355879	-0.001702791	-0.001948511	0.09237215	-0.2476005	

2.242e+10	0.1611162	-0.2361787	0.0008499904	0.0001644364	0.1292181	-0.07297419	-0.001863428	-0.000182054	
0.0008499904	0.0001644364	0.1400829	-0.3182873	-0.000997066	-0.000477714	0.1007691	-0.1451985	
0.1292181	-0.07297419	-0.000997066	-0.000477714	0.1406807	-0.1530051	-0.002242977	-0.001271083	
-0.001863428	-0.000182054	0.1007691	-0.1451985	-0.002242977	-0.001271083	0.09344849	-0.2408248	

2.244e+10	0.1737591	-0.2614691	0.0008727119	0.0001641751	0.1342106	-0.09522347	-0.00166806	0.0004453956	
0.0008727119	0.0001641751	0.1374462	-0.3311704	-0.001189343	-6.087388e-05	0.09342825	-0.1542988	
0.1342106	-0.09522347	-0.001189343	-6.087388e-05	0.1638521	-0.1651902	-0.002460054	-0.0004723961	
-0.00166806	0.0004453956	0.09342825	-0.1542988	-0.002460054	-0.0004723961	0.09939132	-0.2354298	

2.246e+10	0.1787214	-0.2882031	0.0009952024	8.145157e-05	0.132893	-0.1173961	-0.00129546	0.0008593983	
0.0009952024	8.145157e-05	0.1328333	-0.3449265	-0.001183479	0.0003588918	0.08459214	-0.1633343	
0.132893	-0.1173961	-0.001183479	0.0003588918	0.1836294	-0.1828491	-0.002393282	0.000256613	
-0.00129546	0.0008593983	0.08459214	-0.1633343	-0.002393282	0.000256613	0.1076364	-0.2342767	

2.248e+10	0.1772894	-0.3134219	0.001094366	-0.0001286359	0.1264341	-0.137169	-0.0009120901	0.001074739	
0.001094366	-0.0001286359	0.1249645	-0.3587482	-0.001058481	0.0007037855	0.07343112	-0.1709567	
0.1264341	-0.137169	-0.001058481	0.0007037855	0.1983671	-0.2046489	-0.002179425	0.000859817	
-0.0009120901	0.001074739	0.07343112	-0.1709567	-0.002179425	0.000859817	0.1148789	-0.2365837	

2.25e+10	0.1717758	-0.3362436	0.001081044	-0.000392229	0.1168689	-0.1537182	-0.0005740515	0.001193857	
0.001081044	-0.000392229	0.1137257	-0.3709379	-0.0008821887	0.0009904949	0.06096438	-0.1757569	
0.1168689	-0.1537182	-0.0008821887	0.0009904949	0.2074204	-0.2284562	-0.001878848	0.001392305	
-0.0005740515	0.001193857	0.06096438	-0.1757569	-0.001878848	0.001392305	0.1207121	-0.2397903	

2.252e+10	0.1632844	-0.3575174	0.0009736274	-0.0006112527	0.1055224	-0.1676445	-0.0002367995	0.001267774	
0.0009736274	-0.0006112527	0.1002483	-0.380392	-0.0006518864	0.001256006	0.04883446	-0.1779716	
0.1055224	-0.1676445	-0.0006518864	0.001256006	0.2115016	-0.2526214	-0.001443071	0.00187522	
-0.0002367995	0.001267774	0.04883446	-0.1779716	-0.001443071	0.00187522	0.1271578	-0.2433959	

2.254e+10	0.1512298	-0.3776235	0.0008524078	-0.0007676192	0.09248715	-0.1794595	0.0001284647	0.001260772	
0.0008524078	-0.0007676192	0.08575804	-0.3873093	-0.0003292689	0.00148401	0.03748796	-0.1789454	
0.09248715	-0.1794595	-0.0003292689	0.00148401	0.2115138	-0.2766586	-0.0008441858	0.002218834	
0.0001284647	0.001260772	0.03748796	-0.1789454	-0.0008441858	0.002218834	0.1348506	-0.2496926	

2.256e+10	0.1349316	-0.3954538	0.0007496362	-0.0009208498	0.07761962	-0.1888617	0.0004752335	0.001132749	
0.0007496362	-0.0009208498	0.07026083	-0.3923791	8.223737e-05	0.001612805	0.02587566	-0.1793429	
0.07761962	-0.1888617	8.223737e-05	0.001612805	0.2074455	-0.3007319	-0.0001683456	0.002329726	
0.0004752335	0.001132749	0.02587566	-0.1793429	-0.0001683456	0.002329726	0.1411204	-0.260399	

2.258e+10	0.1150325	-0.4093233	0.0006170748	-0.001113783	0.0614649	-0.1951912	0.0007367759	0.0009127378	
0.0006170748	-0.001113783	0.05297867	-0.3952149	0.0005264043	0.001606452	0.01314292	-0.178206	
0.0614649	-0.1951912	0.0005264043	0.001606452	0.1985961	-0.3242444	0.000451515	0.002224234	
0.0007367759	0.0009127378	0.01314292	-0.178206	0.000451515	0.002224234	0.1428266	-0.2738071	

2.26e+10	0.09323833	-0.4184277	0.0003901706	-0.001314413	0.0450523	-0.1983786	0.0008996282	0.0006678062	
0.0003901706	-0.001314413	0.03396889	-0.3943698	0.0009483012	0.001479231	-4.560283e-05	-0.17419	
0.0450523	-0.1983786	0.0009483012	0.001479231	0.1847404	-0.3456249	0.0009636001	0.001997304	
0.0008996282	0.0006678062	-4.560283e-05	-0.17419	0.0009636001	0.001997304	0.139705	-0.2863363	

2.262e+10	0.07103956	-0.4232902	6.174018e-05	-0.001438275	0.02909717	-0.1990647	0.001003053	0.0004409569	
6.174018e-05	-0.001438275	0.01471835	-0.3884312	0.001331552	0.001261742	-0.01206103	-0.1671554	
0.02909717	-0.1990647	0.001331552	0.001261742	0.1668392	-0.3633356	0.001401085	0.001709111	
0.001003053	0.0004409569	-0.01206103	-0.1671554	0.001401085	0.001709111	0.1342453	-0.2962858	

2.264e+10	0.04866235	-0.4248623	-0.0002920542	-0.001427837	0.01351564	-0.1979491	0.001091978	0.0002199037	
-0.0002920542	-0.001427837	-0.002550789	-0.3776414	0.001681748	0.0009608869	-0.02198435	-0.1582906	
0.01351564	-0.1979491	0.001681748	0.0009608869	0.1464495	-0.3768864	0.001798806	0.001341913	
0.001091978	0.0002199037	-0.02198435	-0.1582906	0.001798806	0.001341913	0.1283425	-0.3048231	

2.266e+10	0.0254202	-0.4230069	-0.0005832091	-0.001320439	-0.00228139	-0.1950867	0.001169846	-3.6022e-05	
-0.0005832091	-0.001320439	-0.01668333	-0.3633372	0.001991092	0.0005524032	-0.03041179	-0.1486816	
-0.00228139	-0.1950867	0.001991092	0.0005524032	0.1244366	-0.3867859	0.00212346	0.0008586665	
0.001169846	-3.6022e-05	-0.03041179	-0.1486816	0.00212346	0.0008586665	0.1210714	-0.3135683	

2.268e+10	0.00146769	-0.4162974	-0.0008089697	-0.001202513	-0.01851185	-0.189719	0.001198377	-0.0003473443	
-0.0008089697	-0.001202513	-0.02787437	-0.3463702	0.002206347	1.530872e-05	-0.03829794	-0.1378177	
-0.01851185	-0.189719	0.002206347	1.530872e-05	0.1005528	-0.3931654	0.002305125	0.0002794365	
0.001198377	-0.0003473443	-0.03829794	-0.1378177	0.002305125	0.0002794365	0.1103485	-0.3214045	

2.27e+10	-0.0213988	-0.4034629	-0.001041199	-0.001102578	-0.03450278	-0.1810416	0.001136214	-0.0006951552	
-0.001041199	-0.001102578	-0.03592129	-0.3262585	0.002253474	-0.000621472	-0.04508154	-0.1242652	
-0.03450278	-0.1810416	0.002253474	-0.000621472	0.0746438	-0.3949278	0.002316327	-0.0003227151	
0.001136214	-0.0006951552	-0.04508154	-0.1242652	0.002316327	-0.0003227151	0.09647992	-0.3252104	

2.272e+10	-0.04065152	-0.3848992	-0.001330662	-0.0009575867	-0.04917847	-0.1688334	0.0009670222	-0.001038748	
-0.001330662	-0.0009575867	-0.03882023	-0.3026202	0.002085749	-0.001283262	-0.04866157	-0.1077734	
-0.04917847	-0.1688334	0.002085749	-0.001283262	0.04785529	-0.3905389	0.002188516	-0.0008916912	
0.0009670222	-0.001038748	-0.04866157	-0.1077734	0.002188516	-0.0008916912	0.08267792	-0.3233679	

2.274e+10	-0.05477756	-0.3624137	-0.001632472	-0.0006868987	-0.06162299	-0.1535242	0.0007009431	-0.001345238	
-0.001632472	-0.0006868987	-0.03390753	-0.2773953	0.001704953	-0.001882611	-0.04727655	-0.09020151	
-0.06162299	-0.1535242	0.001704953	-0.001882611	0.02251705	-0.3794525	0.001957504	-0.001427803	
0.0007009431	-0.001345238	-0.04727655	-0.09020151	0.001957504	-0.001427803	0.07208409	-0.3175615	

2.276e+10	-0.06390732	-0.337574	-0.001844781	-0.0002961465	-0.07144577	-0.135509	0.0003490747	-0.001607741	
-0.001844781	-0.0002961465	-0.02062256	-0.2545359	0.001151807	-0.002354354	-0.04128713	-0.0739352	
-0.07144577	-0.135509	0.001151807	-0.002354354	0.0006456912	-0.3626994	0.001608455	-0.001951074	
0.0003490747	-0.001607741	-0.04128713	-0.0739352	0.001608455	-0.001951074	0.06482717	-0.3108522	

2.278e+10	-0.06811095	-0.3103028	-0.001937206	0.000122897	-0.07823996	-0.1146955	-0.0001160421	-0.001819103	
-0.001937206	0.000122897	-0.001088107	-0.2370475	0.0004664084	-0.002665806	-0.03227976	-0.05977496	
-0.07823996	-0.1146955	0.0004664084	-0.002665806	-0.01703502	-0.3415855	0.001082204	-0.002433298	
-0.0001160421	-0.001819103	-0.03227976	-0.05977496	0.001082204	-0.002433298	0.05885998	-0.3039126	

2.28e+10	-0.06551579	-0.2804285	-0.001980972	0.0005363623	-0.08056231	-0.09080334	-0.0007337284	-0.001907447	
-0.001980972	0.0005363623	0.02218113	-0.2255721	-0.0003254029	-0.002776295	-0.02059216	-0.0470217	
-0.08056231	-0.09080334	-0.0003254029	-0.002776295	-0.0301561	-0.316366	0.0003544338	-0.002768706	
-0.0007337284	-0.001907447	-0.02059216	-0.0470217	0.0003544338	-0.002768706	0.05389473	-0.2948956	

2.282e+10	-0.05335858	-0.2503877	-0.00199967	0.001029015	-0.07615091	-0.06506201	-0.001463798	-0.001741398	
-0.00199967	0.001029015	0.04831474	-0.2202429	-0.001165413	-0.00261879	-0.00492646	-0.03630326	
-0.07615091	-0.06506201	-0.001165413	-0.00261879	-0.0370054	-0.2870042	-0.0005058227	-0.002842546	
-0.001463798	-0.001741398	-0.00492646	-0.03630326	-0.0005058227	-0.002842546	0.05272141	-0.2832452	

2.284e+10	-0.03118083	-0.2251411	-0.001868747	0.001659152	-0.06375836	-0.04055601	-0.002146442	-0.001243248	
-0.001868747	0.001659152	0.07642505	-0.2226485	-0.001926506	-0.002157709	0.01473264	-0.03042577	
-0.06375836	-0.04055601	-0.001926506	-0.002157709	-0.03485494	-0.2553421	-0.001363556	-0.002612683	
-0.002146442	-0.001243248	0.01473264	-0.03042577	-0.001363556	-0.002612683	0.05758369	-0.2721241	

2.286e+10	-0.002492129	-0.2087451	-0.001441624	0.002306185	-0.04451602	-0.0207487	-0.002608461	-0.0004796834	
-0.001441624	0.002306185	0.1032709	-0.2342349	-0.002466307	-0.00146264	0.03539439	-0.03158182	
-0.04451602	-0.0207487	-0.002466307	-0.00146264	-0.02254529	-0.2255561	-0.002106853	-0.002124578	
-0.002608461	-0.0004796834	0.03539439	-0.03158182	-0.002106853	-0.002124578	0.06670934	-0.2656006	

2.288e+10	0.02824137	-0.2016116	-0.0007484452	0.002754736	-0.02115174	-0.007324445	-0.002791549	0.0004181961	
-0.0007484452	0.002754736	0.1248356	-0.2538448	-0.002734054	-0.0006710422	0.05342973	-0.0387734	
-0.02115174	-0.007324445	-0.002734054	-0.0006710422	-0.002063797	-0.2017794	-0.002692223	-0.001436306	
-0.002791549	0.0004181961	0.05342973	-0.0387734	-0.002692223	-0.001436306	0.07592669	-0.2643003	

2.29e+10	0.05885229	-0.2021889	1.893392e-05	0.002924039	0.004284296	-0.0002008207	-0.00270309	0.001388603	
1.893392e-05	0.002924039	0.1388722	-0.2779147	-0.002772201	0.0001200674	0.06766613	-0.04916413	
0.004284296	-0.0002008207	-0.002772201	0.0001200674	0.02308078	-0.1856205	-0.003079259	-0.0005562657	
-0.00270309	0.001388603	0.06766613	-0.04916413	-0.003079259	-0.0005562657	0.08310182	-0.2655192	

2.292e+10	0.08874933	-0.2103653	0.0007438807	0.002919212	0.03069691	0.0004353896	-0.002270779	0.002406324	
0.0007438807	0.002919212	0.1458614	-0.3033213	-0.002614256	0.0008955697	0.07914458	-0.06132006	
0.03069691	0.0004353896	-0.002614256	0.0008955697	0.05033589	-0.1767523	-0.00315149	0.0004850606	
-0.002270779	0.002406324	0.07914458	-0.06132006	-0.00315149	0.0004850606	0.08955102	-0.2673296	

2.294e+10	0.1156037	-0.2269535	0.001487379	0.002822021	0.05623916	-0.006081324	-0.001375622	0.003307973	
0.001487379	0.002822021	0.1469841	-0.3287256	-0.002227291	0.001630131	0.08821475	-0.07572678	
0.05623916	-0.006081324	-0.002227291	0.001630131	0.07841125	-0.1748973	-0.002795252	0.00151833	
-0.001375622	0.003307973	0.08821475	-0.07572678	-0.002795252	0.00151833	0.0966631	-0.2707734	

2.296e+10	0.1357244	-0.2505047	0.002322206	0.002546708	0.07813147	-0.01902328	-6.888899e-05	0.003798475	
0.002322206	0.002546708	0.1426015	-0.353555	-0.001587723	0.002219344	0.09350564	-0.09246051	
0.07813147	-0.01902328	-0.001587723	0.002219344	0.1057026	-0.180346	-0.002060656	0.0023031	
-6.888899e-05	0.003798475	0.09350564	-0.09246051	-0.002060656	0.0023031	0.1030815	-0.2776524	

2.298e+10	0.147272	-0.2770833	0.003166007	0.001950484	0.09468347	-0.035982	0.001370449	0.003686404	
0.003166007	0.001950484	0.1324976	-0.3768139	-0.0007653359	0.002533317	0.09379188	-0.109727	
0.09468347	-0.035982	-0.0007653359	0.002533317	0.1298769	-0.1927099	-0.001155825	0.002709794	
0.001370449	0.003686404	0.09379188	-0.109727	-0.001155825	0.002709794	0.1060879	-0.2872241	

2.3e+10	0.1514177	-0.3030475	0.00381825	0.001007756	0.106101	-0.05450042	0.002632801	0.003017612	
0.00381825	0.001007756	0.1170635	-0.3967502	8.306238e-05	0.002506524	0.08972412	-0.1252606	
0.106101	-0.05450042	8.306238e-05	0.002506524	0.148813	-0.210145	-0.000273581	0.002784191	
0.002632801	0.003017612	0.08972412	-0.1252606	-0.000273581	0.002784191	0.1048023	-0.2965775	

2.302e+10	0.1505345	-0.3270599	0.004115038	-0.0001480437	0.1135071	-0.07347035	0.0035407	0.001970728	
0.004115038	-0.0001480437	0.09762734	-0.4118367	0.0007904885	0.002190746	0.08317014	-0.1381342	
0.1135071	-0.07347035	0.0007904885	0.002190746	0.1618832	-0.2300633	0.0005089465	0.002633267	
0.0035407	0.001970728	0.08317014	-0.1381342	0.0005089465	0.002633267	0.1010599	-0.3034965	

2.304e+10	0.1458059	-0.3495709	0.004036247	-0.001331189	0.1174125	-0.09289992	0.004043233	0.0007157691	
0.004036247	-0.001331189	0.07608411	-0.4215489	0.00127373	0.0017255	0.07543151	-0.1490832	
0.1174125	-0.09289992	0.00127373	0.0017255	0.1699441	-0.2505163	0.001193702	0.00232339	
0.004043233	0.0007157691	0.07543151	-0.1490832	0.001193702	0.00232339	0.09722497	-0.3084709	

2.306e+10	0.1368989	-0.3704435	0.003662349	-0.002442114	0.1174347	-0.1124193	0.004136764	-0.0006202218	
0.003662349	-0.002442114	0.05397976	-0.4263363	0.001566323	0.001238162	0.06636074	-0.1589755	
0.1174347	-0.1124193	0.001566323	0.001238162	0.1739682	-0.2709001	0.00178525	0.0018662	
0.004136764	-0.0006202218	0.06636074	-0.1589755	0.00178525	0.0018662	0.09345079	-0.3134145	

2.308e+10	0.1238257	-0.3882312	0.003033731	-0.003479469	0.1134657	-0.1308314	0.003826737	-0.001941331	
0.003033731	-0.003479469	0.03169609	-0.4268247	0.001748135	0.0007610178	0.05509639	-0.1674486	
0.1134657	-0.1308314	0.001748135	0.0007610178	0.1741678	-0.2910708	0.002254027	0.001250148	
0.003826737	-0.001941331	0.05509639	-0.1674486	0.002254027	0.001250148	0.087863	-0.3186587	

2.31e+10	0.1081182	-0.4014559	0.002105668	-0.00442217	0.1064489	-0.146994	0.003113454	-0.003148867	
0.002105668	-0.00442217	0.009409327	-0.4227653	0.001846211	0.0002605097	0.04169342	-0.1732127	
0.1064489	-0.146994	0.001846211	0.0002605097	0.1702225	-0.3101592	0.002530145	0.0004907564	
0.003113454	-0.003148867	0.04169342	-0.1732127	0.002530145	0.0004907564	0.07950297	-0.3220519	

2.312e+10	0.09207258	-0.4101936	0.0008230837	-0.00515308	0.09773994	-0.1607476	0.00200772	-0.004120269	
0.0008230837	-0.00515308	-0.01205517	-0.4132342	0.001821179	-0.0002794864	0.02740437	-0.1753009	
0.09773994	-0.1607476	0.001821179	-0.0002794864	0.1627095	-0.326716	0.002547658	-0.0003419216	
0.00200772	-0.004120269	0.02740437	-0.1753009	0.002547658	-0.0003419216	0.06999085	-0.3214382	

2.314e+10	0.0769822	-0.4159665	-0.0007729938	-0.005482778	0.08808168	-0.1728402	0.0005788156	-0.004698482	
-0.0007729938	-0.005482778	-0.03066257	-0.3978602	0.001627324	-0.0008123115	0.01370718	-0.174011	
0.08808168	-0.1728402	0.001627324	-0.0008123115	0.1532725	-0.3398563	0.002286029	-0.001146905	
0.0005788156	-0.004698482	0.01370718	-0.174011	0.002286029	-0.001146905	0.0621959	-0.3169859	

2.316e+10	0.06240812	-0.4202413	-0.002501434	-0.005253801	0.07723155	-0.1838793	-0.001010805	-0.004759549	
-0.002501434	-0.005253801	-0.04417867	-0.3778964	0.001259181	-0.001265747	0.001138247	-0.1702762	
0.07723155	-0.1838793	0.001259181	-0.001265747	0.1436142	-0.3501851	0.001769298	-0.001830626	
-0.001010805	-0.004759549	0.001138247	-0.1702762	0.001769298	-0.001830626	0.05731715	-0.310921	

2.318e+10	0.0473079	-0.4228921	-0.004134166	-0.004452008	0.06462589	-0.1936405	-0.002550507	-0.004280213	
-0.004134166	-0.004452008	-0.0517362	-0.3553334	0.0007678519	-0.001570432	-0.01073017	-0.1643701	
0.06462589	-0.1936405	0.0007678519	-0.001570432	0.1341753	-0.3590592	0.00104365	-0.002307455	
-0.002550507	-0.004280213	-0.01073017	-0.1643701	0.00104365	-0.002307455	0.05408629	-0.3047476	

2.32e+10	0.03176371	-0.4228386	-0.005498104	-0.003151343	0.05031657	-0.2013894	-0.003872142	-0.003336451	
-0.005498104	-0.003151343	-0.05350774	-0.3315399	0.0002205679	-0.001706908	-0.02176959	-0.1553117	
0.05031657	-0.2013894	0.0002205679	-0.001706908	0.1242632	-0.3671198	0.0001976195	-0.002510434	
-0.003872142	-0.003336451	-0.02176959	-0.1553117	0.0001976195	-0.002510434	0.05133494	-0.2972904	

2.322e+10	0.01705881	-0.4196134	-0.006477433	-0.001425341	0.0349467	-0.206727	-0.004891256	-0.002013035	
-0.006477433	-0.001425341	-0.04894411	-0.3068714	-0.0003354923	-0.001689716	-0.03000692	-0.14227	
0.0349467	-0.206727	-0.0003354923	-0.001689716	0.1133453	-0.3739079	-0.000666022	-0.002427905	
-0.004891256	-0.002013035	-0.03000692	-0.14227	-0.000666022	-0.002427905	0.05072781	-0.2866967	

2.324e+10	0.004474111	-0.4141158	-0.006926547	0.0006681708	0.01898005	-0.2098133	-0.005510285	-0.0003389541	
-0.006926547	0.0006681708	-0.03619665	-0.2828332	-0.0008915336	-0.001530579	-0.0327255	-0.1267226	
0.01898005	-0.2098133	-0.0008915336	-0.001530579	0.1019317	-0.3787743	-0.001473659	-0.002078245	
-0.005510285	-0.0003389541	-0.0327255	-0.1267226	-0.001473659	-0.002078245	0.05575922	-0.2740653	

2.326e+10	-0.006071856	-0.4078148	-0.006631161	0.00296904	0.00243279	-0.210866	-0.005533669	0.001604538	
-0.006631161	0.00296904	-0.01456795	-0.2635377	-0.001440634	-0.001194764	-0.02907277	-0.1121737	
0.00243279	-0.210866	-0.001440634	-0.001194764	0.09086303	-0.3820537	-0.002168575	-0.001470445	
-0.005533669	0.001604538	-0.02907277	-0.1121737	-0.002168575	-0.001470445	0.06782222	-0.2636152	

2.328e+10	-0.01575307	-0.4011208	-0.005469129	0.005132263	-0.01496024	-0.2095266	-0.004797004	0.003540535	
-0.005469129	0.005132263	0.01336364	-0.2532176	-0.001915658	-0.0006239141	-0.02108976	-0.1014817	
-0.01496024	-0.2095266	-0.001915658	-0.0006239141	0.08013338	-0.3847845	-0.002671599	-0.0006020708	
-0.004797004	0.003540535	-0.02108976	-0.1014817	-0.002671599	-0.0006020708	0.08421044	-0.2592039	

2.33e+10	-0.02501564	-0.3930147	-0.003556953	0.006783624	-0.03299261	-0.2048805	-0.003340941	0.005134782	
-0.003556953	0.006783624	0.04271857	-0.2533741	-0.002177739	0.0001966569	-0.0113568	-0.0948888	
-0.03299261	-0.2048805	-0.002177739	0.0001966569	0.06856774	-0.3872464	-0.002849354	0.0005131931	
-0.003340941	0.005134782	-0.0113568	-0.0948888	-0.002849354	0.0005131931	0.1011543	-0.2608859	

2.332e+10	-0.03265343	-0.3827697	-0.001136451	0.007681185	-0.05049479	-0.1962376	-0.001317812	0.006131381	
-0.001136451	0.007681185	0.06995978	-0.2625593	-0.002049047	0.001174926	-0.0006865714	-0.09169443	
-0.05049479	-0.1962376	-0.002049047	0.001174926	0.0552355	-0.3882506	-0.002508097	0.001747071	
-0.001317812	0.006131381	-0.0006865714	-0.09169443	-0.002508097	0.001747071	0.1173664	-0.2669376	

2.334e+10	-0.03722617	-0.3714493	0.001501915	0.007641908	-0.06597656	-0.1838608	0.001061435	0.00627425	
0.001501915	0.007641908	0.09318448	-0.279179	-0.001423925	0.002059479	0.01062941	-0.09257477	
-0.06597656	-0.1838608	-0.001423925	0.002059479	0.04081755	-0.3861487	-0.001540142	0.002775062	
0.001061435	0.00627425	0.01062941	-0.09257477	-0.001540142	0.002775062	0.1333513	-0.2774801	

2.336e+10	-0.0391762	-0.3611514	0.00391947	0.006594321	-0.07872943	-0.1687589	0.003354567	0.005356356	
0.00391947	0.006594321	0.110692	-0.3021205	-0.0004182106	0.002553581	0.02049036	-0.09839921	
-0.07872943	-0.1687589	-0.0004182106	0.002553581	0.02704028	-0.3804904	-0.0001253965	0.00320725	
0.003354567	0.005356356	0.02049036	-0.09839921	-0.0001253965	0.00320725	0.1475174	-0.2941749	

2.338e+10	-0.04074057	-0.352272	0.005656434	0.004783951	-0.08882333	-0.1516988	0.004967918	0.003535607	
0.005656434	0.004783951	0.1204972	-0.3294344	0.0006766699	0.002530489	0.02610873	-0.1076903	
-0.08882333	-0.1516988	0.0006766699	0.002530489	0.01508834	-0.3722644	0.001301672	0.002877258	
0.004967918	0.003535607	0.02610873	-0.1076903	0.001301672	0.002877258	0.1561389	-0.3165349	

2.34e+10	-0.04312335	-0.3426067	0.006539217	0.002676597	-0.09643602	-0.1324895	0.005564879	0.001341969	
0.006539217	0.002676597	0.1216412	-0.3578508	0.001606336	0.002074611	0.02685476	-0.117254	
-0.09643602	-0.1324895	0.001606336	0.002074611	0.004730498	-0.3623291	0.002332199	0.001949675	
0.005564879	0.001341969	0.02685476	-0.117254	0.002332199	0.001949675	0.1569197	-0.3410739	

2.342e+10	-0.04456503	-0.3299137	0.006689025	0.0006455174	-0.1006364	-0.1106368	0.005211651	-0.0006601959	
0.006689025	0.0006455174	0.1150878	-0.3844118	0.002245298	0.001348258	0.02448277	-0.1249745	
-0.1006364	-0.1106368	0.002245298	0.001348258	-0.004438057	-0.3502319	0.002776053	0.0007595984	
0.005211651	-0.0006601959	0.02448277	-0.1249745	0.002776053	0.0007595984	0.1507339	-0.3638858	

2.344e+10	-0.04172426	-0.3146355	0.006334447	-0.001121152	-0.099599	-0.08661062	0.004244049	-0.00211129	
0.006334447	-0.001121152	0.1027713	-0.4072838	0.002571829	0.0005155828	0.02094434	-0.1309355	
-0.099599	-0.08661062	0.002571829	0.0005155828	-0.01143832	-0.3349247	0.002668317	-0.0003645176	
0.004244049	-0.00211129	0.02094434	-0.1309355	0.002668317	-0.0003645176	0.1402075	-0.3836743	

2.346e+10	-0.03295791	-0.3000654	0.005691113	-0.002621351	-0.09184767	-0.06248994	0.003081392	-0.002938782	
0.005691113	-0.002621351	0.08645964	-0.4262191	0.002650443	-0.0003217433	0.01660759	-0.1362012	
-0.09184767	-0.06248994	0.002650443	-0.0003217433	-0.01382095	-0.3166785	0.002200387	-0.001219444	
0.003081392	-0.002938782	0.01660759	-0.1362012	0.002200387	-0.001219444	0.126745	-0.4011536	

2.348e+10	-0.01990392	-0.2893562	0.004829326	-0.003962338	-0.07763683	-0.04114129	0.002006371	-0.003329151	
0.004829326	-0.003962338	0.06701468	-0.4412906	0.002531437	-0.00116417	0.01075223	-0.1408301	
-0.07763683	-0.04114129	0.002531437	-0.00116417	-0.009882432	-0.2982163	0.00157838	-0.001783595	
0.002006371	-0.003329151	0.01075223	-0.1408301	0.00157838	-0.001783595	0.1096942	-0.4167658	

2.35e+10	-0.00535919	-0.2827092	0.003648108	-0.005178043	-0.05880376	-0.02426118	0.001042568	-0.003504822	
0.003648108	-0.005178043	0.04464159	-0.4522018	0.002162152	-0.002023023	0.003150402	-0.1438055	
-0.05880376	-0.02426118	0.002162152	-0.002023023	-0.0006017189	-0.2825894	0.0008957218	-0.002124711	
0.001042568	-0.003504822	0.003150402	-0.1438055	0.0008957218	-0.002124711	0.08828583	-0.4290305	

2.352e+10	0.01016351	-0.2786347	0.002049205	-0.006107066	-0.03680887	-0.01205944	9.276754e-05	-0.003519178	
0.002049205	-0.006107066	0.01996272	-0.4579551	0.001454962	-0.002795313	-0.005238099	-0.144295	
-0.03680887	-0.01205944	0.001454962	-0.002795313	0.01161336	-0.2707611	0.0001647774	-0.00226331	
9.276754e-05	-0.003519178	-0.005238099	-0.144295	0.0001647774	-0.00226331	0.06351729	-0.4357146	

2.354e+10	0.02792171	-0.2776797	0.0001171528	-0.006490943	-0.01197604	-0.004992503	-0.0008497179	-0.003290353	
0.0001171528	-0.006490943	-0.005696433	-0.4577346	0.0004270546	-0.003288587	-0.01322846	-0.1425174	
-0.01197604	-0.004992503	0.0004270546	-0.003288587	0.025642	-0.2619881	-0.0005715599	-0.002163267	
-0.0008497179	-0.003290353	-0.01322846	-0.1425174	-0.0005715599	-0.002163267	0.03784157	-0.4358604	

2.356e+10	0.04719733	-0.2824944	-0.001873749	-0.006171105	0.01467033	-0.004684158	-0.001652292	-0.002786099	
-0.001873749	-0.006171105	-0.03059637	-0.4514744	-0.0007633724	-0.003351872	-0.02048778	-0.1392812	
0.01467033	-0.004684158	-0.0007633724	-0.003351872	0.0418293	-0.2563902	-0.001205255	-0.001826477	
-0.001652292	-0.002786099	-0.02048778	-0.1392812	-0.001205255	-0.001826477	0.01343221	-0.4302904	

2.358e+10	0.0642342	-0.2940867	-0.003604322	-0.005197546	0.04023503	-0.01200911	-0.002203624	-0.002132479	
-0.003604322	-0.005197546	-0.05341448	-0.4398486	-0.001908017	-0.002966345	-0.02747252	-0.1349112	
0.04023503	-0.01200911	-0.001908017	-0.002966345	0.05961805	-0.2554862	-0.001658071	-0.00135229	
-0.002203624	-0.002132479	-0.02747252	-0.1349112	-0.001658071	-0.00135229	-0.009261428	-0.420408	

2.36e+10	0.0758947	-0.3097579	-0.00487677	-0.003761046	0.06179546	-0.02548413	-0.00256285	-0.00146657	
-0.00487677	-0.003761046	-0.07363755	-0.4233637	-0.002861251	-0.002201869	-0.03460941	-0.1286251	
0.06179546	-0.02548413	-0.002861251	-0.002201869	0.07667893	-0.2600299	-0.001971108	-0.0008350622	
-0.00256285	-0.00146657	-0.03460941	-0.1286251	-0.001971108	-0.0008350622	-0.03083986	-0.4060806	

2.362e+10	0.08254473	-0.3259505	-0.005611216	-0.002055635	0.07841355	-0.04241927	-0.002826434	-0.0007610429	
-0.005611216	-0.002055635	-0.09046035	-0.4017312	-0.003521151	-0.001131874	-0.04096115	-0.1192302	
0.07841355	-0.04241927	-0.003521151	-0.001131874	0.09066559	-0.2686007	-0.002203153	-0.0002482914	
-0.002826434	-0.0007610429	-0.04096115	-0.1192302	-0.002203153	-0.0002482914	-0.05038425	-0.3857233	

2.364e+10	0.08639789	-0.341717	-0.005766924	-0.0002467473	0.09084536	-0.06138445	-0.002935473	7.379201e-05	
-0.005766924	-0.0002467473	-0.1018761	-0.3747078	-0.003777928	0.0001596632	-0.04455741	-0.1065702	
0.09084536	-0.06138445	-0.003777928	0.0001596632	0.1012496	-0.278847	-0.002289208	0.0004790745	
-0.002935473	7.379201e-05	-0.04455741	-0.1065702	-0.002289208	0.0004790745	-0.06485508	-0.3586533	

2.366e+10	0.08808309	-0.3581783	-0.005326693	0.001469216	0.09930602	-0.08225824	-0.00273409	0.0009778692	
-0.005326693	0.001469216	-0.1050638	-0.3436481	-0.003525503	0.001509576	-0.04353819	-0.09206417	
0.09930602	-0.08225824	-0.003525503	0.001509576	0.1096203	-0.2895972	-0.002083138	0.001289588	
-0.00273409	0.0009778692	-0.04353819	-0.09206417	-0.002083138	0.001289588	-0.0708572	-0.3268988	

2.368e+10	0.0862277	-0.3754659	-0.004357907	0.002871328	0.1029082	-0.1045083	-0.00217636	0.001747963	
-0.004357907	0.002871328	-0.09794072	-0.3119567	-0.002752833	0.002688254	-0.03741265	-0.07784202	
0.1029082	-0.1045083	-0.002752833	0.002688254	0.1166385	-0.3012265	-0.001534306	0.001998824	
-0.00217636	0.001747963	-0.03741265	-0.07784202	-0.001534306	0.001998824	-0.06700378	-0.2944425	

2.37e+10	0.07999646	-0.3917252	-0.003038374	0.003774926	0.1011441	-0.1264563	-0.00138877	0.002206183	
-0.003038374	0.003774926	-0.08094169	-0.283772	-0.001575239	0.003482284	-0.02676106	-0.06554326	
0.1011441	-0.1264563	-0.001575239	0.003482284	0.1218252	-0.3142631	-0.0007368649	0.002449883	
-0.00138877	0.002206183	-0.02676106	-0.06554326	-0.0007368649	0.002449883	-0.05457367	-0.2642229	

2.372e+10	0.07073488	-0.4049587	-0.001626558	0.004108217	0.09491322	-0.1462988	-0.0005653597	0.002310434	
-0.001626558	0.004108217	-0.05591359	-0.2619286	-0.0001770138	0.003767544	-0.01189585	-0.05606179	
0.09491322	-0.1462988	-0.0001770138	0.003767544	0.1243283	-0.3282109	0.0001857138	0.002587043	
-0.0005653597	0.002310434	-0.01189585	-0.05606179	0.0001857138	0.002587043	-0.03458385	-0.2373537	

2.374e+10	0.06063421	-0.4151252	-0.0003726351	0.003945743	0.0857571	-0.1635165	0.0001446306	0.002126988	
-0.0003726351	0.003945743	-0.02498126	-0.2485678	0.00123379	0.003482185	0.007197356	-0.05127028	
0.0857571	-0.1635165	0.00123379	0.003482185	0.1240953	-0.3418211	0.001141987	0.002370016	
0.0001446306	0.002126988	0.007197356	-0.05127028	0.001141987	0.002370016	-0.006438013	-0.2155239	

2.376e+10	0.05069397	-0.4237485	0.0005695851	0.003473307	0.07453973	-0.1785342	0.0006557808	0.001763624	
0.0005695851	0.003473307	0.00917888	-0.2456386	0.002405316	0.002640629	0.02866002	-0.05405405	
0.07453973	-0.1785342	0.002405316	0.002640629	0.1221691	-0.3543829	0.001977606	0.001747547	
0.0006557808	0.001763624	0.02866002	-0.05405405	0.001977606	0.001747547	0.02898324	-0.20286	

2.378e+10	0.04000067	-0.4319317	0.001203574	0.002911431	0.06120642	-0.1916118	0.0009652211	0.001344386	
0.001203574	0.002911431	0.0422308	-0.2541046	0.003094332	0.001404107	0.04794987	-0.06542889	
0.06120642	-0.1916118	0.003094332	0.001404107	0.1194431	-0.3664976	0.002451943	0.0007949818	
0.0009652211	0.001344386	0.04794987	-0.06542889	0.002451943	0.0007949818	0.06696663	-0.2027257	

2.38e+10	0.02744406	-0.439023	0.0016483	0.002344337	0.0456584	-0.202158	0.001126101	0.0009286163	
0.0016483	0.002344337	0.06980607	-0.272212	0.003185087	5.717516e-05	0.06116165	-0.08268842	
0.0456584	-0.202158	0.003185087	5.717516e-05	0.1156036	-0.3791162	0.002433472	-0.0002255194	
0.001126101	0.0009286163	0.06116165	-0.08268842	0.002433472	-0.0002255194	0.1016734	-0.214249	

2.382e+10	0.01329006	-0.443611	0.001936116	0.001749108	0.02852402	-0.2094264	0.001156144	0.0005313511	
0.001936116	0.001749108	0.08947769	-0.2962523	0.002744705	-0.001124958	0.06751941	-0.1018407	
0.02852402	-0.2094264	0.002744705	-0.001124958	0.1094631	-0.3922113	0.002011387	-0.00105354	
0.001156144	0.0005313511	0.06751941	-0.1018407	0.002011387	-0.00105354	0.1298991	-0.2334881	

2.384e+10	-0.001080009	-0.4451787	0.002029839	0.001167209	0.0109317	-0.21329	0.00105538	0.0002018017	
0.002029839	0.001167209	0.1011627	-0.3226527	0.001930681	-0.001981691	0.06851713	-0.1204797	
0.0109317	-0.21329	0.001930681	-0.001981691	0.1003439	-0.4045924	0.00137534	-0.001579807	
0.00105538	0.0002018017	0.06851713	-0.1204797	0.00137534	-0.001579807	0.15175	-0.2571071	

2.386e+10	-0.01455541	-0.4446218	0.001964787	0.0007054692	-0.006418791	-0.2142539	0.0008868004	5.8955e-06	
0.001964787	0.0007054692	0.1060999	-0.3492598	0.000894267	-0.002431463	0.06530784	-0.1380849	
-0.006418791	-0.2142539	0.000894267	-0.002431463	0.08876141	-0.4150244	0.0006726195	-0.001813267	
0.0008868004	5.8955e-06	0.06530784	-0.1380849	0.0006726195	-0.001813267	0.1679594	-0.2841057	

2.388e+10	-0.02752599	-0.4430658	0.001878348	0.0003967888	-0.02342159	-0.2128653	0.0007622921	-7.425314e-05	
0.001878348	0.0003967888	0.1053754	-0.3749854	-0.0001939921	-0.002417429	0.05804016	-0.1540703	
-0.02342159	-0.2128653	-0.0001939921	-0.002417429	0.07577709	-0.4232704	-1.649226e-06	-0.001782899	
0.0007622921	-7.425314e-05	0.05804016	-0.1540703	-1.649226e-06	-0.001782899	0.177879	-0.3139269	

2.39e+10	-0.04116786	-0.4403498	0.001861297	0.0001309773	-0.04027733	-0.2091572	0.000720207	-0.0001469205	
0.001861297	0.0001309773	0.09969265	-0.3992516	-0.00112088	-0.001965909	0.04727505	-0.1671221	
-0.04027733	-0.2091572	-0.00112088	-0.001965909	0.06169087	-0.4298053	-0.0005560301	-0.001533507	
0.000720207	-0.0001469205	0.04727505	-0.1671221	-0.0005560301	-0.001533507	0.1805093	-0.3448426	

2.392e+10	-0.05571024	-0.4349467	0.001845924	-0.0002043398	-0.05686608	-0.2027149	0.0006809544	-0.0002874784	
0.001845924	-0.0002043398	0.08945933	-0.4213069	-0.001718657	-0.001231799	0.03458774	-0.1763603	
-0.05686608	-0.2027149	-0.001718657	-0.001231799	0.04586962	-0.434596	-0.0009261493	-0.001160167	
0.0006809544	-0.0002874784	0.03458774	-0.1763603	-0.0009261493	-0.001160167	0.1760869	-0.374509	

2.394e+10	-0.06975011	-0.4256125	0.001710916	-0.000576086	-0.07251192	-0.193222	0.0005483556	-0.0004493035	
0.001710916	-0.000576086	0.07536842	-0.4402756	-0.001961128	-0.0004132744	0.02172956	-0.1821485	
-0.07251192	-0.193222	-0.001961128	-0.0004132744	0.02801376	-0.436512	-0.001124257	-0.0007709481	
0.0005483556	-0.0004493035	0.02172956	-0.1821485	-0.001124257	-0.0007709481	0.1661038	-0.4011289	

2.396e+10	-0.08135035	-0.4127394	0.001450882	-0.0008546692	-0.08654548	-0.1807153	0.000327547	-0.0005232089	
0.001450882	-0.0008546692	0.0585303	-0.4555755	-0.001915574	0.000369575	0.009443795	-0.1855899	
-0.08654548	-0.1807153	-0.001915574	0.000369575	0.008977896	-0.4340272	-0.001218369	-0.0004171409	
0.000327547	-0.0005232089	0.009443795	-0.1855899	-0.001218369	-0.0004171409	0.1524124	-0.4243173	

2.398e+10	-0.08964449	-0.397784	0.001184933	-0.0009847288	-0.09832036	-0.1655904	0.0001182131	-0.0004634305	
0.001184933	-0.0009847288	0.04000259	-0.4672809	-0.001631312	0.001073611	-0.002482329	-0.1876236	
-0.09832036	-0.1655904	-0.001631312	0.001073611	-0.009368195	-0.4266072	-0.001260382	-8.128433e-05	
0.0001182131	-0.0004634305	-0.002482329	-0.1876236	-0.001260382	-8.128433e-05	0.1357694	-0.4446646	

2.4e+10	-0.09521448	-0.3816007	0.001009449	-0.001049816	-0.1075259	-0.1482142	3.154861e-06	-0.0003286449	
0.001009449	-0.001049816	0.02029996	-0.4758072	-0.001121098	0.001641005	-0.01449769	-0.1882425	
-0.1075259	-0.1482142	-0.001121098	0.001641005	-0.02540929	-0.4149628	-0.001246342	0.0002683304	
3.154861e-06	-0.0003286449	-0.01449769	-0.1882425	-0.001246342	0.0002683304	0.115985	-0.4621994	

2.402e+10	-0.09825982	-0.3634104	0.0008869092	-0.001158101	-0.1138483	-0.1285013	-2.646684e-05	-0.0001984125	
0.0008869092	-0.001158101	-0.0006550439	-0.4811696	-0.0004370606	0.001979627	-0.02649829	-0.1871231	
-0.1138483	-0.1285013	-0.0004370606	0.001979627	-0.03872072	-0.4000806	-0.001144741	0.0006259483	
-2.646684e-05	-0.0001984125	-0.02649829	-0.1871231	-0.001144741	0.0006259483	0.09298527	-0.4759723	

2.404e+10	-0.09690726	-0.342463	0.0007203036	-0.00130855	-0.1162475	-0.106223	-1.924995e-05	-8.311594e-05	
0.0007203036	-0.00130855	-0.02267199	-0.4827279	0.0002991277	0.00203948	-0.03805189	-0.1842313	
-0.1162475	-0.106223	0.0002991277	0.00203948	-0.04915725	-0.3818287	-0.0009470852	0.0009583926	
-1.924995e-05	-8.311594e-05	-0.03805189	-0.1842313	-0.0009470852	0.0009583926	0.06765281	-0.4848125	

2.406e+10	-0.08821757	-0.3204904	0.0004852527	-0.001419975	-0.1128366	-0.08216127	3.246772e-05	5.518311e-05	
0.0004852527	-0.001419975	-0.04489024	-0.4798046	0.0009709022	0.001862307	-0.04887211	-0.1800034	
-0.1128366	-0.08216127	0.0009709022	0.001862307	-0.05521504	-0.3596563	-0.0006672767	0.001248125	
3.246772e-05	5.518311e-05	-0.04887211	-0.1800034	-0.0006672767	0.001248125	0.04167363	-0.4883049	

2.408e+10	-0.07141842	-0.3016508	0.000253255	-0.001447208	-0.1021827	-0.05873393	0.0002055484	0.0001995942	
0.000253255	-0.001447208	-0.065862	-0.4724009	0.001537107	0.001526627	-0.0592141	-0.1747396	
-0.1021827	-0.05873393	0.001537107	0.001526627	-0.05407493	-0.3346087	-0.0002952005	0.001493607	
0.0002055484	0.0001995942	-0.0592141	-0.1747396	-0.0002952005	0.001493607	0.0163744	-0.4871849	

2.41e+10	-0.04889911	-0.2896007	9.607485e-05	-0.00144992	-0.08470251	-0.03901255	0.000538357	0.000219831	
9.607485e-05	-0.00144992	-0.0847476	-0.4612999	0.002011633	0.001069784	-0.06949517	-0.1682744	
-0.08470251	-0.03901255	0.002011633	0.001069784	-0.04383874	-0.3102783	0.0002036471	0.001654514	
0.000538357	0.000219831	-0.06949517	-0.1682744	0.0002036471	0.001654514	-0.008141746	-0.4823613	

2.412e+10	-0.02421887	-0.2850731	-2.022152e-05	-0.001538567	-0.0623209	-0.02519193	0.0009134536	-3.329048e-05	
-2.022152e-05	-0.001538567	-0.1013392	-0.4471298	0.002389856	0.0004749817	-0.0797869	-0.159888	
-0.0623209	-0.02519193	0.002389856	0.0004749817	-0.02563751	-0.2909326	0.000823082	0.001630981	
0.0009134536	-3.329048e-05	-0.0797869	-0.159888	0.000823082	0.001630981	-0.03231856	-0.4735785	

2.414e+10	0.0008223778	-0.2873088	-0.0002402071	-0.001736868	-0.03712376	-0.01812251	0.001100727	-0.0005602434	
-0.0002402071	-0.001736868	-0.1156943	-0.4296766	0.002605254	-0.0002747335	-0.08941528	-0.1489298	
-0.03712376	-0.01812251	0.002605254	-0.0002747335	-0.002623006	-0.2788177	0.001458604	0.00132653	
0.001100727	-0.0005602434	-0.08941528	-0.1489298	0.001458604	0.00132653	-0.05562696	-0.4596764	

2.416e+10	0.0254268	-0.2967125	-0.0006772245	-0.001908188	-0.01086724	-0.01841216	0.0009395873	-0.001172084	
-0.0006772245	-0.001908188	-0.1265279	-0.4084932	0.002559637	-0.001124614	-0.09740678	-0.1351572	
-0.01086724	-0.01841216	0.002559637	-0.001124614	0.02257943	-0.2741116	0.001940398	0.0007424798	
0.0009395873	-0.001172084	-0.09740678	-0.1351572	0.001940398	0.0007424798	-0.07611544	-0.4398832	

2.418e+10	0.04677365	-0.3142077	-0.001269737	-0.001861365	0.01393921	-0.02665078	0.000467232	-0.001629539	
-0.001269737	-0.001861365	-0.1320824	-0.3840307	0.002209076	-0.001943934	-0.1027223	-0.1188371	
0.01393921	-0.02665078	0.002209076	-0.001943934	0.04819986	-0.276886	0.002141199	2.428441e-06	
0.000467232	-0.001629539	-0.1027223	-0.1188371	0.002141199	2.428441e-06	-0.0914117	-0.4150734	

2.42e+10	0.06096316	-0.3381079	-0.001822917	-0.001548135	0.03400602	-0.04174904	-0.0001416177	-0.001826318	
-0.001822917	-0.001548135	-0.1307901	-0.3583693	0.001608144	-0.002608998	-0.1045303	-0.1005918	
0.03400602	-0.04174904	0.001608144	-0.002608998	0.07209954	-0.2875075	0.002050469	-0.0007387803	
-0.0001416177	-0.001826318	-0.1045303	-0.1005918	0.002050469	-0.0007387803	-0.1003748	-0.387284	

2.422e+10	0.06614967	-0.3639981	-0.002224276	-0.001087737	0.04737478	-0.06064787	-0.0007649566	-0.001807385	
-0.002224276	-0.001087737	-0.122634	-0.3338487	0.0008437457	-0.003075356	-0.1021623	-0.08097282	
0.04737478	-0.06064787	0.0008437457	-0.003075356	0.09127364	-0.3051207	0.001728847	-0.001388986	
-0.0007649566	-0.001807385	-0.1021623	-0.08097282	0.001728847	-0.001388986	-0.1029735	-0.3579322	

2.424e+10	0.06399282	-0.3879779	-0.002523616	-0.0005668705	0.05445283	-0.08021221	-0.001396248	-0.001598858	
-0.002523616	-0.0005668705	-0.1085223	-0.3119843	-4.065288e-05	-0.003336852	-0.09456461	-0.06075602	
0.05445283	-0.08021221	-4.065288e-05	-0.003336852	0.1034302	-0.3270234	0.001223243	-0.001910674	
-0.001396248	-0.001598858	-0.09456461	-0.06075602	0.001223243	-0.001910674	-0.09890602	-0.327386	

2.426e+10	0.05737773	-0.4088333	-0.002745947	7.957913e-05	0.05682127	-0.09879526	-0.001990309	-0.001124688	
-0.002745947	7.957913e-05	-0.0886013	-0.2938323	-0.001021636	-0.003347889	-0.08051579	-0.04166413	
0.05682127	-0.09879526	-0.001021636	-0.003347889	0.1084385	-0.3497031	0.0005580346	-0.002253227	
-0.001990309	-0.001124688	-0.08051579	-0.04166413	0.0005580346	-0.002253227	-0.08605287	-0.2967758	

2.428e+10	0.04766233	-0.4274107	-0.00274449	0.0008906797	0.05571287	-0.1162713	-0.002353874	-0.0003669233	
-0.00274449	0.0008906797	-0.0630326	-0.28153	-0.002017689	-0.003038016	-0.05972237	-0.02689043	
0.05571287	-0.1162713	-0.002017689	-0.003038016	0.1080281	-0.3710855	-0.000201975	-0.002342007	
-0.002353874	-0.0003669233	-0.05972237	-0.02689043	-0.000201975	-0.002342007	-0.06295149	-0.2700908	

2.43e+10	0.03450005	-0.4438111	-0.002373329	0.001683522	0.05130332	-0.1324941	-0.002314593	0.0004738548	
-0.002373329	0.001683522	-0.03387716	-0.2781546	-0.002881153	-0.002403896	-0.03450737	-0.01970661	
0.05130332	-0.1324941	-0.002881153	-0.002403896	0.1037867	-0.3908551	-0.0009296108	-0.002152325	
-0.002314593	0.0004738548	-0.03450737	-0.01970661	-0.0009296108	-0.002152325	-0.03152641	-0.25257	

2.432e+10	0.0178292	-0.4568322	-0.00172889	0.002207314	0.04383935	-0.1467101	-0.001945867	0.001125259	
-0.00172889	0.002207314	-0.005584676	-0.2848953	-0.003499064	-0.001541083	-0.008840213	-0.02108151	
0.04383935	-0.1467101	-0.003499064	-0.001541083	0.09600843	-0.4092697	-0.001513325	-0.001751349	
-0.001945867	0.001125259	-0.008840213	-0.02108151	-0.001513325	-0.001751349	0.002770545	-0.2468645	

2.434e+10	-0.0009496478	-0.465049	-0.00106454	0.002409078	0.03426273	-0.1582841	-0.00148242	0.00151063	
-0.00106454	0.002409078	0.01764974	-0.2996406	-0.003847577	-0.0005654163	0.01415746	-0.02954624	
0.03426273	-0.1582841	-0.003847577	-0.0005654163	0.08435132	-0.4256933	-0.001922183	-0.001237339	
-0.00148242	0.00151063	0.01415746	-0.02954624	-0.001922183	-0.001237339	0.0349599	-0.2513302	

2.436e+10	-0.0197659	-0.4684732	-0.0005192179	0.002442728	0.0236099	-0.1672518	-0.001053613	0.001753507	
-0.0005192179	0.002442728	0.03438692	-0.3189215	-0.003946506	0.0004615132	0.0333155	-0.04316436	
0.0236099	-0.1672518	-0.003946506	0.0004615132	0.06931177	-0.4386578	-0.00217588	-0.0006652333	
-0.001053613	0.001753507	0.0333155	-0.04316436	-0.00217588	-0.0006652333	0.06337758	-0.2632175	

2.438e+10	-0.03734212	-0.4684139	-3.9898e-05	0.002434273	0.01252119	-0.1742106	-0.0006053113	0.001945823	
-3.9898e-05	0.002434273	0.04501824	-0.3402951	-0.003787826	0.001508891	0.04791122	-0.06092368	
0.01252119	-0.1742106	-0.003787826	0.001508891	0.05245645	-0.447214	-0.002277658	-5.407374e-05	
-0.0006053113	0.001945823	0.04791122	-0.06092368	-0.002277658	-5.407374e-05	0.08740452	-0.2814192	

2.44e+10	-0.0539622	-0.4660967	0.0004491832	0.002355148	0.0008498549	-0.179678	-7.931273e-05	0.002024047	
0.0004491832	0.002355148	0.05000321	-0.3625379	-0.003337498	0.002514985	0.05668585	-0.08140856	
0.0008498549	-0.179678	-0.003337498	0.002514985	0.03550168	-0.4517973	-0.002205288	0.0005613012	
-7.931273e-05	0.002024047	0.05668585	-0.08140856	-0.002205288	0.0005613012	0.1051848	-0.3051502	

2.442e+10	-0.07040169	-0.4613695	0.0008929425	0.002140732	-0.01180407	-0.1834807	0.0004394429	0.00190374	
0.0008929425	0.002140732	0.04939565	-0.3843691	-0.002601079	0.003369047	0.05916566	-0.1020374	
-0.01180407	-0.1834807	-0.002601079	0.003369047	0.01895404	-0.4535541	-0.001962157	0.001111492	
0.0004394429	0.00190374	0.05916566	-0.1020374	-0.001962157	0.001111492	0.1148137	-0.331712	

2.444e+10	-0.0863337	-0.4530067	0.001190618	0.0018501	-0.02535083	-0.1850415	0.0008189831	0.001636399	
0.001190618	0.0018501	0.04374059	-0.4041499	-0.001656586	0.003975781	0.05677552	-0.1206486	
-0.02535083	-0.1850415	-0.001656586	0.003975781	0.002331588	-0.452844	-0.001604034	0.001541979	
0.0008189831	0.001636399	0.05677552	-0.1206486	-0.001604034	0.001541979	0.1165617	-0.3574659	

2.446e+10	-0.1000121	-0.4405607	0.00135403	0.001624234	-0.03920743	-0.1838253	0.001035009	0.00136308	
0.00135403	0.001624234	0.03448915	-0.4205782	-0.0006088	0.004307288	0.05150367	-0.1366033	
-0.03920743	-0.1838253	-0.0006088	0.004307288	-0.014591	-0.4488229	-0.001200683	0.001854553	
0.001035009	0.00136308	0.05150367	-0.1366033	-0.001200683	0.001854553	0.1128263	-0.3799938	

2.448e+10	-0.1096226	-0.4251031	0.0015239	0.001528535	-0.05257168	-0.1797811	0.001186776	0.001169381	
0.0015239	0.001528535	0.02344643	-0.4334864	0.0004714842	0.004382109	0.04449442	-0.1506257	
-0.05257168	-0.1797811	0.0004714842	0.004382109	-0.03062837	-0.4404363	-0.0007837327	0.002090625	
0.001186776	0.001169381	0.04449442	-0.1506257	-0.0007837327	0.002090625	0.1061622	-0.3992671	

2.45e+10	-0.1148013	-0.4086923	0.001835189	0.001476638	-0.06488126	-0.1731642	0.001380392	0.001013665	
0.001835189	0.001476638	0.01172679	-0.4436851	0.001549194	0.004215125	0.03568286	-0.1631638	
-0.06488126	-0.1731642	0.001549194	0.004215125	-0.04384586	-0.4279397	-0.0003307518	0.002285087	
0.001380392	0.001013665	0.03568286	-0.1631638	-0.0003307518	0.002285087	0.09743352	-0.4164233	

2.452e+10	-0.1166384	-0.3922559	0.002294974	0.001311739	-0.07588308	-0.164226	0.001620277	0.0007970292	
0.002294974	0.001311739	-0.0006073098	-0.4518996	0.002585413	0.003797188	0.02487555	-0.1738493	
-0.07588308	-0.164226	0.002585413	0.003797188	-0.05300383	-0.4129019	0.0002004111	0.002418009	
0.001620277	0.0007970292	0.02487555	-0.1738493	0.0002004111	0.002418009	0.08613465	-0.4316499	

2.454e+10	-0.1152887	-0.3752177	0.00280311	0.0009414994	-0.0852103	-0.1527161	0.001829301	0.0004861582	
0.00280311	0.0009414994	-0.01385988	-0.4580904	0.003518176	0.00312567	0.0126558	-0.1819905	
-0.0852103	-0.1527161	0.003518176	0.00312567	-0.05843608	-0.3966385	0.0008097905	0.002427387	
0.001829301	0.0004861582	0.0126558	-0.1819905	0.0008097905	0.002427387	0.07228111	-0.4438227	

2.456e+10	-0.1093188	-0.3573424	0.003257409	0.0003641451	-0.091685	-0.138311	0.001962541	0.0001293679	
0.003257409	0.0003641451	-0.02772374	-0.4616082	0.004282657	0.002231596	1.309835e-05	-0.18762	
-0.091685	-0.138311	0.004282657	0.002231596	-0.06046483	-0.3789768	0.001447602	0.002271667	
0.001962541	0.0001293679	1.309835e-05	-0.18762	0.001447602	0.002271667	0.05724131	-0.4519697	

2.458e+10	-0.09662605	-0.3410148	0.003600726	-0.0004038225	-0.0934237	-0.1219724	0.002049096	-0.0002321066	
0.003600726	-0.0004038225	-0.04116798	-0.4622805	0.00483826	0.001157099	-0.01257504	-0.1913973	
-0.0934237	-0.1219724	0.00483826	0.001157099	-0.05767965	-0.3596238	0.002060279	0.00195281	
0.002049096	-0.0002321066	-0.01257504	-0.1913973	0.002060279	0.00195281	0.04292043	-0.4565168	

2.46e+10	-0.07792683	-0.3301684	0.003772285	-0.001362198	-0.08946638	-0.1061319	0.002135387	-0.0006314764	
0.003772285	-0.001362198	-0.05320099	-0.4608594	0.005149457	-6.755571e-05	-0.02533547	-0.193801	
-0.08946638	-0.1061319	0.005149457	-6.755571e-05	-0.04773319	-0.3403289	0.00262729	0.001478228	
0.002135387	-0.0006314764	-0.02533547	-0.193801	0.00262729	0.001478228	0.03003719	-0.4591385	

2.462e+10	-0.05697487	-0.3271255	0.003667087	-0.002496643	-0.08078231	-0.09345523	0.002195148	-0.001151208	
0.003667087	-0.002496643	-0.06393378	-0.4584535	0.005162477	-0.001408227	-0.0386817	-0.1946436	
-0.08078231	-0.09345523	0.005162477	-0.001408227	-0.03021747	-0.325179	0.003126446	0.0008259258	
0.002195148	-0.001151208	-0.0386817	-0.1946436	0.003126446	0.0008259258	0.01773932	-0.4609288	

2.464e+10	-0.03729742	-0.330794	0.003160231	-0.003709716	-0.06958105	-0.08504171	0.002106463	-0.001826864	
0.003160231	-0.003709716	-0.0740775	-0.4553538	0.004814864	-0.00279737	-0.05248014	-0.1932923	
-0.06958105	-0.08504171	0.004814864	-0.00279737	-0.007944029	-0.3175607	0.003485335	-4.298749e-05	
0.002106463	-0.001826864	-0.05248014	-0.1932923	0.003485335	-4.298749e-05	0.005001109	-0.4614029	

2.466e+10	-0.01970293	-0.3392383	0.002183093	-0.004818637	-0.05738444	-0.0805987	0.001734226	-0.002570611	
0.002183093	-0.004818637	-0.08391543	-0.4510097	0.004061668	-0.00412511	-0.06592115	-0.1894062	
-0.05738444	-0.0805987	0.004061668	-0.00412511	0.01509577	-0.3179819	0.00356875	-0.001103962	
0.001734226	-0.002570611	-0.06592115	-0.1894062	0.00356875	-0.001103962	-0.007729533	-0.459365	

2.468e+10	-0.004196712	-0.352555	0.0007777744	-0.005603681	-0.04478852	-0.08027116	0.00104632	-0.003205768	
0.0007777744	-0.005603681	-0.09286376	-0.4449017	0.002892774	-0.005250209	-0.07836846	-0.1832889	
-0.04478852	-0.08027116	0.002892774	-0.005250209	0.03680407	-0.3250933	0.00326297	-0.002223261	
0.00104632	-0.003205768	-0.07836846	-0.1832889	0.00326297	-0.002223261	-0.0188688	-0.4547487	

2.47e+10	0.007018052	-0.3712437	-0.0008832402	-0.005897224	-0.03344405	-0.08455626	0.0001431025	-0.003592651	
-0.0008832402	-0.005897224	-0.09997894	-0.4375837	0.001375377	-0.006005211	-0.08954166	-0.1755082	
-0.03344405	-0.08455626	0.001375377	-0.006005211	0.05622061	-0.3383915	0.002565136	-0.003212026	
0.0001431025	-0.003592651	-0.08954166	-0.1755082	0.002565136	-0.003212026	-0.02748986	-0.4490694	

2.472e+10	0.01103675	-0.3931551	-0.002590255	-0.005665443	-0.02562228	-0.09239096	-0.0008451251	-0.003716829	
-0.002590255	-0.005665443	-0.1052544	-0.4301394	-0.0003279661	-0.006270529	-0.09964219	-0.1662923	
-0.02562228	-0.09239096	-0.0003279661	-0.006270529	0.07136523	-0.3577004	0.001587658	-0.003933149	
-0.0008451251	-0.003716829	-0.09964219	-0.1662923	0.001587658	-0.003933149	-0.03449773	-0.4438815	

2.474e+10	0.007447425	-0.4142331	-0.004199219	-0.004969104	-0.02220697	-0.1011715	-0.001887014	-0.003623376	
-0.004199219	-0.004969104	-0.1097064	-0.4229847	-0.002025061	-0.006041754	-0.1086458	-0.1553354	
-0.02220697	-0.1011715	-0.002025061	-0.006041754	0.07973105	-0.381385	0.0004483863	-0.004363523	
-0.001887014	-0.003623376	-0.1086458	-0.1553354	0.0004483863	-0.004363523	-0.04153078	-0.4388593	

2.476e+10	-0.00128067	-0.4316281	-0.005646371	-0.003841593	-0.02200288	-0.108828	-0.003018476	-0.003263084	
-0.005646371	-0.003841593	-0.1138491	-0.4153078	-0.003603754	-0.005389326	-0.1159408	-0.1423095	
-0.02200288	-0.108828	-0.003603754	-0.005389326	0.0802455	-0.4061995	-0.0008163763	-0.004505638	
-0.003018476	-0.003263084	-0.1159408	-0.1423095	-0.0008163763	-0.004505638	-0.04868767	-0.4323573	

2.478e+10	-0.01242661	-0.4454367	-0.006831007	-0.002260462	-0.02333959	-0.115026	-0.004168132	-0.00247584	
-0.006831007	-0.002260462	-0.1170138	-0.4062019	-0.005006727	-0.004356886	-0.1205531	-0.1275705	
-0.02333959	-0.115026	-0.005006727	-0.004356886	0.07395404	-0.4289516	-0.002180017	-0.004278524	
-0.004168132	-0.00247584	-0.1205531	-0.1275705	-0.002180017	-0.004278524	-0.05421185	-0.4237765	

2.48e+10	-0.02528353	-0.4569511	-0.007557921	-0.000257325	-0.02555812	-0.1204482	-0.005079699	-0.001187692	
-0.007557921	-0.000257325	-0.1177928	-0.3961379	-0.006152463	-0.002942487	-0.1218684	-0.1121816	
-0.02555812	-0.1204482	-0.006152463	-0.002942487	0.06308662	-0.4483736	-0.003500217	-0.003576801	
-0.005079699	-0.001187692	-0.1218684	-0.1121816	-0.003500217	-0.003576801	-0.05671782	-0.4145883	

2.482e+10	-0.04057158	-0.4660775	-0.00764173	0.001994795	-0.02897695	-0.1253134	-0.0054963	0.0004364293	
-0.00764173	0.001994795	-0.1158854	-0.3865112	-0.006900646	-0.001188228	-0.1202111	-0.09710209	
-0.02897695	-0.1253134	-0.006900646	-0.001188228	0.04909473	-0.4647642	-0.004548599	-0.002428726	
-0.0054963	0.0004364293	-0.1202111	-0.09710209	-0.004548599	-0.002428726	-0.05707306	-0.4067656	

2.484e+10	-0.05826643	-0.4714128	-0.007027904	0.004249547	-0.03375335	-0.1289351	-0.005364518	0.002143482	
-0.007027904	0.004249547	-0.1123252	-0.3782336	-0.007131956	0.0007596683	-0.116172	-0.08255915	
-0.03375335	-0.1289351	-0.007131956	0.0007596683	0.03210462	-0.4781835	-0.005181948	-0.001004453	
-0.005364518	0.002143482	-0.116172	-0.08255915	-0.005181948	-0.001004453	-0.05726382	-0.4001534	

2.486e+10	-0.0766293	-0.4717671	-0.005761419	0.006311771	-0.0391106	-0.130777	-0.004753833	0.003794935	
-0.005761419	0.006311771	-0.1079126	-0.3707129	-0.006827527	0.002740497	-0.109575	-0.06828406	
-0.0391106	-0.130777	-0.006827527	0.002740497	0.01210849	-0.4877797	-0.005401874	0.0005420354	
-0.004753833	0.003794935	-0.109575	-0.06828406	-0.005401874	0.0005420354	-0.05758906	-0.3927907	

2.488e+10	-0.09359425	-0.467544	-0.003886222	0.008039036	-0.04419667	-0.1311006	-0.003650625	0.005355631	
-0.003886222	0.008039036	-0.1020314	-0.3632318	-0.006006178	0.004648803	-0.09950777	-0.05486328	
-0.04419667	-0.1311006	-0.006006178	0.004648803	-0.009907611	-0.4922703	-0.005221429	0.002170264	
-0.003650625	0.005355631	-0.09950777	-0.05486328	-0.005221429	0.002170264	-0.0559633	-0.3839428	

2.49e+10	-0.1080675	-0.4603866	-0.001422517	0.009249755	-0.04873305	-0.1305508	-0.001923455	0.006672707	
-0.001422517	0.009249755	-0.09337634	-0.3566902	-0.00463164	0.00639601	-0.08578571	-0.04391766	
-0.04873305	-0.1305508	-0.00463164	0.00639601	-0.03192373	-0.4911336	-0.004530936	0.003842513	
-0.001923455	0.006672707	-0.08578571	-0.04391766	-0.004530936	0.003842513	-0.05072685	-0.3755294	

2.492e+10	-0.1207653	-0.4513324	0.001520705	0.009670159	-0.05308623	-0.1295664	0.0004201053	0.007364227	
0.001520705	0.009670159	-0.08226391	-0.3529499	-0.002641474	0.007790464	-0.06969704	-0.03691826	
-0.05308623	-0.1295664	-0.002641474	0.007790464	-0.05231213	-0.4852484	-0.003183883	0.005341013	
0.0004201053	0.007364227	-0.06969704	-0.03691826	-0.003183883	0.005341013	-0.04303413	-0.3700662	

2.494e+10	-0.132073	-0.4399431	0.004642386	0.00905759	-0.05770666	-0.1278061	0.003044555	0.00708026	
0.004642386	0.00905759	-0.07044963	-0.3528865	-0.0001160262	0.00852231	-0.05289417	-0.03387928	
-0.05770666	-0.1278061	-0.0001160262	0.00852231	-0.07058151	-0.4757933	-0.001237322	0.006300861	
0.003044555	0.00708026	-0.05289417	-0.03387928	-0.001237322	0.006300861	-0.03543115	-0.367496	

2.496e+10	-0.1410982	-0.4251476	0.007529023	0.007324468	-0.06232424	-0.1245129	0.005455206	0.005755625	
0.007529023	0.007324468	-0.05920192	-0.3557983	0.002671613	0.00833059	-0.035866	-0.03404746	
-0.06232424	-0.1245129	0.002671613	0.00833059	-0.08705615	-0.4629457	0.001013582	0.006454906	
0.005455206	0.005755625	-0.035866	-0.03404746	0.001013582	0.006454906	-0.0284632	-0.3659046	

2.498e+10	-0.1454787	-0.4074261	0.009721619	0.004567188	-0.06589404	-0.1194161	0.007230263	0.00357813	
0.009721619	0.004567188	-0.04847657	-0.3611511	0.0053181	0.007114286	-0.0183059	-0.03785071	
-0.06589404	-0.1194161	0.0053181	0.007114286	-0.1010762	-0.4459693	0.003196685	0.005743074	
0.007230263	0.00357813	-0.0183059	-0.03785071	0.003196685	0.005743074	-0.0205015	-0.3647543	

2.5e+10	-0.1437766	-0.3890959	0.01079695	0.001101626	-0.06746091	-0.1131218	0.008095152	0.0008646649	
0.01079695	0.001101626	-0.0383239	-0.369528	0.007388535	0.004976503	-0.001263939	-0.04655985	
-0.06746091	-0.1131218	0.007388535	0.004976503	-0.110549	-0.4247081	0.004976562	0.004264827	
0.008095152	0.0008646649	-0.001263939	-0.04655985	0.004976562	0.004264827	-0.01082338	-0.36597	

2.502e+10	-0.1366387	-0.3729793	0.01051716	-0.002533489	-0.0667035	-0.1067894	0.007905178	-0.00201765	
0.01051716	-0.002533489	-0.03028407	-0.3815601	0.008531654	0.00222058	0.01282002	-0.06032379	
-0.0667035	-0.1067894	0.008531654	0.00222058	-0.1133402	-0.4008028	0.006088327	0.002211398	
0.007905178	-0.00201765	0.01282002	-0.06032379	0.006088327	0.002211398	-0.00144501	-0.3712672	

2.504e+10	-0.1260119	-0.3600349	0.008971622	-0.005762775	-0.06406095	-0.1011389	0.006630599	-0.004655569	
0.008971622	-0.005762775	-0.02630883	-0.3963077	0.008587712	-0.0006963669	0.02194498	-0.07716624	
-0.06406095	-0.1011389	0.008587712	-0.0006963669	-0.1087504	-0.3772687	0.006320036	-0.0001159551	
0.006630599	-0.004655569	0.02194498	-0.07716624	0.006320036	-0.0001159551	0.004888799	-0.3795285	

2.506e+10	-0.1125323	-0.3498677	0.006475681	-0.00818259	-0.05983848	-0.09620939	0.00441461	-0.00659347	
0.006475681	-0.00818259	-0.02723733	-0.4114895	0.007647004	-0.003336762	0.02614573	-0.09461181	
-0.05983848	-0.09620939	0.007647004	-0.003336762	-0.09790605	-0.3564174	0.005607231	-0.002305755	
0.00441461	-0.00659347	0.02614573	-0.09461181	0.005607231	-0.002305755	0.007754083	-0.3879625	

2.508e+10	-0.0956257	-0.3431864	0.003385132	-0.009572058	-0.05352799	-0.09245217	0.001649616	-0.007440323	
0.003385132	-0.009572058	-0.03221342	-0.4250511	0.005933887	-0.005409274	0.0266017	-0.1115931	
-0.05352799	-0.09245217	0.005933887	-0.005409274	-0.08205556	-0.3389182	0.004113318	-0.003936133	
0.001649616	-0.007440323	0.0266017	-0.1115931	0.004113318	-0.003936133	0.009013392	-0.3950572	

2.51e+10	-0.07576496	-0.3426025	9.347054e-05	-0.009772453	-0.04509669	-0.09136663	-0.001061574	-0.007065192	
9.347054e-05	-0.009772453	-0.03964559	-0.4362221	0.00370541	-0.006702658	0.02387819	-0.128012	
-0.04509669	-0.09136663	0.00370541	-0.006702658	-0.06125681	-0.3257504	0.002220357	-0.004718712	
-0.001061574	-0.007065192	0.02387819	-0.128012	0.002220357	-0.004718712	0.01028006	-0.4016885	

2.512e+10	-0.05648243	-0.3499714	-0.002869677	-0.008805804	-0.03629623	-0.09445634	-0.003134763	-0.005756733	
-0.002869677	-0.008805804	-0.04850828	-0.4452957	0.001311305	-0.007090362	0.01769361	-0.1435436	
-0.03629623	-0.09445634	0.001311305	-0.007090362	-0.03603667	-0.319162	0.0004110897	-0.004650165	
-0.003134763	-0.005756733	0.01769361	-0.1435436	0.0004110897	-0.004650165	0.01117453	-0.4092675	

2.514e+10	-0.04182637	-0.3636626	-0.005073747	-0.007034924	-0.02967294	-0.1014078	-0.004377924	-0.004065371	
-0.005073747	-0.007034924	-0.05866658	-0.4525734	-0.0008470653	-0.006656621	0.008150346	-0.1570386	
-0.02967294	-0.1014078	-0.0008470653	-0.006656621	-0.009306178	-0.3215053	-0.0009773702	-0.004012377	
-0.004377924	-0.004065371	0.008150346	-0.1570386	-0.0009773702	-0.004012377	0.01023472	-0.4175846	

2.516e+10	-0.03312128	-0.3800294	-0.00643596	-0.004945628	-0.02658159	-0.1101274	-0.00497237	-0.002348305	
-0.00643596	-0.004945628	-0.07005621	-0.4576591	-0.002535727	-0.005687321	-0.003712226	-0.1674489	
-0.02658159	-0.1101274	-0.002535727	-0.005687321	0.01478702	-0.3325514	-0.001908872	-0.003124781	
-0.00497237	-0.002348305	-0.003712226	-0.1674489	-0.001908872	-0.003124781	0.007211815	-0.4250688	

2.518e+10	-0.02898182	-0.3967429	-0.007132376	-0.002805205	-0.02655021	-0.1187788	-0.005066231	-0.0006696808	
-0.007132376	-0.002805205	-0.08209013	-0.4599214	-0.003746944	-0.004441767	-0.01648129	-0.1747445	
-0.02655021	-0.1187788	-0.003746944	-0.004441767	0.03342765	-0.3495252	-0.002457325	-0.002134615	
-0.005066231	-0.0006696808	-0.01648129	-0.1747445	-0.002457325	-0.002134615	0.003533915	-0.4307955	

2.52e+10	-0.02829288	-0.413844	-0.007253818	-0.0006754703	-0.02861738	-0.1269853	-0.004628675	0.0008896668	
-0.007253818	-0.0006754703	-0.09346568	-0.4593985	-0.004525419	-0.003034081	-0.02939014	-0.1796518	
-0.02861738	-0.1269853	-0.004525419	-0.003034081	0.04640779	-0.3696382	-0.002626699	-0.001117674	
-0.004628675	0.0008896668	-0.02939014	-0.1796518	-0.002626699	-0.001117674	0.0006311794	-0.4357095	

2.522e+10	-0.03175227	-0.4313529	-0.006761839	0.001318043	-0.03286823	-0.1347287	-0.003698834	0.002073143	
-0.006761839	0.001318043	-0.103399	-0.4569576	-0.004842558	-0.00155664	-0.04254487	-0.1826812	
-0.03286823	-0.1347287	-0.004842558	-0.00155664	0.05439342	-0.3916408	-0.002413241	-0.0002302434	
-0.003698834	0.002073143	-0.04254487	-0.1826812	-0.002413241	-0.0002302434	-0.001810736	-0.4414763	

2.524e+10	-0.04017075	-0.4477215	-0.005733902	0.002926613	-0.03947293	-0.1411859	-0.002569199	0.002689452	
-0.005733902	0.002926613	-0.1120067	-0.4536163	-0.004699242	-0.0001854552	-0.05612377	-0.1836873	
-0.03947293	-0.1411859	-0.004699242	-0.0001854552	0.05717541	-0.4150201	-0.001956519	0.0003523859	
-0.002569199	0.002689452	-0.05612377	-0.1836873	-0.001956519	0.0003523859	-0.005510019	-0.4484161	

2.526e+10	-0.05272088	-0.4607234	-0.00444515	0.004001027	-0.04777511	-0.1452234	-0.001576503	0.002848776	
-0.00444515	0.004001027	-0.1200311	-0.4495309	-0.004232849	0.0009205888	-0.06974431	-0.1821651	
-0.04777511	-0.1452234	-0.004232849	0.0009205888	0.05403013	-0.4385845	-0.001489644	0.0006209943	
-0.001576503	0.002848776	-0.06974431	-0.1821651	-0.001489644	0.0006209943	-0.01146254	-0.4550356	

2.528e+10	-0.06723464	-0.4694195	-0.003151185	0.00463857	-0.0563001	-0.1465903	-0.0007999402	0.002819414	
-0.003151185	0.00463857	-0.1274967	-0.4440488	-0.003626711	0.001746198	-0.08257876	-0.1780634	
-0.0563001	-0.1465903	-0.003626711	0.001746198	0.04504517	-0.4601505	-0.001137218	0.000719475	
-0.0007999402	0.002819414	-0.08257876	-0.1780634	-0.001137218	0.000719475	-0.01876804	-0.4598772	

2.53e+10	-0.08188666	-0.474567	-0.001900442	0.005013489	-0.06405165	-0.1460522	-0.0001147445	0.002724084	
-0.001900442	0.005013489	-0.1333825	-0.4368197	-0.002967771	0.002379334	-0.09392455	-0.171984	
-0.06405165	-0.1460522	-0.002967771	0.002379334	0.03175685	-0.4779962	-0.0008697336	0.0007702875	
-0.0001147445	0.002724084	-0.09392455	-0.171984	-0.0008697336	0.0007702875	-0.02588472	-0.4631272	

2.532e+10	-0.09644754	-0.4774663	-0.0006195383	0.00516417	-0.07097398	-0.1445565	0.0005548311	0.00249485	
-0.0006195383	0.00516417	-0.1368058	-0.4286691	-0.002241901	0.002865376	-0.1037819	-0.1646753	
-0.07097398	-0.1445565	-0.002241901	0.002865376	0.01615191	-0.4918148	-0.0006232358	0.0007826732	
0.0005548311	0.00249485	-0.1037819	-0.1646753	-0.0006232358	0.0007826732	-0.03255861	-0.4661945	

2.534e+10	-0.1117911	-0.4781249	0.0006818725	0.0049979	-0.07761031	-0.1423474	0.001115939	0.002062337	
0.0006818725	0.0049979	-0.1377404	-0.4211685	-0.0014398	0.00316961	-0.1125342	-0.1563775	
-0.07761031	-0.1423474	-0.0014398	0.00316961	-0.0007891678	-0.5023994	-0.0004091512	0.0007155762	
0.001115939	0.002062337	-0.1125342	-0.1563775	-0.0004091512	0.0007155762	-0.0401694	-0.4696151	

2.536e+10	-0.1277278	-0.475359	0.001858912	0.004473009	-0.08409268	-0.1390725	0.001442854	0.001512871	
0.001858912	0.004473009	-0.1374036	-0.4147416	-0.0006298574	0.003249418	-0.1202931	-0.146708	
-0.08409268	-0.1390725	-0.0006298574	0.003249418	-0.01918591	-0.5100993	-0.0002948264	0.0005882417	
0.001442854	0.001512871	-0.1202931	-0.146708	-0.0002948264	0.0005882417	-0.04979868	-0.4719801	

2.538e+10	-0.1427979	-0.4682397	0.002769257	0.003693807	-0.08998202	-0.1343628	0.00154739	0.001008461	
0.002769257	0.003693807	-0.1364096	-0.4086332	9.9861e-05	0.003137511	-0.1263696	-0.135278	
-0.08998202	-0.1343628	9.9861e-05	0.003137511	-0.03914966	-0.5141918	-0.0002980818	0.0004875707	
0.00154739	0.001008461	-0.1263696	-0.135278	-0.0002980818	0.0004875707	-0.0605141	-0.4714723	

2.54e+10	-0.1548465	-0.4574741	0.003403352	0.002810799	-0.09463645	-0.1285026	0.001555909	0.0006135165	
0.003403352	0.002810799	-0.1338636	-0.4024088	0.0007161843	0.002911612	-0.1297945	-0.1226548	
-0.09463645	-0.1285026	0.0007161843	0.002911612	-0.05967375	-0.5136251	-0.0003580009	0.0004806452	
0.001555909	0.0006135165	-0.1297945	-0.1226548	-0.0003580009	0.0004806452	-0.07019513	-0.4679545	

2.542e+10	-0.1631002	-0.4449702	0.003829629	0.001890642	-0.09785673	-0.1221452	0.001556327	0.0002594207	
0.003829629	0.001890642	-0.1287744	-0.3972702	0.001249067	0.0026232	-0.1302462	-0.1101055	
-0.09785673	-0.1221452	0.001249067	0.0026232	-0.07896668	-0.508333	-0.000390691	0.0005594179	
0.001556327	0.0002594207	-0.1302462	-0.1101055	-0.000390691	0.0005594179	-0.07771321	-0.4631048	

2.544e+10	-0.1682097	-0.432104	0.004073765	0.0009096985	-0.09996206	-0.1156846	0.00150201	-0.0001365059	
0.004073765	0.0009096985	-0.1219099	-0.3950473	0.001724147	0.002266055	-0.1285034	-0.09849729	
-0.09996206	-0.1156846	0.001724147	0.002266055	-0.09563773	-0.4994559	-0.0003685254	0.0006634713	
0.00150201	-0.0001365059	-0.1285034	-0.09849729	-0.0003685254	0.0006634713	-0.0840311	-0.4583	

2.546e+10	-0.1709906	-0.418582	0.004070544	-0.0001262082	-0.1013006	-0.1088981	0.001290659	-0.0005348723	
0.004070544	-0.0001262082	-0.1154602	-0.3961262	0.002123549	0.001822675	-0.125327	-0.08765717	
-0.1013006	-0.1088981	0.002123549	0.001822675	-0.1096746	-0.4882537	-0.0003237052	0.0007611238	
0.001290659	-0.0005348723	-0.125327	-0.08765717	-0.0003237052	0.0007611238	-0.09048793	-0.4528478	

2.548e+10	-0.1704631	-0.4037393	0.003761513	-0.001112569	-0.1014628	-0.1013212	0.0009162382	-0.0007991729	
0.003761513	-0.001112569	-0.1105804	-0.3990105	0.002407229	0.001315027	-0.1204051	-0.07709111	
-0.1014628	-0.1013212	0.002407229	0.001315027	-0.1215664	-0.4748457	-0.0002812153	0.0008827596	
0.0009162382	-0.0007991729	-0.1204051	-0.07709111	-0.0002812153	0.0008827596	-0.09630865	-0.4450691	

2.55e+10	-0.1645775	-0.389041	0.003191803	-0.001902319	-0.09941624	-0.09322754	0.0005012878	-0.000838454	
0.003191803	-0.001902319	-0.1066819	-0.4026366	0.002568397	0.0007932344	-0.1128912	-0.06745701	
-0.09941624	-0.09322754	0.002568397	0.0007932344	-0.1305656	-0.458658	-0.0002035352	0.001068996	
0.0005012878	-0.000838454	-0.1128912	-0.06745701	-0.0002035352	0.001068996	-0.09916979	-0.4350913	

2.552e+10	-0.1532285	-0.3777344	0.002506172	-0.002420774	-0.09457767	-0.08590831	0.0001934998	-0.0006926183	
0.002506172	-0.002420774	-0.1031346	-0.4075839	0.002639177	0.0002957839	-0.1030263	-0.06034852	
-0.09457767	-0.08590831	0.002639177	0.0002957839	-0.134883	-0.4400835	-1.451503e-05	0.001305519	
0.0001934998	-0.0006926183	-0.1030263	-0.06034852	-1.451503e-05	0.001305519	-0.0979211	-0.4254979	

2.554e+10	-0.1392689	-0.3722935	0.001842105	-0.002718937	-0.08761825	-0.08093677	4.617282e-05	-0.0004864637	
0.001842105	-0.002718937	-0.1010196	-0.4147137	0.002661275	-0.0001850396	-0.0925483	-0.05666924	
-0.08761825	-0.08093677	0.002661275	-0.0001850396	-0.1332285	-0.4212647	0.0003352509	0.001509725	
4.617282e-05	-0.0004864637	-0.0925483	-0.05666924	0.0003352509	0.001509725	-0.09418769	-0.418625	

2.556e+10	-0.1258975	-0.372162	0.001228135	-0.002899635	-0.08003541	-0.078733	8.014875e-06	-0.0003012534	
0.001228135	-0.002899635	-0.1021288	-0.423119	0.002640709	-0.0006833763	-0.08299491	-0.05535073	
-0.08003541	-0.078733	0.002640709	-0.0006833763	-0.1262171	-0.4049875	0.000819533	0.001581242	
8.014875e-06	-0.0003012534	-0.08299491	-0.05535073	0.000819533	0.001581242	-0.09047131	-0.4138976	

2.558e+10	-0.114156	-0.3752607	0.000619851	-0.00299789	-0.07271329	-0.07863325	3.855453e-05	-0.0001288766	
0.000619851	-0.00299789	-0.1065652	-0.4306098	0.002543372	-0.0012206	-0.07411283	-0.05500092	
-0.07271329	-0.07863325	0.002543372	-0.0012206	-0.1159423	-0.3924205	0.001360846	0.001464138	
3.855453e-05	-0.0001288766	-0.07411283	-0.05500092	0.001360846	0.001464138	-0.08691467	-0.4092526	

2.56e+10	-0.1031759	-0.3813284	7.162552e-06	-0.002973791	-0.06552109	-0.08036543	0.0001734339	3.132445e-05	
7.162552e-06	-0.002973791	-0.1129518	-0.4358107	0.002325443	-0.001772924	-0.06482137	-0.05577486	
-0.06552109	-0.08036543	0.002325443	-0.001772924	-0.1036157	-0.3832191	0.001883057	0.00115317	
0.0001734339	3.132445e-05	-0.06482137	-0.05577486	0.001883057	0.00115317	-0.0813712	-0.4046496	

2.562e+10	-0.09391211	-0.3914731	-0.0005371164	-0.002810333	-0.05883822	-0.08462558	0.0004412077	9.201237e-05	
-0.0005371164	-0.002810333	-0.1197265	-0.4391519	0.00198031	-0.002285245	-0.05538402	-0.05891614	
-0.05883822	-0.08462558	0.00198031	-0.002285245	-0.0894178	-0.3773812	0.002330718	0.0006582966	
0.0004412077	9.201237e-05	-0.05538402	-0.05891614	0.002330718	0.0006582966	-0.07337128	-0.4025379	

2.564e+10	-0.0891773	-0.4052644	-0.0009500733	-0.002589194	-0.05426298	-0.09153479	0.0007601839	-5.662617e-05	
-0.0009500733	-0.002589194	-0.1269993	-0.4414449	0.001544787	-0.002730735	-0.04744861	-0.06464073	
-0.05426298	-0.09153479	0.001544787	-0.002730735	-0.07372802	-0.3761424	0.002645846	-1.689056e-05	
0.0007601839	-5.662617e-05	-0.04744861	-0.06464073	0.002645846	-1.689056e-05	-0.06540063	-0.4044666	

2.566e+10	-0.09033658	-0.4195957	-0.001279967	-0.002422547	-0.05323732	-0.09953734	0.0009708371	-0.0004195153	
-0.001279967	-0.002422547	-0.135302	-0.4422769	0.001040929	-0.003137007	-0.04200456	-0.07139505	
-0.05323732	-0.09953734	0.001040929	-0.003137007	-0.05861662	-0.3804408	0.002740977	-0.0008461156	
0.0009708371	-0.0004195153	-0.04200456	-0.07139505	0.002740977	-0.0008461156	-0.06001203	-0.4088693	

2.568e+10	-0.09617821	-0.4313373	-0.001656681	-0.002319155	-0.05537254	-0.1065058	0.0009686114	-0.0008810904	
-0.001656681	-0.002319155	-0.1442261	-0.4404791	0.0004146607	-0.003527713	-0.03813548	-0.07774115	
-0.05537254	-0.1065058	0.0004146607	-0.003527713	-0.04679037	-0.3892176	0.00252391	-0.001737231	
0.0009686114	-0.0008810904	-0.03813548	-0.07774115	0.00252391	-0.001737231	-0.05691065	-0.4130983	

2.57e+10	-0.1038988	-0.4398658	-0.002151994	-0.002173889	-0.05913455	-0.1115445	0.0007673541	-0.001314749	
-0.002151994	-0.002173889	-0.1520564	-0.435667	-0.0004077608	-0.003835788	-0.0344612	-0.08406687	
-0.05913455	-0.1115445	-0.0004077608	-0.003835788	-0.03914275	-0.3999994	0.001973125	-0.002529942	
0.0007673541	-0.001314749	-0.0344612	-0.08406687	0.001973125	-0.002529942	-0.0539552	-0.4167417	

2.572e+10	-0.1123211	-0.4465093	-0.002723338	-0.001875199	-0.06346642	-0.1151592	0.0004323139	-0.00167501	
-0.002723338	-0.001875199	-0.1574639	-0.4288981	-0.001422061	-0.003932688	-0.03110132	-0.09172673	
-0.06346642	-0.1151592	-0.001422061	-0.003932688	-0.03472812	-0.4109854	0.001181179	-0.003083508	
0.0004323139	-0.00167501	-0.03110132	-0.09172673	0.001181179	-0.003083508	-0.05051715	-0.4215841	

2.574e+10	-0.1222472	-0.4518139	-0.003284551	-0.001396239	-0.06849946	-0.1178831	-2.170043e-05	-0.001973481	
-0.003284551	-0.001396239	-0.1604166	-0.4216346	-0.002539049	-0.003723503	-0.02959662	-0.1009509	
-0.06849946	-0.1178831	-0.002539049	-0.003723503	-0.0325011	-0.4221006	0.0002841827	-0.003365222	
-2.170043e-05	-0.001973481	-0.02959662	-0.1009509	0.0002841827	-0.003365222	-0.04841429	-0.4285841	

2.576e+10	-0.1341955	-0.4544924	-0.003797834	-0.0007506138	-0.07455761	-0.1190857	-0.0006386062	-0.002178217	
-0.003797834	-0.0007506138	-0.1615309	-0.414519	-0.003657552	-0.003176101	-0.03080788	-0.1102671	
-0.07455761	-0.1190857	-0.003657552	-0.003176101	-0.03267105	-0.4337012	-0.0006423963	-0.003416124	
-0.0006386062	-0.002178217	-0.03080788	-0.1102671	-0.0006423963	-0.003416124	-0.04936098	-0.4361457	

2.578e+10	-0.1468253	-0.4529577	-0.004249421	9.123867e-05	-0.08088395	-0.1179513	-0.001428602	-0.002173186	
-0.004249421	9.123867e-05	-0.1611417	-0.4072051	-0.004690013	-0.002270271	-0.03383043	-0.1183705	
-0.08088395	-0.1179513	-0.004690013	-0.002270271	-0.03608845	-0.4450392	-0.0015982	-0.00324654	
-0.001428602	-0.002173186	-0.03383043	-0.1183705	-0.0015982	-0.00324654	-0.05257464	-0.4419539	

2.58e+10	-0.1576736	-0.44724	-0.004562246	0.001205397	-0.08605619	-0.1145328	-0.002291846	-0.001825631	
-0.004562246	0.001205397	-0.1582972	-0.3998132	-0.00552273	-0.0009748003	-0.03739755	-0.1255276	
-0.08605619	-0.1145328	-0.00552273	-0.0009748003	-0.04258436	-0.4543889	-0.002556728	-0.002793113	
-0.002291846	-0.001825631	-0.03739755	-0.1255276	-0.002556728	-0.002793113	-0.05588244	-0.4456701	

2.582e+10	-0.1651537	-0.4391516	-0.004551017	0.002613781	-0.08918886	-0.1099428	-0.003035746	-0.001094133	
-0.004551017	0.002613781	-0.1524863	-0.3935405	-0.005972511	0.000693156	-0.04156588	-0.1328807	
-0.08918886	-0.1099428	-0.005972511	0.000693156	-0.05047085	-0.4606232	-0.003392935	-0.001996199	
-0.003035746	-0.001094133	-0.04156588	-0.1328807	-0.003392935	-0.001996199	-0.05818579	-0.4488644	

2.584e+10	-0.1695984	-0.4305507	-0.003990704	0.004187724	-0.09043777	-0.1052922	-0.003484381	-6.568681e-05	
-0.003990704	0.004187724	-0.1442801	-0.3900399	-0.005828264	0.002607108	-0.04759155	-0.1403611	
-0.09043777	-0.1052922	-0.005828264	0.002607108	-0.05799711	-0.4642413	-0.003932996	-0.0009051119	
-0.003484381	-6.568681e-05	-0.04759155	-0.1403611	-0.003932996	-0.0009051119	-0.06046871	-0.45277	

2.586e+10	-0.1720649	-0.4216322	-0.00274999	0.005638315	-0.09046092	-0.1009621	-0.003543703	0.001120726	
-0.00274999	0.005638315	-0.1354028	-0.3899191	-0.004945071	0.004490211	-0.05594661	-0.1465864	
-0.09046092	-0.1009621	-0.004945071	0.004490211	-0.06462522	-0.4666261	-0.004064849	0.00032348	
-0.003543703	0.001120726	-0.05594661	-0.1465864	-0.004064849	0.00032348	-0.06397418	-0.4567616	

2.588e+10	-0.1720335	-0.411865	-0.0008868102	0.006604125	-0.08929314	-0.0966983	-0.003167641	0.002319212	
-0.0008868102	0.006604125	-0.1270139	-0.3927739	-0.00334871	0.005986902	-0.06543306	-0.1504139	
-0.08929314	-0.0966983	-0.00334871	0.005986902	-0.07105493	-0.4683911	-0.003783858	0.001513435	
-0.003167641	0.002319212	-0.06543306	-0.1504139	-0.003783858	0.001513435	-0.06838337	-0.4594286	

2.59e+10	-0.1679951	-0.4019993	0.001316557	0.006794624	-0.08631541	-0.09288644	-0.002357682	0.003362121	
0.001316557	0.006794624	-0.1195516	-0.3979814	-0.001273959	0.006787682	-0.07469782	-0.1522754	
-0.08631541	-0.09288644	-0.001273959	0.006787682	-0.07759607	-0.4689739	-0.003155906	0.002533788	
-0.002357682	0.003362121	-0.07469782	-0.1522754	-0.003155906	0.002533788	-0.07208888	-0.4606129	

2.592e+10	-0.1595	-0.3947763	0.003459389	0.006142434	-0.08147386	-0.09074036	-0.001184037	0.004080797	
0.003459389	0.006142434	-0.1131902	-0.4056749	0.0009089641	0.00676642	-0.08366184	-0.1533193	
-0.08147386	-0.09074036	0.0009089641	0.00676642	-0.08343874	-0.4679493	-0.002260297	0.003303554	
-0.001184037	0.004080797	-0.08366184	-0.1533193	-0.002260297	0.003303554	-0.07427509	-0.4618051	

2.594e+10	-0.1486014	-0.3926404	0.005211858	0.004795068	-0.0758984	-0.09148502	0.0002062012	0.004335499	
0.005211858	0.004795068	-0.1088129	-0.4159528	0.002858224	0.006006413	-0.09333339	-0.1537482	
-0.0758984	-0.09148502	0.002858224	0.006006413	-0.08740164	-0.4661266	-0.001172166	0.003751857	
0.0002062012	0.004335499	-0.09333339	-0.1537482	-0.001172166	0.003751857	-0.07585612	-0.4645475	

2.596e+10	-0.1386992	-0.3953989	0.006395409	0.002983995	-0.07140224	-0.09496071	0.001601733	0.00407082	
0.006395409	0.002983995	-0.1078256	-0.4280069	0.004347934	0.004712801	-0.1040141	-0.1524218	
-0.07140224	-0.09496071	0.004347934	0.004712801	-0.08987456	-0.4649636	-1.375041e-05	0.003805975	
0.001601733	0.00407082	-0.1040141	-0.1524218	-1.375041e-05	0.003805975	-0.07878698	-0.4685015	

2.598e+10	-0.1310744	-0.4010226	0.0069253	0.0009196778	-0.06893623	-0.09992876	0.002797631	0.003342253	
0.0069253	0.0009196778	-0.1106732	-0.4402832	0.005279741	0.003109757	-0.114721	-0.1484852	
-0.06893623	-0.09992876	0.005279741	0.003109757	-0.09208262	-0.4650512	0.001038394	0.003462026	
0.002797631	0.003342253	-0.114721	-0.1484852	0.001038394	0.003462026	-0.08349587	-0.472083	

2.6e+10	-0.1253025	-0.4083163	0.006742981	-0.001168048	-0.06822356	-0.1053366	0.003646874	0.002275016	
0.006742981	-0.001168048	-0.1168134	-0.4513591	0.0056214	0.001405325	-0.124127	-0.1423396	
-0.06822356	-0.1053366	0.0056214	0.001405325	-0.09520719	-0.4654628	0.001823787	0.002823141	
0.003646874	0.002275016	-0.124127	-0.1423396	0.001823787	0.002823141	-0.08885771	-0.4743491	

2.602e+10	-0.1211313	-0.4177528	0.005886014	-0.002983562	-0.06891717	-0.1110654	0.004067651	0.001040007	
0.005886014	-0.002983562	-0.1252443	-0.4606577	0.005392623	-0.0001822084	-0.1319927	-0.135022	
-0.06891717	-0.1110654	0.005392623	-0.0001822084	-0.09860602	-0.4651022	0.002271155	0.002067099	
0.004067651	0.001040007	-0.1319927	-0.135022	0.002271155	0.002067099	-0.09372085	-0.4759401	

2.604e+10	-0.1199675	-0.4293858	0.004590481	-0.004281292	-0.07135985	-0.117182	0.004080106	-0.0001915422	
0.004590481	-0.004281292	-0.1354111	-0.4682225	0.004722731	-0.001439018	-0.138896	-0.1270075	
-0.07135985	-0.117182	0.004722731	-0.001439018	-0.1013216	-0.4639245	0.002434404	0.00135603	
0.004080106	-0.0001915422	-0.138896	-0.1270075	0.002434404	0.00135603	-0.09872616	-0.4779908	

2.606e+10	-0.123254	-0.4414463	0.003162211	-0.005048039	-0.07614437	-0.1229041	0.003748555	-0.001323385	
0.003162211	-0.005048039	-0.1472622	-0.4739698	0.003841091	-0.002259145	-0.1451742	-0.1177277	
-0.07614437	-0.1229041	0.003841091	-0.002259145	-0.1029697	-0.4629366	0.002411711	0.0007535662	
0.003748555	-0.001323385	-0.1451742	-0.1177277	0.002411711	0.0007535662	-0.1053963	-0.4801689	

2.608e+10	-0.1303545	-0.4516238	0.001753461	-0.005421702	-0.08297698	-0.1269471	0.00309671	-0.002283509	
0.001753461	-0.005421702	-0.1609323	-0.4770986	0.002968091	-0.002685077	-0.1501512	-0.106628	
-0.08297698	-0.1269471	0.002968091	-0.002685077	-0.1041576	-0.4629373	0.002251606	0.0002804164	
0.00309671	-0.002283509	-0.1501512	-0.106628	0.002251606	0.0002804164	-0.1139032	-0.48072	

2.61e+10	-0.1392577	-0.4589269	0.0003740325	-0.005468223	-0.09056117	-0.1286645	0.002176186	-0.002931306	
0.0003740325	-0.005468223	-0.1753455	-0.476832	0.002228632	-0.002835751	-0.1527068	-0.09398257	
-0.09056117	-0.1286645	0.002228632	-0.002835751	-0.105814	-0.463495	0.002013789	6.563421e-06	
0.002176186	-0.002931306	-0.1527068	-0.09398257	0.002013789	6.563421e-06	-0.1227782	-0.4781895	

2.612e+10	-0.1485543	-0.4640834	-0.0009074325	-0.005157885	-0.09779558	-0.1285611	0.001187602	-0.003146219	
-0.0009074325	-0.005157885	-0.1892425	-0.4729005	0.001676401	-0.002822259	-0.1523349	-0.08082746	
-0.09779558	-0.1285611	0.001676401	-0.002822259	-0.1079178	-0.4637489	0.001866426	-3.200671e-05	
0.001187602	-0.003146219	-0.1523349	-0.08082746	0.001866426	-3.200671e-05	-0.1301061	-0.4729921	

2.614e+10	-0.1583027	-0.4682234	-0.00192096	-0.00455642	-0.1045238	-0.1276577	0.0004065898	-0.003024695	
-0.00192096	-0.00455642	-0.201507	-0.4658782	0.0013546	-0.002760447	-0.1492372	-0.06807423	
-0.1045238	-0.1276577	0.0013546	-0.002760447	-0.1094034	-0.4638939	0.002012612	1.887413e-05	
0.0004065898	-0.003024695	-0.1492372	-0.06807423	0.002012612	1.887413e-05	-0.1352583	-0.4667781	

2.616e+10	-0.1694755	-0.4712523	-0.002607721	-0.003898311	-0.1115147	-0.1261331	-0.0001062521	-0.002866231	
-0.002607721	-0.003898311	-0.2117353	-0.456562	0.001251753	-0.002832212	-0.1438838	-0.05592445	
-0.1115147	-0.1261331	0.001251753	-0.002832212	-0.1103443	-0.4649763	0.002468433	-0.0001628713	
-0.0001062521	-0.002866231	-0.1438838	-0.05592445	0.002468433	-0.0001628713	-0.1390815	-0.4603698	

2.618e+10	-0.1820112	-0.4719383	-0.003149906	-0.003355482	-0.1190013	-0.1232725	-0.000581791	-0.00282675	
-0.003149906	-0.003355482	-0.2196096	-0.4453242	0.001185136	-0.003209691	-0.1359702	-0.04428437	
-0.1190013	-0.1232725	0.001185136	-0.003209691	-0.112075	-0.4675449	0.002943844	-0.0008154596	
-0.000581791	-0.00282675	-0.1359702	-0.04428437	0.002943844	-0.0008154596	-0.1418577	-0.4529454	

2.62e+10	-0.1947998	-0.4693612	-0.003762832	-0.00284168	-0.1262586	-0.1183576	-0.001208776	-0.002752362	
-0.003762832	-0.00284168	-0.224536	-0.4322502	0.000864938	-0.00386951	-0.1246458	-0.0337721	
-0.1262586	-0.1183576	0.000864938	-0.00386951	-0.1157695	-0.4706198	0.003064687	-0.001848883	
-0.001208776	-0.002752362	-0.1246458	-0.0337721	0.003064687	-0.001848883	-0.1422705	-0.4439192	

2.622e+10	-0.2063545	-0.4639156	-0.00444984	-0.002137739	-0.1322903	-0.1117148	-0.001902197	-0.00243295	
-0.00444984	-0.002137739	-0.2253663	-0.4182009	0.0001028197	-0.004576645	-0.1095953	-0.02627104	
-0.1322903	-0.1117148	0.0001028197	-0.004576645	-0.1213884	-0.4724343	0.002674728	-0.002952505	
-0.001902197	-0.00243295	-0.1095953	-0.02627104	0.002674728	-0.002952505	-0.1382778	-0.4351164	

2.624e+10	-0.2163639	-0.4566895	-0.005022376	-0.00114751	-0.1367714	-0.1042296	-0.002441942	-0.001873768	
-0.005022376	-0.00114751	-0.221645	-0.4051786	-0.001080349	-0.005052283	-0.09223406	-0.023819	
-0.1367714	-0.1042296	-0.001080349	-0.005052283	-0.1274362	-0.4722996	0.001868175	-0.003867088	
-0.002441942	-0.001873768	-0.09223406	-0.023819	0.001868175	-0.003867088	-0.1307356	-0.4294931	

2.626e+10	-0.2252489	-0.4482473	-0.005322036	2.600858e-05	-0.1402013	-0.09624965	-0.002762802	-0.001260829	
-0.005322036	2.600858e-05	-0.2144282	-0.3950921	-0.002533312	-0.005123516	-0.07504654	-0.02691489	
-0.1402013	-0.09624965	-0.002533312	-0.005123516	-0.1329829	-0.4708926	0.0007895834	-0.004516197	
-0.002762802	-0.001260829	-0.07504654	-0.02691489	0.0007895834	-0.004516197	-0.1224557	-0.4284645	

2.628e+10	-0.2333587	-0.4377773	-0.005355973	0.001259191	-0.1428253	-0.0873521	-0.003002366	-0.0006749608	
-0.005355973	0.001259191	-0.2055078	-0.3886287	-0.004109548	-0.004712523	-0.0598207	-0.0345375	
-0.1428253	-0.0873521	-0.004109548	-0.004712523	-0.1383726	-0.4689409	-0.0005275995	-0.0048693	
-0.003002366	-0.0006749608	-0.0598207	-0.0345375	-0.0005275995	-0.0048693	-0.1157547	-0.4304992	

2.63e+10	-0.2395285	-0.4244015	-0.005150789	0.002555753	-0.1439401	-0.07701833	-0.003219047	1.854058e-05	
-0.005150789	0.002555753	-0.1962609	-0.38535	-0.005655106	-0.003737358	-0.04705121	-0.04569143	
-0.1439401	-0.07701833	-0.005655106	-0.003737358	-0.1441651	-0.46601	-0.002043889	-0.00476875	
-0.003219047	1.854058e-05	-0.04705121	-0.04569143	-0.002043889	-0.00476875	-0.1105691	-0.4337799	

2.632e+10	-0.2417438	-0.4086037	-0.004601676	0.003923263	-0.1423925	-0.06558359	-0.00323504	0.000897764	
-0.004601676	0.003923263	-0.1871718	-0.3847812	-0.006917152	-0.002155777	-0.03734856	-0.06028403	
-0.1423925	-0.06558359	-0.006917152	-0.002155777	-0.1497651	-0.4609295	-0.003504666	-0.00405733	
-0.00323504	0.000897764	-0.03734856	-0.06028403	-0.003504666	-0.00405733	-0.1059726	-0.4383729	

2.634e+10	-0.2387564	-0.3925309	-0.003586559	0.005204841	-0.1375238	-0.05436626	-0.002885041	0.001780447	
-0.003586559	0.005204841	-0.1786988	-0.3869169	-0.007601703	-0.000116763	-0.03230531	-0.07776149	
-0.1375238	-0.05436626	-0.007601703	-0.000116763	-0.1537245	-0.4533775	-0.004561238	-0.002851285	
-0.002885041	0.001780447	-0.03230531	-0.07776149	-0.004561238	-0.002851285	-0.1027216	-0.4449363	

2.636e+10	-0.2313406	-0.3782541	-0.00214152	0.006163458	-0.1297157	-0.0446647	-0.002266126	0.002418249	
-0.00214152	0.006163458	-0.1717644	-0.3914757	-0.00756625	0.002079831	-0.033182	-0.0959864	
-0.1297157	-0.0446647	-0.00756625	0.002079831	-0.1544588	-0.4447946	-0.005088382	-0.001493733	
-0.002266126	0.002418249	-0.033182	-0.0959864	-0.005088382	-0.001493733	-0.1022107	-0.4528075	

2.638e+10	-0.2207326	-0.3664909	-0.0004444433	0.006656279	-0.1197416	-0.03690595	-0.001623142	0.002792199	
-0.0004444433	0.006656279	-0.1671626	-0.3976641	-0.006861979	0.004149217	-0.03942948	-0.1123414	
-0.1197416	-0.03690595	-0.006861979	0.004149217	-0.1521035	-0.4370273	-0.005254715	-0.0002147256	
-0.001623142	0.002792199	-0.03942948	-0.1123414	-0.005254715	-0.0002147256	-0.1047741	-0.4600499	

2.64e+10	-0.2070286	-0.3571432	0.001339684	0.006665707	-0.1077325	-0.03123803	-0.001037451	0.003084504	
0.001339684	0.006665707	-0.1648657	-0.4043945	-0.005609253	0.005927473	-0.04920728	-0.1255622	
-0.1077325	-0.03123803	-0.005609253	0.005927473	-0.1478944	-0.4307373	-0.00523187	0.001021712	
-0.001037451	0.003084504	-0.04920728	-0.1255622	-0.00523187	0.001021712	-0.1089756	-0.4653504	

2.642e+10	-0.18954	-0.3517198	0.003103591	0.006192599	-0.09341588	-0.02854227	-0.0003588492	0.003385233	
0.003103591	0.006192599	-0.1644774	-0.4108069	-0.003914139	0.007302899	-0.06115697	-0.1358267	
-0.09341588	-0.02854227	-0.003914139	0.007302899	-0.1421866	-0.4256916	-0.00497346	0.002321277	
-0.0003588492	0.003385233	-0.06115697	-0.1358267	-0.00497346	0.002321277	-0.1131521	-0.4691475	

2.644e+10	-0.1697853	-0.3529455	0.004716159	0.00521966	-0.0776822	-0.03064683	0.0005308087	0.003538205	
0.004716159	0.00521966	-0.1654161	-0.4167304	-0.001899361	0.008162016	-0.07506784	-0.1432868	
-0.0776822	-0.03064683	-0.001899361	0.008162016	-0.1346001	-0.4222666	-0.004329936	0.003603727	
0.0005308087	0.003538205	-0.07506784	-0.1432868	-0.004329936	0.003603727	-0.1171513	-0.4726786	

2.646e+10	-0.1515791	-0.3620064	0.00599715	0.003794758	-0.06315049	-0.0383961	0.00150717	0.003356111	
0.00599715	0.003794758	-0.1673238	-0.4223962	0.0002584661	0.008430739	-0.09074138	-0.14721	
-0.06315049	-0.0383961	0.0002584661	0.008430739	-0.1253491	-0.4218194	-0.003310944	0.004653788	
0.00150717	0.003356111	-0.09074138	-0.14721	-0.003310944	0.004653788	-0.1218726	-0.4763879	

2.648e+10	-0.1386651	-0.376475	0.006812857	0.002063152	-0.05242371	-0.05036042	0.002352217	0.002866287	
0.006812857	0.002063152	-0.1705448	-0.4276908	0.00236747	0.008128758	-0.1069607	-0.1467335	
-0.05242371	-0.05036042	0.00236747	0.008128758	-0.11627	-0.4253033	-0.002097472	0.005363137	
0.002352217	0.002866287	-0.1069607	-0.1467335	-0.002097472	0.005363137	-0.1280836	-0.479353	

2.65e+10	-0.1315088	-0.3928106	0.007114689	0.000189026	-0.04615639	-0.06409168	0.003007036	0.00222095	
0.007114689	0.000189026	-0.175162	-0.4320209	0.004291446	0.007338637	-0.1219985	-0.1419866	
-0.04615639	-0.06409168	0.004291446	0.007338637	-0.109309	-0.4319848	-0.0008172522	0.005798894	
0.003007036	0.00222095	-0.1219985	-0.1419866	-0.0008172522	0.005798894	-0.1352515	-0.4805285	

2.652e+10	-0.1286132	-0.4094035	0.006894147	-0.001683417	-0.04355133	-0.0782463	0.003542031	0.001473245	
0.006894147	-0.001683417	-0.180566	-0.4348513	0.005953644	0.006153347	-0.1347469	-0.1341368	
-0.04355133	-0.0782463	0.005953644	0.006153347	-0.1053175	-0.4400321	0.0005514427	0.006031343	
0.003542031	0.001473245	-0.1347469	-0.1341368	0.0005514427	0.006031343	-0.142127	-0.4798126	

2.654e+10	-0.1294904	-0.426203	0.006174018	-0.003398968	-0.04422967	-0.09252156	0.003958597	0.000547653	
0.006174018	-0.003398968	-0.1859505	-0.4361658	0.007312923	0.004651671	-0.1450924	-0.1241836	
-0.04422967	-0.09252156	0.007312923	0.004651671	-0.1035354	-0.4481045	0.002075694	0.005994923	
0.003958597	0.000547653	-0.1450924	-0.1241836	0.002075694	0.005994923	-0.1480557	-0.4779955	

2.656e+10	-0.1349044	-0.4423565	0.00505003	-0.004815132	-0.04861172	-0.1063243	0.004111835	-0.0005825725	
0.00505003	-0.004815132	-0.1909348	-0.4364095	0.008344888	0.002887393	-0.1531737	-0.112435	
-0.04861172	-0.1063243	0.008344888	0.002887393	-0.1031981	-0.4560701	0.003705829	0.005531106	
0.004111835	-0.0005825725	-0.1531737	-0.112435	0.003705829	0.005531106	-0.1537828	-0.4755532	

2.658e+10	-0.1443414	-0.4561264	0.003662308	-0.005870033	-0.05656726	-0.1182238	0.00386477	-0.001773348	
0.003662308	-0.005870033	-0.1956043	-0.4358496	0.009016098	0.0008938715	-0.1585187	-0.09886122	
-0.05656726	-0.1182238	0.009016098	0.0008938715	-0.1040532	-0.4643649	0.005250304	0.004551326	
0.00386477	-0.001773348	-0.1585187	-0.09886122	0.005250304	0.004551326	-0.1594663	-0.4719364	

2.66e+10	-0.1563378	-0.4661627	0.00210596	-0.006576644	-0.06678531	-0.1270456	0.003233143	-0.002829307	
0.00210596	-0.006576644	-0.1998664	-0.4343411	0.009263081	-0.001296698	-0.1601232	-0.08395961	
-0.06678531	-0.1270456	0.009263081	-0.001296698	-0.1068048	-0.472776	0.006508777	0.003102994	
0.003233143	-0.002829307	-0.1601232	-0.08395961	0.006508777	0.003102994	-0.1643981	-0.4660546	

2.662e+10	-0.1688194	-0.472794	0.0004035604	-0.006929559	-0.07770027	-0.1329148	0.002321071	-0.00364195	
0.0004035604	-0.006929559	-0.2030682	-0.4317375	0.008999082	-0.00362217	-0.1572384	-0.06921933	
-0.07770027	-0.1329148	0.008999082	-0.00362217	-0.1116054	-0.4803552	0.007357106	0.001300699	
0.002321071	-0.00364195	-0.1572384	-0.06921933	0.007357106	0.001300699	-0.1667382	-0.4581095	

2.664e+10	-0.1809755	-0.4771738	-0.0014051	-0.006839051	-0.08861876	-0.136722	0.001209551	-0.00416846	
-0.0014051	-0.006839051	-0.2044368	-0.4286107	0.008130753	-0.005969792	-0.1501454	-0.05634624	
-0.08861876	-0.136722	0.008130753	-0.005969792	-0.1176463	-0.4862915	0.007722863	-0.0007603226	
0.001209551	-0.00416846	-0.1501454	-0.05634624	0.007722863	-0.0007603226	-0.1652555	-0.4498781	

2.666e+10	-0.1933377	-0.479974	-0.003156452	-0.006213642	-0.09977697	-0.1390079	-3.539789e-05	-0.004352156	
-0.003156452	-0.006213642	-0.2038015	-0.4263209	0.006587332	-0.008163771	-0.1399321	-0.04657634	
-0.09977697	-0.1390079	0.006587332	-0.008163771	-0.1238442	-0.4908683	0.007501223	-0.002994657	
-3.539789e-05	-0.004352156	-0.1399321	-0.04657634	0.007501223	-0.002994657	-0.160426	-0.4436558	

2.668e+10	-0.2059937	-0.481083	-0.004623386	-0.005098884	-0.1114237	-0.1394781	-0.001304936	-0.004126168	
-0.004623386	-0.005098884	-0.2019541	-0.4260818	0.004361524	-0.009970797	-0.12773	-0.04054288	
-0.1114237	-0.1394781	0.004361524	-0.009970797	-0.1299394	-0.4949476	0.006540017	-0.005233921	
-0.001304936	-0.004126168	-0.12773	-0.04054288	0.006540017	-0.005233921	-0.1539214	-0.4402694	

2.67e+10	-0.2188643	-0.4798099	-0.00566485	-0.003673177	-0.1230579	-0.1376811	-0.002425212	-0.00347646	
-0.00566485	-0.003673177	-0.2003357	-0.4280599	0.001551712	-0.01112127	-0.1145216	-0.03856303	
-0.1230579	-0.1376811	0.001551712	-0.01112127	-0.1366678	-0.4988889	0.004757407	-0.007137748	
-0.002425212	-0.00347646	-0.1145216	-0.03856303	0.004757407	-0.007137748	-0.1466428	-0.4395434	

2.672e+10	-0.2309106	-0.4761759	-0.006275564	-0.00211318	-0.1338433	-0.1337966	-0.003212851	-0.002507446	
-0.006275564	-0.00211318	-0.200203	-0.4314976	-0.001597331	-0.01138146	-0.1015587	-0.04107361	
-0.1338433	-0.1337966	-0.001597331	-0.01138146	-0.1445243	-0.5020313	0.002341378	-0.008285844	
-0.003212851	-0.002507446	-0.1015587	-0.04107361	0.002341378	-0.008285844	-0.1391587	-0.4416239	

2.674e+10	-0.2415356	-0.4707856	-0.006495061	-0.0005054697	-0.143474	-0.1285061	-0.003582726	-0.001410551	
-0.006495061	-0.0005054697	-0.2015101	-0.4357083	-0.004737205	-0.01064994	-0.09069995	-0.04798262	
-0.143474	-0.1285061	-0.004737205	-0.01064994	-0.1531077	-0.5036208	-0.0002589944	-0.008462438	
-0.003582726	-0.001410551	-0.09069995	-0.04798262	-0.0002589944	-0.008462438	-0.1323356	-0.447044	

2.676e+10	-0.250753	-0.4645329	-0.006310425	0.001085463	-0.1522454	-0.1222772	-0.003566193	-0.0003792276	
-0.006310425	0.001085463	-0.204517	-0.4399907	-0.007509071	-0.009006272	-0.08360571	-0.05786975	
-0.1522454	-0.1222772	-0.007509071	-0.009006272	-0.1614186	-0.5036658	-0.002588408	-0.007794665	
-0.003566193	-0.0003792276	-0.08360571	-0.05786975	-0.002588408	-0.007794665	-0.1278486	-0.455446	

2.678e+10	-0.2592801	-0.4575305	-0.005715113	0.002520665	-0.1604985	-0.1149904	-0.003286154	0.000454238	
-0.005715113	0.002520665	-0.2089946	-0.443935	-0.009642992	-0.006664682	-0.08074052	-0.06861843	
-0.1604985	-0.1149904	-0.009642992	-0.006664682	-0.1691616	-0.5029439	-0.004439628	-0.006596911	
-0.003286154	0.000454238	-0.08074052	-0.06861843	-0.004439628	-0.006596911	-0.1270693	-0.465125	

2.68e+10	-0.2672273	-0.4491688	-0.004829048	0.003648207	-0.1681053	-0.1060666	-0.002895247	0.001064096	
-0.004829048	0.003648207	-0.2149475	-0.4468276	-0.01100424	-0.003903291	-0.08119854	-0.07868686	
-0.1681053	-0.1060666	-0.01100424	-0.003903291	-0.1770223	-0.5018433	-0.005831239	-0.005097678	
-0.002895247	0.001064096	-0.08119854	-0.07868686	-0.005831239	-0.005097678	-0.1295097	-0.4740577	

2.682e+10	-0.2739187	-0.4388727	-0.003848105	0.004453356	-0.1742977	-0.09542521	-0.002490143	0.00150749	
-0.003848105	0.004453356	-0.2216965	-0.4481748	-0.01158767	-0.0009913764	-0.08391067	-0.08774616	
-0.1742977	-0.09542521	-0.01158767	-0.0009913764	-0.1854818	-0.4998134	-0.006784909	-0.003381352	
-0.002490143	0.00150749	-0.08391067	-0.08774616	-0.006784909	-0.003381352	-0.1336884	-0.481412	

2.684e+10	-0.2781246	-0.4271309	-0.002887871	0.005060925	-0.1784589	-0.08348234	-0.002104893	0.001844642	
-0.002887871	0.005060925	-0.2283855	-0.4480384	-0.01147582	0.001881294	-0.08855768	-0.09600265	
-0.1784589	-0.08348234	-0.01147582	0.001881294	-0.1942896	-0.4957686	-0.007250419	-0.001546415	
-0.002104893	0.001844642	-0.08855768	-0.09600265	-0.007250419	-0.001546415	-0.1385678	-0.4877382	

2.686e+10	-0.279536	-0.4150539	-0.001904428	0.005603836	-0.1804853	-0.07084047	-0.001752212	0.002121828	
-0.001904428	0.005603836	-0.2347117	-0.4468703	-0.0107664	0.004625609	-0.09545505	-0.1031904	
-0.1804853	-0.07084047	-0.0107664	0.004625609	-0.202149	-0.4894801	-0.007238545	0.0002236867	
-0.001752212	0.002121828	-0.09545505	-0.1031904	-0.007238545	0.0002236867	-0.1443609	-0.4936759	

2.688e+10	-0.2786648	-0.4034955	-0.0007735861	0.006085125	-0.1804784	-0.05780633	-0.00143007	0.002387581	
-0.0007735861	0.006085125	-0.2406547	-0.4452673	-0.009488388	0.007196859	-0.1044774	-0.1083408	
-0.1804784	-0.05780633	-0.009488388	0.007196859	-0.2082313	-0.4816553	-0.006896283	0.001806633	
-0.00143007	0.002387581	-0.1044774	-0.1083408	-0.006896283	0.001806633	-0.1515257	-0.499043	

2.69e+10	-0.2761948	-0.392112	0.0005643844	0.006388017	-0.1783129	-0.04416101	-0.00111106	0.002698306	
0.0005643844	0.006388017	-0.2468094	-0.4430649	-0.007613387	0.009509861	-0.1146821	-0.1107085	
-0.1783129	-0.04416101	-0.007613387	0.009509861	-0.2125404	-0.4731447	-0.006378067	0.003246984	
-0.00111106	0.002698306	-0.1146821	-0.1107085	-0.006378067	0.003246984	-0.160045	-0.5030022	

2.692e+10	-0.2712355	-0.380539	0.002053598	0.006407348	-0.1731685	-0.03012931	-0.0007169432	0.003102951	
0.002053598	0.006407348	-0.2530244	-0.4398453	-0.005156486	0.01140443	-0.1249226	-0.1104833	
-0.1731685	-0.03012931	-0.005156486	0.01140443	-0.2154282	-0.4638882	-0.005688446	0.004682527	
-0.0007169432	0.003102951	-0.1249226	-0.1104833	-0.005688446	0.004682527	-0.1692482	-0.5049507	

2.694e+10	-0.2625344	-0.3696951	0.003627069	0.00611573	-0.1642051	-0.01667934	-0.0001050302	0.003578859	
0.003627069	0.00611573	-0.2588582	-0.4352744	-0.002190364	0.01272587	-0.1347985	-0.1081486	
-0.1642051	-0.01667934	-0.002190364	0.01272587	-0.2162053	-0.4534876	-0.004652234	0.006162527	
-0.0001050302	0.003578859	-0.1347985	-0.1081486	-0.004652234	0.006162527	-0.1779919	-0.5054353	

2.696e+10	-0.2500245	-0.3618903	0.005288423	0.005479958	-0.1512903	-0.005494681	0.0008443987	0.003972243	
0.005288423	0.005479958	-0.2637717	-0.4295944	0.001191958	0.01333985	-0.1442979	-0.1038796	
-0.1512903	-0.005494681	0.001191958	0.01333985	-0.2136833	-0.4424192	-0.003086884	0.00751166	
0.0008443987	0.003972243	-0.1442979	-0.1038796	-0.003086884	0.00751166	-0.1867228	-0.5050483	

2.698e+10	-0.2355867	-0.3589194	0.007027024	0.004344724	-0.1354771	0.001868091	0.002115346	0.004051967	
0.007027024	0.004344724	-0.2676197	-0.4233325	0.004884114	0.01306385	-0.1532028	-0.09741309	
-0.1354771	0.001868091	0.004884114	0.01306385	-0.2071701	-0.4325911	-0.001010028	0.008434037	
0.002115346	0.004051967	-0.1532028	-0.09741309	-0.001010028	0.008434037	-0.1958207	-0.5038124	

2.7e+10	-0.2215935	-0.360618	0.008645005	0.002483651	-0.1182505	0.004852792	0.003551104	0.003629561	
0.008645005	0.002483651	-0.2706821	-0.4166546	0.008646399	0.01166491	-0.1607776	-0.08857104	
-0.1182505	0.004852792	0.008646399	0.01166491	-0.1975416	-0.4261511	0.001386773	0.008725181	
0.003551104	0.003629561	-0.1607776	-0.08857104	0.001386773	0.008725181	-0.2054717	-0.5009918	

2.702e+10	-0.2088496	-0.3658555	0.00970411	-0.0001700805	-0.1006717	0.003427575	0.004923197	0.002616718	
0.00970411	-0.0001700805	-0.2730431	-0.4091013	0.01203012	0.009009835	-0.1660994	-0.07780666	
-0.1006717	0.003427575	0.01203012	0.009009835	-0.1869719	-0.4237218	0.003896765	0.008314547	
0.004923197	0.002616718	-0.1660994	-0.07780666	0.003896765	0.008314547	-0.21513	-0.4957112	

2.704e+10	-0.1976035	-0.3744715	0.00974181	-0.003329289	-0.08361187	-0.00268604	0.005977138	0.001016753	
0.00974181	-0.003329289	-0.2740239	-0.4003516	0.01450995	0.005251384	-0.1687901	-0.06587641	
-0.08361187	-0.00268604	0.01450995	0.005251384	-0.1767401	-0.4247999	0.00635446	0.007153679	
0.005977138	0.001016753	-0.1687901	-0.06587641	0.00635446	0.007153679	-0.2235114	-0.4879662	

2.706e+10	-0.1890003	-0.3869937	0.008581126	-0.006450155	-0.06874119	-0.0137608	0.006433791	-0.001067195	
0.008581126	-0.006450155	-0.2726275	-0.3908024	0.01571694	0.0007943706	-0.1687711	-0.05340771	
-0.06874119	-0.0137608	0.01571694	0.0007943706	-0.1675824	-0.4287207	0.008534016	0.005150689	
0.006433791	-0.001067195	-0.1687711	-0.05340771	0.008534016	0.005150689	-0.2298034	-0.4785645	

2.708e+10	-0.1854527	-0.4020934	0.00638476	-0.009056677	-0.05817121	-0.02875	0.006047987	-0.003357009	
0.00638476	-0.009056677	-0.268411	-0.3814854	0.01551329	-0.003908184	-0.1659377	-0.04075821	
-0.05817121	-0.02875	0.01551329	-0.003908184	-0.1600008	-0.4353383	0.01003821	0.002325255	
0.006047987	-0.003357009	-0.1659377	-0.04075821	0.01003821	0.002325255	-0.2340303	-0.4681638	

2.71e+10	-0.1873881	-0.4169575	0.003409395	-0.01089605	-0.05287203	-0.04526881	0.004754362	-0.005457137	
0.003409395	-0.01089605	-0.2614648	-0.3734105	0.01386359	-0.008448431	-0.1598638	-0.02836094	
-0.05287203	-0.04526881	0.01386359	-0.008448431	-0.1550221	-0.4441643	0.01045958	-0.001018014	
0.004754362	-0.005457137	-0.1598638	-0.02836094	0.01045958	-0.001018014	-0.2361995	-0.4566499	

2.712e+10	-0.1933962	-0.4291235	-0.0001663041	-0.01176282	-0.05204599	-0.06128374	0.002672593	-0.006996631	
-0.0001663041	-0.01176282	-0.2521832	-0.3672033	0.01079013	-0.01236503	-0.1500183	-0.01727811	
-0.05204599	-0.06128374	0.01079013	-0.01236503	-0.1532984	-0.453944	0.009629961	-0.004357608	
0.002672593	-0.006996631	-0.1500183	-0.01727811	0.009629961	-0.004357608	-0.235386	-0.4440044	

2.714e+10	-0.2011715	-0.4383856	-0.004063837	-0.01132494	-0.05440764	-0.07619227	5.878099e-05	-0.007654174	
-0.004063837	-0.01132494	-0.2407521	-0.3635989	0.006503948	-0.01512379	-0.136528	-0.009235728	
-0.05440764	-0.07619227	0.006503948	-0.01512379	-0.154718	-0.4629403	0.007678327	-0.007172192	
5.878099e-05	-0.007654174	-0.136528	-0.009235728	0.007678327	-0.007172192	-0.2303342	-0.4313777	

2.716e+10	-0.2097176	-0.4456726	-0.00763328	-0.009362662	-0.05950383	-0.09010535	-0.002659625	-0.00722087	
-0.00763328	-0.009362662	-0.2276742	-0.3637895	0.001512552	-0.01627085	-0.1206589	-0.005837876	
-0.05950383	-0.09010535	0.001512552	-0.01627085	-0.1579233	-0.4703457	0.004926032	-0.009116208	
-0.002659625	-0.00722087	-0.1206589	-0.005837876	0.004926032	-0.009116208	-0.2208761	-0.4210641	

2.718e+10	-0.2194366	-0.4511101	-0.01010162	-0.006195135	-0.0675521	-0.1026819	-0.004954299	-0.005766008	
-0.01010162	-0.006195135	-0.2146879	-0.3687227	-0.003479542	-0.01566931	-0.1045504	-0.007787782	
-0.0675521	-0.1026819	-0.003479542	-0.01566931	-0.1617993	-0.4763723	0.001741549	-0.01001267	
-0.004954299	-0.005766008	-0.1045504	-0.007787782	0.001741549	-0.01001267	-0.2087491	-0.4150514	

2.72e+10	-0.230013	-0.4541659	-0.01113727	-0.00258353	-0.07826105	-0.112897	-0.006462091	-0.003633775	
-0.01113727	-0.00258353	-0.203909	-0.3782256	-0.007835039	-0.01353248	-0.09012422	-0.01443556	
-0.07826105	-0.112897	-0.007835039	-0.01353248	-0.1659871	-0.4817884	-0.001517329	-0.009779895	
-0.006462091	-0.003633775	-0.09012422	-0.01443556	-0.001517329	-0.009779895	-0.1962129	-0.4134095	

2.722e+10	-0.2403575	-0.4545317	-0.0109452	0.0008479525	-0.09054015	-0.1201945	-0.007069596	-0.001222402	
-0.0109452	0.0008479525	-0.1970499	-0.3906006	-0.0111244	-0.0102653	-0.07841125	-0.02473802	
-0.09054015	-0.1201945	-0.0111244	-0.0102653	-0.1710321	-0.4867564	-0.00441805	-0.008425861	
-0.007069596	-0.001222402	-0.07841125	-0.02473802	-0.00441805	-0.008425861	-0.1844298	-0.4150155	

2.724e+10	-0.2492845	-0.452885	-0.009845553	0.003848522	-0.1033997	-0.1247226	-0.006800146	0.001135514	
-0.009845553	0.003848522	-0.1941446	-0.4041245	-0.01312152	-0.00635167	-0.07002927	-0.03784889	
-0.1033997	-0.1247226	-0.01312152	-0.00635167	-0.1769045	-0.4908334	-0.006491741	-0.00620798	
-0.006800146	0.001135514	-0.07002927	-0.03784889	-0.006491741	-0.00620798	-0.1733881	-0.4194239	

2.726e+10	-0.2567325	-0.4502826	-0.007999076	0.006290132	-0.1164428	-0.1271196	-0.005748107	0.003131367	
-0.007999076	0.006290132	-0.1948154	-0.4175926	-0.01378814	-0.002277667	-0.06579381	-0.05299418	
-0.1164428	-0.1271196	-0.01378814	-0.002277667	-0.1832369	-0.4935	-0.007499613	-0.003641617	
-0.005748107	0.003131367	-0.06579381	-0.05299418	-0.007499613	-0.003641617	-0.1635406	-0.4269286	

2.728e+10	-0.2630656	-0.4476681	-0.005593402	0.007940917	-0.1298498	-0.1274695	-0.004172496	0.004472889	
-0.005593402	0.007940917	-0.1985198	-0.4304252	-0.01327028	0.001528382	-0.06638982	-0.06855684	
-0.1298498	-0.1274695	-0.01327028	0.001528382	-0.1890025	-0.4952081	-0.00757216	-0.001252205	
-0.004172496	0.004472889	-0.06638982	-0.06855684	-0.00757216	-0.001252205	-0.1562317	-0.4372999	

2.73e+10	-0.2691722	-0.4448064	-0.003015148	0.008658326	-0.143489	-0.1253499	-0.002465448	0.005095484	
-0.003015148	0.008658326	-0.2051708	-0.4420025	-0.01183772	0.004768336	-0.07134427	-0.08271148	
-0.143489	-0.1253499	-0.01183772	0.004768336	-0.1943761	-0.4967549	-0.007069607	0.0007280788	
-0.002465448	0.005095484	-0.07134427	-0.08271148	-0.007069607	0.0007280788	-0.1525865	-0.4489905	

2.732e+10	-0.2748386	-0.4413749	-0.0006729987	0.008597299	-0.1566406	-0.1204554	-0.0009100871	0.005172446	
-0.0006729987	0.008597299	-0.2142542	-0.451625	-0.00980444	0.007310667	-0.07935458	-0.09437023	
-0.1566406	-0.1204554	-0.00980444	0.007310667	-0.2001578	-0.4984108	-0.006248601	0.002337499	
-0.0009100871	0.005172446	-0.07935458	-0.09437023	-0.006248601	0.002337499	-0.1519241	-0.4604541	

2.734e+10	-0.2798995	-0.4371621	0.001277526	0.008091571	-0.1684905	-0.1131356	0.0004274384	0.004909327	
0.001277526	0.008091571	-0.2249383	-0.4587507	-0.007427869	0.009172654	-0.0893126	-0.1035427	
-0.1684905	-0.1131356	-0.007427869	0.009172654	-0.2068489	-0.499624	-0.005164011	0.003641459	
0.0004274384	0.004909327	-0.0893126	-0.1035427	-0.005164011	0.003641459	-0.1532824	-0.471195	

2.736e+10	-0.2838557	-0.4327871	0.002935113	0.007380487	-0.1786888	-0.1039994	0.001562918	0.004405478	
0.002935113	0.007380487	-0.2361695	-0.4633089	-0.00486362	0.01042532	-0.1007273	-0.1103105	
-0.1786888	-0.1039994	-0.00486362	0.01042532	-0.2141311	-0.4996052	-0.003852538	0.004568558	
0.001562918	0.004405478	-0.1007273	-0.1103105	-0.003852538	0.004568558	-0.1561099	-0.4816005	

2.738e+10	-0.2872539	-0.4287708	0.004447315	0.006476936	-0.1873129	-0.09347244	0.002484863	0.00369968	
0.004447315	0.006476936	-0.2472648	-0.4658216	-0.002162661	0.01111557	-0.1133276	-0.1144007	
-0.1873129	-0.09347244	-0.002162661	0.01111557	-0.2212433	-0.4983243	-0.002469713	0.005056941	
0.002484863	0.00369968	-0.1133276	-0.1144007	-0.002469713	0.005056941	-0.1608391	-0.4917973	

2.74e+10	-0.2907588	-0.4249607	0.005810848	0.00528135	-0.194405	-0.08148087	0.003148626	0.002862619	
0.005810848	0.00528135	-0.2580999	-0.466969	0.0006253113	0.01120557	-0.1262967	-0.115446	
-0.194405	-0.08148087	0.0006253113	0.01120557	-0.2279457	-0.4962739	-0.001200103	0.005189953	
0.003148626	0.002862619	-0.1262967	-0.115446	-0.001200103	0.005189953	-0.1676112	-0.5012278	

2.742e+10	-0.2945865	-0.4204007	0.006892053	0.003784397	-0.199575	-0.067902	0.00357088	0.002003638	
0.006892053	0.003784397	-0.2690127	-0.4668841	0.003370804	0.01063771	-0.1386504	-0.1136862	
-0.199575	-0.067902	0.003370804	0.01063771	-0.2347144	-0.4936402	-7.589362e-05	0.005151741	
0.00357088	0.002003638	-0.1386504	-0.1136862	-7.589362e-05	0.005151741	-0.1761834	-0.5090747	

2.744e+10	-0.2979526	-0.4144923	0.007612138	0.002103023	-0.2021299	-0.0530278	0.003841203	0.001174667	
0.007612138	0.002103023	-0.27993	-0.4653296	0.005900528	0.009433657	-0.1497668	-0.109894	
-0.2021299	-0.0530278	0.005900528	0.009433657	-0.2418434	-0.4897633	0.001027129	0.005026939	
0.003841203	0.001174667	-0.1497668	-0.109894	0.001027129	0.005026939	-0.1855693	-0.5151563	

2.746e+10	-0.2999085	-0.4075301	0.008007775	0.0003282611	-0.2015936	-0.03754515	0.004021932	0.0003244871	
0.008007775	0.0003282611	-0.2905427	-0.462089	0.008097558	0.007675168	-0.1597307	-0.104724	
-0.2015936	-0.03754515	0.008097558	0.007675168	-0.2487229	-0.4837546	0.002213735	0.004700166	
0.004021932	0.0003244871	-0.1597307	-0.104724	0.002213735	0.004700166	-0.1953988	-0.51985	

2.748e+10	-0.300089	-0.4004082	0.008114514	-0.001565253	-0.1979028	-0.02216338	0.004075563	-0.000606203	
0.008114514	-0.001565253	-0.300315	-0.4575339	0.009883383	0.005403374	-0.1687846	-0.09835334	
-0.1979028	-0.02216338	0.009883383	0.005403374	-0.2540102	-0.4755191	0.003377291	0.004010094	
0.004075563	-0.000606203	-0.1687846	-0.09835334	0.003377291	0.004010094	-0.2058208	-0.5235781	

2.75e+10	-0.2989303	-0.3935408	0.007834085	-0.003639453	-0.1911364	-0.00740954	0.003917582	-0.001605759	
0.007834085	-0.003639453	-0.3095565	-0.4519267	0.01110875	0.002630707	-0.1768754	-0.09066761	
-0.1911364	-0.00740954	0.01110875	0.002630707	-0.2567762	-0.4659178	0.004302534	0.002968119	
0.003917582	-0.001605759	-0.1768754	-0.09066761	0.004302534	0.002968119	-0.2171999	-0.5261842	

2.752e+10	-0.2964907	-0.3865338	0.006958438	-0.005824351	-0.1811374	0.006388763	0.003500683	-0.002595479	
0.006958438	-0.005824351	-0.318283	-0.4453937	0.01153714	-0.0005231521	-0.1836603	-0.08169403	
-0.1811374	0.006388763	0.01153714	-0.0005231521	-0.2567308	-0.4559958	0.004880873	0.001738961	
0.003500683	-0.002595479	-0.1836603	-0.08169403	0.004880873	0.001738961	-0.229445	-0.5269327	

2.754e+10	-0.2917332	-0.3795079	0.005328898	-0.007859221	-0.1674093	0.01842302	0.002831277	-0.003507211	
0.005328898	-0.007859221	-0.3267945	-0.4371533	0.01098683	-0.003771063	-0.1888813	-0.07186247	
-0.1674093	0.01842302	0.01098683	-0.003771063	-0.2540818	-0.4461763	0.005154782	0.0004420295	
0.002831277	-0.003507211	-0.1888813	-0.07186247	0.005154782	0.0004420295	-0.2420444	-0.5252759	

2.756e+10	-0.2837396	-0.3739486	0.002985238	-0.009395867	-0.1497466	0.02710558	0.001903606	-0.004297351	
0.002985238	-0.009395867	-0.3341037	-0.4270184	0.009449792	-0.006739724	-0.1925996	-0.06146636	
-0.1497466	0.02710558	0.009449792	-0.006739724	-0.2481076	-0.4371035	0.005148286	-0.0009299411	
0.001903606	-0.004297351	-0.1925996	-0.06146636	0.005148286	-0.0009299411	-0.2540086	-0.5214875	

2.758e+10	-0.2732912	-0.372177	0.0001407919	-0.01015902	-0.1291931	0.03034954	0.0006801671	-0.00487296	
0.0001407919	-0.01015902	-0.3394522	-0.4151728	0.007079607	-0.009114486	-0.1950385	-0.05065835	
-0.1291931	0.03034954	0.007079607	-0.009114486	-0.238519	-0.4301226	0.004744542	-0.002369678	
0.0006801671	-0.00487296	-0.1950385	-0.05065835	0.004744542	-0.002369678	-0.2652265	-0.516075	

2.76e+10	-0.2628127	-0.3753355	-0.002916444	-0.00999937	-0.1081442	0.02694332	-0.0007933206	-0.005059684	
-0.002916444	-0.00999937	-0.3424341	-0.4023588	0.004089757	-0.01066364	-0.1961651	-0.03923326	
-0.1081442	0.02694332	0.004089757	-0.01066364	-0.2259597	-0.427485	0.003822022	-0.003671082	
-0.0007933206	-0.005059684	-0.1961651	-0.03923326	0.003822022	-0.003671082	-0.2757943	-0.5092209	

2.762e+10	-0.2547564	-0.3824247	-0.005887972	-0.008858756	-0.08913812	0.0172137	-0.002334266	-0.004727181	
-0.005887972	-0.008858756	-0.343246	-0.3889254	0.000763827	-0.01118695	-0.1956002	-0.02703739	
-0.08913812	0.0172137	0.000763827	-0.01118695	-0.2129487	-0.4306797	0.002486223	-0.004539674	
-0.002334266	-0.004727181	-0.1956002	-0.02703739	0.002486223	-0.004539674	-0.2859824	-0.5001628	

2.764e+10	-0.2499836	-0.3917917	-0.008438077	-0.006736028	-0.07403363	0.002352469	-0.003723307	-0.003875853	
-0.008438077	-0.006736028	-0.3416792	-0.3748429	-0.002486306	-0.0105921	-0.1928208	-0.01429522	
-0.07403363	0.002352469	-0.002486306	-0.0105921	-0.2025363	-0.4391336	0.001032123	-0.004859092	
-0.003723307	-0.003875853	-0.1928208	-0.01429522	0.001032123	-0.004859092	-0.2945867	-0.4885347	

2.766e+10	-0.2485199	-0.4025451	-0.01015826	-0.003777824	-0.06408929	-0.01625279	-0.00478021	-0.002597603	
-0.01015826	-0.003777824	-0.3367187	-0.3603293	-0.005212075	-0.009023941	-0.1873637	-0.001536988	
-0.06408929	-0.01625279	-0.005212075	-0.009023941	-0.1964036	-0.4508365	-0.0002975076	-0.004743279	
-0.00478021	-0.002597603	-0.1873637	-0.001536988	-0.0002975076	-0.004743279	-0.3005653	-0.4745299	

2.768e+10	-0.2511113	-0.4134931	-0.01070581	-0.0003925641	-0.06043624	-0.03681808	-0.005380345	-0.001024409	
-0.01070581	-0.0003925641	-0.3275538	-0.3462574	-0.007125746	-0.006857259	-0.1789944	0.01063423	
-0.06043624	-0.03681808	-0.007125746	-0.006857259	-0.1948467	-0.463522	-0.001452305	-0.004363248	
-0.005380345	-0.001024409	-0.1789944	0.01063423	-0.001452305	-0.004363248	-0.302891	-0.4593583	

2.77e+10	-0.2575924	-0.4229995	-0.01004012	0.002858108	-0.06335009	-0.05688071	-0.005437086	0.0006772249	
-0.01004012	0.002858108	-0.3137919	-0.3347393	-0.008227176	-0.004496785	-0.1675942	0.02143959	
-0.06335009	-0.05688071	-0.008227176	-0.004496785	-0.1973042	-0.47563	-0.002480265	-0.003774408	
-0.005437086	0.0006772249	-0.1675942	0.02143959	-0.002480265	-0.003774408	-0.3016882	-0.4440874	

2.772e+10	-0.2668101	-0.4293161	-0.008425513	0.005538738	-0.0716442	-0.07411204	-0.004926777	0.002304726	
-0.008425513	0.005538738	-0.2965341	-0.3276056	-0.008675015	-0.002161316	-0.1530659	0.03011358	
-0.0716442	-0.07411204	-0.008675015	-0.002161316	-0.2027899	-0.4864534	-0.003357232	-0.002930765	
-0.004926777	0.002304726	-0.1530659	0.03011358	-0.003357232	-0.002930765	-0.2970264	-0.4291206	

2.774e+10	-0.2766588	-0.4321007	-0.006209414	0.007471313	-0.08336563	-0.08745081	-0.003917191	0.003656676	
-0.006209414	0.007471313	-0.2773046	-0.3258318	-0.008575011	7.03428e-05	-0.1354775	0.03541551	
-0.08336563	-0.08745081	-0.008575011	7.03428e-05	-0.2110734	-0.495094	-0.003950918	-0.001849064	
-0.003917191	0.003656676	-0.1354775	0.03541551	-0.003950918	-0.001849064	-0.2883702	-0.4149103	

2.776e+10	-0.2858335	-0.4320111	-0.003649199	0.008613689	-0.0969685	-0.09710398	-0.002542196	0.00458247	
-0.003649199	0.008613689	-0.2576007	-0.3299512	-0.007965945	0.002112132	-0.115584	0.0355583	
-0.0969685	-0.09710398	-0.007965945	0.002112132	-0.2208899	-0.5010613	-0.004166783	-0.0006793502	
-0.002542196	0.00458247	-0.115584	0.0355583	-0.004166783	-0.0006793502	-0.2749219	-0.4033228	

2.778e+10	-0.2936309	-0.4304468	-0.0009593422	0.008912014	-0.1116997	-0.1034712	-0.0009772222	0.004980943	
-0.0009593422	0.008912014	-0.23925	-0.3406711	-0.006928825	0.00384071	-0.09554152	0.02915528	
-0.1116997	-0.1034712	-0.006928825	0.00384071	-0.2311708	-0.5042232	-0.004055062	0.0004126132	
-0.0009772222	0.004980943	-0.09554152	0.02915528	-0.004055062	0.0004126132	-0.2577994	-0.3969763	

2.78e+10	-0.3006013	-0.4278711	0.001552917	0.008347888	-0.1272794	-0.106611	0.0005565983	0.004829733	
0.001552917	0.008347888	-0.2252719	-0.3575873	-0.005601049	0.005188444	-0.07843934	0.01634397	
-0.1272794	-0.106611	-0.005601049	0.005188444	-0.2408237	-0.5053513	-0.003734218	0.001379847	
0.0005565983	0.004829733	-0.07843934	0.01634397	-0.003734218	0.001379847	-0.2399953	-0.3972175	

2.782e+10	-0.3066681	-0.4245807	0.003558427	0.007103228	-0.1430992	-0.1061973	0.001858522	0.004224012	
0.003558427	0.007103228	-0.2180898	-0.378505	-0.004099242	0.006165185	-0.06651489	-0.0008242839	
-0.1430992	-0.1061973	-0.004099242	0.006165185	-0.2499622	-0.505316	-0.003238162	0.002270756	
0.001858522	0.004224012	-0.06651489	-0.0008242839	-0.003238162	0.002270756	-0.2243925	-0.4029883	

2.784e+10	-0.3120008	-0.420416	0.004910558	0.005514783	-0.1582022	-0.1023065	0.002820927	0.003317627	
0.004910558	0.005514783	-0.2185806	-0.3997423	-0.002477396	0.006788153	-0.06029453	-0.01995218	
-0.1582022	-0.1023065	-0.002477396	0.006788153	-0.2588589	-0.5045511	-0.002494033	0.003063441	
0.002820927	0.003317627	-0.06029453	-0.01995218	-0.002494033	0.003063441	-0.211906	-0.4123245	

2.786e+10	-0.3162902	-0.4156415	0.005681504	0.003879002	-0.1718328	-0.09548387	0.003409451	0.002262404	
0.005681504	0.003879002	-0.2252374	-0.4184862	-0.0007803418	0.007032237	-0.05951318	-0.0394208	
-0.1718328	-0.09548387	-0.0007803418	0.007032237	-0.2681035	-0.5025354	-0.001490306	0.003599695	
0.003409451	0.002262404	-0.05951318	-0.0394208	-0.001490306	0.003599695	-0.2028016	-0.424039	

2.788e+10	-0.319334	-0.4109419	0.006036079	0.002333124	-0.1837282	-0.08637758	0.003643593	0.001193867	
0.006036079	0.002333124	-0.2359414	-0.433467	0.0009011945	0.006869338	-0.06396096	-0.05787433	
-0.1837282	-0.08637758	0.0009011945	0.006869338	-0.2772856	-0.4987983	-0.0003912947	0.003756978	
0.003643593	0.001193867	-0.06396096	-0.05787433	-0.0003912947	0.003756978	-0.1972855	-0.4375496	

2.79e+10	-0.3218674	-0.4063869	0.006094927	0.0008916308	-0.1938543	-0.07523005	0.003583541	0.0002185698	
0.006094927	0.0008916308	-0.2489428	-0.4445193	0.002445311	0.006332894	-0.07294786	-0.07369007	
-0.1938543	-0.07523005	0.002445311	0.006332894	-0.2856981	-0.4934503	0.0006141251	0.003571383	
0.003583541	0.0002185698	-0.07294786	-0.07369007	0.0006141251	0.003571383	-0.1959412	-0.4514955	

2.792e+10	-0.3241796	-0.4017602	0.00589397	-0.0004510018	-0.2019342	-0.06200735	0.003327595	-0.0006080869	
0.00589397	-0.0004510018	-0.2631231	-0.4519093	0.003797623	0.005493063	-0.08490857	-0.08574254	
-0.2019342	-0.06200735	0.003797623	0.005493063	-0.2932911	-0.4867702	0.0014538	0.003195541	
0.003327595	-0.0006080869	-0.08490857	-0.08574254	0.0014538	0.003195541	-0.1981485	-0.4643281	

2.794e+10	-0.3261722	-0.3963828	0.005455975	-0.001659941	-0.2073156	-0.04683467	0.002952923	-0.00129698	
0.005455975	-0.001659941	-0.2777343	-0.455717	0.004923552	0.004398299	-0.09811085	-0.09405206	
-0.2073156	-0.04683467	0.004923552	0.004398299	-0.300048	-0.4788742	0.00219536	0.002693313	
0.002952923	-0.00129698	-0.09811085	-0.09405206	0.00219536	0.002693313	-0.202618	-0.4752611	

2.796e+10	-0.3270197	-0.3901415	0.00483195	-0.002702589	-0.2092427	-0.03026417	0.002480871	-0.001871983	
0.00483195	-0.002702589	-0.291809	-0.4562891	0.005787229	0.003082568	-0.111595	-0.09939255	
-0.2092427	-0.03026417	0.005787229	0.003082568	-0.3059918	-0.4690325	0.002853453	0.001993782	
0.002480871	-0.001871983	-0.111595	-0.09939255	0.002853453	0.001993782	-0.2082409	-0.4844606	

2.798e+10	-0.3260714	-0.3834037	0.004076093	-0.003578289	-0.2072664	-0.01325802	0.001915522	-0.002319751	
0.004076093	-0.003578289	-0.304437	-0.4542479	0.00633602	0.001581862	-0.1252098	-0.1024465	
-0.2072664	-0.01325802	0.00633602	0.001581862	-0.310059	-0.4567522	0.003290116	0.001057861	
0.001915522	-0.002319751	-0.1252098	-0.1024465	0.003290116	0.001057861	-0.2146818	-0.4925584	

2.8e+10	-0.3230233	-0.3771441	0.003216485	-0.00431336	-0.2012223	0.003336698	0.001293681	-0.002617449	
0.003216485	-0.00431336	-0.3153712	-0.4505641	0.006504503	-3.556433e-05	-0.1389976	-0.1031159	
-0.2012223	0.003336698	0.006504503	-3.556433e-05	-0.3105932	-0.4424217	0.003361338	2.038448e-05	
0.001293681	-0.002617449	-0.1389976	-0.1031159	0.003361338	2.038448e-05	-0.2221705	-0.499707	

2.802e+10	-0.3182814	-0.3718704	0.002232033	-0.004926888	-0.190984	0.01862519	0.0006592622	-0.002780204	
0.002232033	-0.004926888	-0.3249027	-0.4460432	0.006249719	-0.00166187	-0.1525182	-0.1012562	
-0.190984	0.01862519	0.006249719	-0.00166187	-0.3064194	-0.4273715	0.003090225	-0.0009197682	
0.0006592622	-0.002780204	-0.1525182	-0.1012562	0.003090225	-0.0009197682	-0.2305789	-0.5057253	

2.804e+10	-0.3117924	-0.3679133	0.00107843	-0.005378448	-0.1763934	0.03142046	1.455734e-05	-0.002836963	
0.00107843	-0.005378448	-0.3334941	-0.4407983	0.005575011	-0.003173357	-0.1651132	-0.09714268	
-0.1763934	0.03142046	0.005575011	-0.003173357	-0.2969832	-0.4136004	0.002603354	-0.001681544	
1.455734e-05	-0.002836963	-0.1651132	-0.09714268	0.002603354	-0.001681544	-0.2396939	-0.5102999	

2.806e+10	-0.3032486	-0.3661741	-0.0002426425	-0.005564112	-0.1575539	0.04007214	-0.0006676518	-0.002772442	
-0.0002426425	-0.005564112	-0.3410376	-0.434785	0.004522436	-0.004456304	-0.1764975	-0.09129231	
-0.1575539	0.04007214	0.004522436	-0.004456304	-0.2826488	-0.4029156	0.001962324	-0.00228254	
-0.0006676518	-0.002772442	-0.1764975	-0.09129231	0.001962324	-0.00228254	-0.2490227	-0.5135261	

2.808e+10	-0.2933951	-0.3681882	-0.00164283	-0.005380171	-0.1358134	0.04217118	-0.001369434	-0.002512763	
-0.00164283	-0.005380171	-0.347454	-0.427847	0.003158348	-0.005411801	-0.1868418	-0.08420533	
-0.1358134	0.04217118	0.003158348	-0.005411801	-0.264195	-0.3973445	0.001150423	-0.002687635	
-0.001369434	-0.002512763	-0.1868418	-0.08420533	0.001150423	-0.002687635	-0.2584833	-0.5157295	

2.81e+10	-0.2843239	-0.3752625	-0.002966611	-0.004786519	-0.1142019	0.03629278	-0.001973266	-0.002012221	
-0.002966611	-0.004786519	-0.3522287	-0.4208129	0.001576422	-0.005941319	-0.1963681	-0.07577213	
-0.1142019	0.03629278	0.001576422	-0.005941319	-0.2434379	-0.3991285	0.000227127	-0.002769703	
-0.001973266	-0.002012221	-0.1963681	-0.07577213	0.000227127	-0.002769703	-0.2682257	-0.5172388	

2.812e+10	-0.2791281	-0.3863096	-0.004061245	-0.003841872	-0.09641452	0.02312928	-0.002347085	-0.001356729	
-0.004061245	-0.003841872	-0.3561571	-0.4139247	-6.772265e-05	-0.005969316	-0.2048621	-0.06573459	
-0.09641452	0.02312928	-6.772265e-05	-0.005969316	-0.2238723	-0.40942	-0.0006019557	-0.002480608	
-0.002347085	-0.001356729	-0.2048621	-0.06573459	-0.0006019557	-0.002480608	-0.2785642	-0.5177827	

2.814e+10	-0.2789681	-0.398852	-0.004845774	-0.002665088	-0.08494185	0.005299438	-0.002483532	-0.0006966865	
-0.004845774	-0.002665088	-0.3595619	-0.4072694	-0.001569098	-0.005512013	-0.2118274	-0.05407287	
-0.08494185	0.005299438	-0.001569098	-0.005512013	-0.2096822	-0.4268826	-0.001155702	-0.001964344	
-0.002483532	-0.0006966865	-0.2118274	-0.05407287	-0.001155702	-0.001964344	-0.2896201	-0.5167307	

2.816e+10	-0.2834702	-0.4103003	-0.005303936	-0.001348999	-0.08031842	-0.01420567	-0.002467316	-0.0001038426	
-0.005303936	-0.001348999	-0.3627694	-0.4000789	-0.002770703	-0.00470372	-0.2168196	-0.0412037	
-0.08031842	-0.01420567	-0.002770703	-0.00470372	-0.2033421	-0.4480573	-0.001426938	-0.001427935	
-0.002467316	-0.0001038426	-0.2168196	-0.0412037	-0.001426938	-0.001427935	-0.3008291	-0.5137775	

2.818e+10	-0.2912894	-0.4195792	-0.005408448	4.059071e-05	-0.08200499	-0.03311552	-0.002355866	0.0004345077	
-0.005408448	4.059071e-05	-0.3651138	-0.3920851	-0.003630572	-0.003720386	-0.2198223	-0.02761412	
-0.08200499	-0.03311552	-0.003630572	-0.003720386	-0.2047229	-0.4690384	-0.001531318	-0.0009804488	
-0.002355866	0.0004345077	-0.2198223	-0.02761412	-0.001531318	-0.0009804488	-0.3115763	-0.5090444	

2.82e+10	-0.3012005	-0.4261889	-0.005127418	0.001395011	-0.08908124	-0.04962272	-0.002146833	0.0009294625	
-0.005127418	0.001395011	-0.3660126	-0.3836801	-0.004205318	-0.002679083	-0.2209089	-0.01331788	
-0.08908124	-0.04962272	-0.004205318	-0.002679083	-0.2119205	-0.4871512	-0.001574479	-0.0006135471	
-0.002146833	0.0009294625	-0.2209089	-0.01331788	-0.001574479	-0.0006135471	-0.3217354	-0.502697	

2.822e+10	-0.3124271	-0.4295458	-0.004497761	0.002572766	-0.1000757	-0.06238861	-0.001839319	0.001347164	
-0.004497761	0.002572766	-0.3656589	-0.3752283	-0.004552773	-0.001614905	-0.2198426	0.00180342	
-0.1000757	-0.06238861	-0.004552773	-0.001614905	-0.2227592	-0.5015027	-0.001587704	-0.000278241	
-0.001839319	0.001347164	-0.2198426	0.00180342	-0.001587704	-0.000278241	-0.3314218	-0.4945116	

2.824e+10	-0.3235125	-0.4299398	-0.003642019	0.003480389	-0.1131488	-0.07086805	-0.00148448	0.001659135	
-0.003642019	0.003480389	-0.3641326	-0.3669397	-0.004681108	-0.0005325173	-0.2159768	0.01756679	
-0.1131488	-0.07086805	-0.004681108	-0.0005325173	-0.2356436	-0.5123259	-0.001559551	4.138305e-05	
-0.00148448	0.001659135	-0.2159768	0.01756679	-0.001559551	4.138305e-05	-0.3402231	-0.4839089	

2.826e+10	-0.3338094	-0.427718	-0.002690628	0.004136878	-0.1267229	-0.07548209	-0.001136477	0.001903435	
-0.002690628	0.004136878	-0.3614048	-0.3581396	-0.00457971	0.0005258409	-0.2086069	0.03337607	
-0.1267229	-0.07548209	-0.00457971	0.0005258409	-0.2498321	-0.519809	-0.001495611	0.0003337607	
-0.001136477	0.001903435	-0.2086069	0.03337607	-0.001495611	0.0003337607	-0.346978	-0.4706295	

2.828e+10	-0.3425422	-0.4239113	-0.001671502	0.004617473	-0.1400595	-0.07706204	-0.0007755877	0.00214722	
-0.001671502	0.004617473	-0.3561819	-0.3491646	-0.004279361	0.001505322	-0.1973534	0.04818256	
-0.1400595	-0.07706204	-0.004279361	0.001505322	-0.2642993	-0.5241325	-0.001426112	0.0006097596	
-0.0007755877	0.00214722	-0.1973534	0.04818256	-0.001426112	0.0006097596	-0.3501925	-0.4552271	

2.83e+10	-0.349971	-0.419155	-0.0005307319	0.004919052	-0.1529796	-0.0761395	-0.0003186842	0.002396403	
-0.0005307319	0.004919052	-0.3478387	-0.3411049	-0.003827405	0.002406515	-0.1821529	0.06098284	
-0.1529796	-0.0761395	-0.003827405	0.002406515	-0.2783977	-0.5255799	-0.001355714	0.0009251519	
-0.0003186842	0.002396403	-0.1821529	0.06098284	-0.001355714	0.0009251519	-0.3491766	-0.4388179	

2.832e+10	-0.3563011	-0.4139459	0.0007304499	0.004937057	-0.1653785	-0.07276827	0.0002931387	0.002563695	
0.0007304499	0.004937057	-0.3364801	-0.3358933	-0.003209639	0.003261594	-0.16322	0.07046254	
-0.1653785	-0.07276827	-0.003209639	0.003261594	-0.2915913	-0.5249636	-0.001215481	0.001333456	
0.0002931387	0.002563695	-0.16322	0.07046254	-0.001215481	0.001333456	-0.3434401	-0.4230553	

2.834e+10	-0.3618422	-0.4082697	0.001993346	0.00458482	-0.1767733	-0.06704397	0.001023575	0.002533437	
0.001993346	0.00458482	-0.3234942	-0.3347542	-0.002344371	0.004039376	-0.1409947	0.07525251	
-0.1767733	-0.06704397	-0.002344371	0.004039376	-0.3040382	-0.5230196	-0.0008798626	0.001803187	
0.001023575	0.002533437	-0.1409947	0.07525251	-0.0008798626	0.001803187	-0.3330556	-0.4092407	

2.836e+10	-0.3667207	-0.401892	0.003106626	0.003887984	-0.1866832	-0.05918354	0.001767759	0.00225054	
0.003106626	0.003887984	-0.3104298	-0.3380633	-0.001187577	0.004595326	-0.1165958	0.07365184	
-0.1866832	-0.05918354	-0.001187577	0.004595326	-0.3161378	-0.5199553	-0.0002727766	0.002182218	
0.001767759	0.00225054	-0.1165958	0.07365184	-0.0002727766	0.002182218	-0.3181683	-0.3991337	

2.838e+10	-0.3705303	-0.3949889	0.003991838	0.002934335	-0.194816	-0.04983906	0.002431539	0.001725387	
0.003991838	0.002934335	-0.2987847	-0.3460233	0.0001596905	0.004753719	-0.09248528	0.06408762	
-0.194816	-0.04983906	0.0001596905	0.004753719	-0.3281571	-0.515302	0.0005339505	0.00228638	
0.002431539	0.001725387	-0.09248528	0.06408762	0.0005339505	0.00228638	-0.3002803	-0.3948886	

2.84e+10	-0.3732357	-0.3877139	0.004623683	0.001776162	-0.2012347	-0.03937127	0.002946331	0.0009754327	
0.004623683	0.001776162	-0.2904864	-0.3582092	0.001492092	0.00445655	-0.07232625	0.04664682	
-0.2012347	-0.03937127	0.001492092	0.00445655	-0.3397535	-0.5086693	0.001360894	0.002040035	
0.002946331	0.0009754327	-0.07232625	0.04664682	0.001360894	0.002040035	-0.2822841	-0.3979473	

2.842e+10	-0.3749919	-0.3802646	0.004928728	0.0004362792	-0.2059757	-0.02777579	0.003213909	2.419518e-05	
0.004928728	0.0004362792	-0.2874882	-0.372907	0.002643454	0.003776927	-0.05924093	0.02380269	
-0.2059757	-0.02777579	0.002643454	0.003776927	-0.3501671	-0.5002763	0.002058116	0.001489225	
0.003213909	2.419518e-05	-0.05924093	0.02380269	0.002058116	0.001489225	-0.2676813	-0.4073509	

2.844e+10	-0.3758798	-0.3726139	0.004796303	-0.0009719838	-0.2087512	-0.01514659	0.003120538	-0.001026705	
0.004796303	-0.0009719838	-0.2903195	-0.3873728	0.003535025	0.002808865	-0.05415308	-0.0009263369	
-0.2087512	-0.01514659	0.003535025	0.002808865	-0.359463	-0.4902457	0.002543573	0.0006964631	
0.003120538	-0.001026705	-0.05415308	-0.0009263369	0.002543573	0.0006964631	-0.2585713	-0.4201373	

2.846e+10	-0.3757473	-0.3643789	0.004210703	-0.002242454	-0.2091036	-0.001642329	0.00262516	-0.001994844	
0.004210703	-0.002242454	-0.2978541	-0.3990203	0.004100278	0.001621346	-0.05617877	-0.0247895	
-0.2091036	-0.001642329	0.004100278	0.001621346	-0.3676199	-0.4785725	0.002721571	-0.0002854579	
0.00262516	-0.001994844	-0.05617877	-0.0247895	0.002721571	-0.0002854579	-0.2546659	-0.4335472	

2.848e+10	-0.3738807	-0.3556687	0.00329947	-0.00320322	-0.2066841	0.0121345	0.001811028	-0.002694789	
0.00329947	-0.00320322	-0.3078324	-0.4067322	0.004260582	0.00032289	-0.06408638	-0.04630562	
-0.2066841	0.0121345	0.004260582	0.00032289	-0.3740885	-0.465106	0.00247757	-0.001317514	
0.001811028	-0.002694789	-0.06408638	-0.04630562	0.00247757	-0.001317514	-0.2546431	-0.446075	

2.85e+10	-0.3698198	-0.3469197	0.002243677	-0.003813877	-0.2013671	0.02561713	0.0008540873	-0.003036884	
0.002243677	-0.003813877	-0.3182803	-0.4106204	0.003997509	-0.0009199587	-0.07684806	-0.06434616	
-0.2013671	0.02561713	0.003997509	-0.0009199587	-0.378312	-0.4494191	0.001814341	-0.002164318	
0.0008540873	-0.003036884	-0.07684806	-0.06434616	0.001814341	-0.002164318	-0.2575735	-0.4569328	

2.852e+10	-0.3633053	-0.3391435	0.001156609	-0.004135818	-0.1930319	0.0383264	-8.622107e-05	-0.003056184	
0.001156609	-0.004135818	-0.3280012	-0.4116162	0.003392645	-0.001960166	-0.09317221	-0.07790406	
-0.1930319	0.0383264	0.003392645	-0.001960166	-0.3789355	-0.431941	0.0009036088	-0.002654941	
-8.622107e-05	-0.003056184	-0.09317221	-0.07790406	0.0009036088	-0.002654941	-0.2623334	-0.465947	

2.854e+10	-0.3545343	-0.3331628	5.271661e-05	-0.004224171	-0.1814892	0.04958173	-0.0009426329	-0.002835311	
5.271661e-05	-0.004224171	-0.336494	-0.4108227	0.002566657	-0.002741542	-0.1113278	-0.08647925	
-0.1814892	0.04958173	0.002566657	-0.002741542	-0.3748856	-0.4138764	-5.812188e-05	-0.002790995	
-0.0009426329	-0.002835311	-0.1113278	-0.08647925	-5.812188e-05	-0.002790995	-0.2680819	-0.4732549	

2.856e+10	-0.3439753	-0.3292847	-0.001072167	-0.00405226	-0.1665794	0.05840055	-0.001704821	-0.002409589	
-0.001072167	-0.00405226	-0.3438838	-0.4086646	0.001590963	-0.003266007	-0.1298054	-0.09055353	
-0.1665794	0.05840055	0.001590963	-0.003266007	-0.3659146	-0.3965379	-0.0009890907	-0.002645443	
-0.001704821	-0.002409589	-0.1298054	-0.09055353	-0.0009890907	-0.002645443	-0.2743933	-0.4789239	

2.858e+10	-0.3315435	-0.3285481	-0.002150541	-0.003559372	-0.1485475	0.06326898	-0.002332927	-0.001768864	
-0.002150541	-0.003559372	-0.3498185	-0.4056979	0.0004899886	-0.00350643	-0.1478501	-0.09092243	
-0.1485475	0.06326898	0.0004899886	-0.00350643	-0.3519525	-0.3815409	-0.001869752	-0.002225127	
-0.002332927	-0.001768864	-0.1478501	-0.09092243	-0.001869752	-0.002225127	-0.2808116	-0.4834526	

2.86e+10	-0.3182742	-0.3322414	-0.003046067	-0.002740766	-0.1285861	0.06252126	-0.002723979	-0.0009347517	
-0.003046067	-0.002740766	-0.3543211	-0.4024645	-0.0006730469	-0.003380551	-0.1652329	-0.08796691	
-0.1285861	0.06252126	-0.0006730469	-0.003380551	-0.3332628	-0.3706459	-0.002609625	-0.00148609	
-0.002723979	-0.0009347517	-0.1652329	-0.08796691	-0.002609625	-0.00148609	-0.2870801	-0.4875599	

2.862e+10	-0.3062279	-0.3412966	-0.003630872	-0.001683084	-0.1090383	0.0550792	-0.002786947	-2.918591e-05	
-0.003630872	-0.001683084	-0.3577009	-0.3997858	-0.001741018	-0.002828878	-0.1816111	-0.08169547	
-0.1090383	0.0550792	-0.001741018	-0.002828878	-0.3110542	-0.365746	-0.003035245	-0.000473136	
-0.002786947	-2.918591e-05	-0.1816111	-0.08169547	-0.003035245	-0.000473136	-0.2939474	-0.491345	

2.864e+10	-0.2982611	-0.3548244	-0.003849683	-0.000530764	-0.09276999	0.0412069	-0.002543201	0.0007843346	
-0.003849683	-0.000530764	-0.3609043	-0.3978824	-0.002506093	-0.001914667	-0.1961761	-0.07225652	
-0.09276999	0.0412069	-0.002506093	-0.001914667	-0.2876567	-0.3687141	-0.003031259	0.0006288471	
-0.002543201	0.0007843346	-0.1961761	-0.07225652	-0.003031259	0.0006288471	-0.3016869	-0.4948249	

2.866e+10	-0.2958919	-0.3703921	-0.003726011	0.0005961433	-0.08216672	0.02280229	-0.002101858	0.001417187	
-0.003726011	0.0005961433	-0.3645316	-0.3964251	-0.002840884	-0.000828042	-0.2081474	-0.06031486	
-0.08216672	0.02280229	-0.002840884	-0.000828042	-0.2665718	-0.3798568	-0.002633012	0.001614144	
-0.002101858	0.001417187	-0.2081474	-0.06031486	-0.002633012	0.001614144	-0.3104578	-0.4974156	

2.868e+10	-0.298872	-0.3854424	-0.00329378	0.001623598	-0.07833203	0.002406944	-0.001554483	0.001868399	
-0.00329378	0.001623598	-0.3687124	-0.3947045	-0.00276256	0.00022858	-0.217353	-0.04687427	
-0.07833203	0.002406944	-0.00276256	0.00022858	-0.251252	-0.396981	-0.001962977	0.002370304	
-0.001554483	0.001868399	-0.217353	-0.04687427	-0.001962977	0.002370304	-0.3202556	-0.4984665	

2.87e+10	-0.3060346	-0.3982561	-0.002573081	0.002470084	-0.08109363	-0.01735536	-0.0009403443	0.002149295	
-0.002573081	0.002470084	-0.3731138	-0.3923562	-0.002361254	0.001136902	-0.2240232	-0.03244189	
-0.08109363	-0.01735536	-0.002361254	0.001136902	-0.242865	-0.4167818	-0.00112985	0.002868291	
-0.0009403443	0.002149295	-0.2240232	-0.03244189	-0.00112985	0.002868291	-0.3303979	-0.4980428	

2.872e+10	-0.3160021	-0.4081223	-0.001627823	0.00302446	-0.08941808	-0.03437812	-0.0002956027	0.002244417	
-0.001627823	0.00302446	-0.377484	-0.3895332	-0.001709192	0.001840598	-0.2282826	-0.01720472	
-0.08941808	-0.03437812	-0.001709192	0.001840598	-0.2405343	-0.436447	-0.0002025041	0.003100394	
-0.0002956027	0.002244417	-0.2282826	-0.01720472	-0.0002025041	0.003100394	-0.3409142	-0.4960333	

2.874e+10	-0.3275884	-0.4146501	-0.000602036	0.003216951	-0.1016302	-0.04730457	0.0003107619	0.002152281	
-0.000602036	0.003216951	-0.382091	-0.3861134	-0.0008629329	0.002274078	-0.2299566	-0.001244197	
-0.1016302	-0.04730457	-0.0008629329	0.002274078	-0.242853	-0.4546323	0.0007511793	0.003049751	
0.0003107619	0.002152281	-0.2299566	-0.001244197	0.0007511793	0.003049751	-0.3517769	-0.4920822	

2.876e+10	-0.3395712	-0.4179913	0.0003463934	0.003086221	-0.1157621	-0.05568764	0.0008164521	0.001925776	
0.0003463934	0.003086221	-0.386979	-0.3816132	7.415327e-05	0.002363537	-0.2286694	0.01498778	
-0.1157621	-0.05568764	7.415327e-05	0.002363537	-0.2485806	-0.4710765	0.001644176	0.002716354	
0.0008164521	0.001925776	-0.2286694	0.01498778	0.001644176	0.002716354	-0.3625668	-0.4855358	

2.878e+10	-0.3510152	-0.4186203	0.00114589	0.002742969	-0.1302228	-0.05995088	0.001222737	0.001638815	
0.00114589	0.002742969	-0.3914972	-0.3754323	0.0009450748	0.002100043	-0.2243982	0.03085843	
-0.1302228	-0.05995088	0.0009450748	0.002100043	-0.2574386	-0.4851926	0.002391036	0.002141139	
0.001222737	0.001638815	-0.2243982	0.03085843	0.002391036	0.002141139	-0.372275	-0.4759764	

2.88e+10	-0.3613834	-0.4173395	0.001815334	0.00225782	-0.144135	-0.06094432	0.001579183	0.001315305	
0.001815334	0.00225782	-0.3946886	-0.3674097	0.001621043	0.00157101	-0.2172672	0.04598344	
-0.144135	-0.06094432	0.001621043	0.00157101	-0.2684851	-0.4965528	0.002941632	0.001392325	
0.001579183	0.001315305	-0.2172672	0.04598344	0.002941632	0.001392325	-0.3797153	-0.4635912	

2.882e+10	-0.3706348	-0.4149695	0.002362993	0.001621795	-0.1571763	-0.05929795	0.001912313	0.0009132738	
0.002362993	0.001621795	-0.3954629	-0.3583324	0.00206251	0.0008934253	-0.2072445	0.06005324	
-0.1571763	-0.05929795	0.00206251	0.0008934253	-0.2804167	-0.505261	0.003283659	0.0005277559	
0.001912313	0.0009132738	-0.2072445	0.06005324	0.003283659	0.0005277559	-0.3837329	-0.4492935	

2.884e+10	-0.3792231	-0.4118246	0.002724219	0.0008253445	-0.169153	-0.05545115	0.002176458	0.0003801033	
0.002724219	0.0008253445	-0.3935545	-0.3490457	0.002284028	0.0001347602	-0.1939776	0.07271827	
-0.169153	-0.05545115	0.002284028	0.0001347602	-0.2928273	-0.5117194	0.003405346	-0.0004268987	
0.002176458	0.0003801033	-0.1939776	0.07271827	0.003405346	-0.0004268987	-0.3839608	-0.4336836	

2.886e+10	-0.3872982	-0.4079845	0.002813351	-6.492959e-05	-0.1797682	-0.04961769	0.002278314	-0.0002754118	
0.002813351	-6.492959e-05	-0.3889668	-0.340275	0.002272824	-0.0006797619	-0.1770333	0.08296613	
-0.1797682	-0.04961769	0.002272824	-0.0006797619	-0.3055368	-0.5166346	0.003255801	-0.001444608	
0.002278314	-0.0002754118	-0.1770333	0.08296613	0.003255801	-0.001444608	-0.3794502	-0.4177421	

2.888e+10	-0.394862	-0.4032198	0.002605852	-0.0009284145	-0.1887249	-0.04235798	0.002150933	-0.0009725847	
0.002605852	-0.0009284145	-0.381231	-0.3331553	0.001976261	-0.001490139	-0.1564401	0.08905103	
-0.1887249	-0.04235798	0.001976261	-0.001490139	-0.3190715	-0.5198623	0.002766138	-0.002437563	
0.002150933	-0.0009725847	-0.1564401	0.08905103	0.002766138	-0.002437563	-0.369375	-0.4029608	

2.89e+10	-0.4017848	-0.3974604	0.002147368	-0.00166297	-0.196023	-0.03417624	0.001789908	-0.00161215	
0.002147368	-0.00166297	-0.3707385	-0.3289257	0.001374146	-0.002164557	-0.1332741	0.08898361	
-0.196023	-0.03417624	0.001374146	-0.002164557	-0.3330317	-0.5211478	0.001925067	-0.003246569	
0.001789908	-0.00161215	-0.1332741	0.08898361	0.001925067	-0.003246569	-0.353458	-0.3922794	

2.892e+10	-0.4077479	-0.3911528	0.001501227	-0.002214637	-0.2019087	-0.0253996	0.001227429	-0.00211666	
0.001501227	-0.002214637	-0.3585971	-0.3297469	0.0005492209	-0.002556878	-0.1100834	0.08113082	
-0.2019087	-0.0253996	0.0005492209	-0.002556878	-0.347098	-0.5200582	0.0008339314	-0.003715257	
0.001227429	-0.00211666	-0.1100834	0.08113082	0.0008339314	-0.003715257	-0.3337347	-0.3888253	

2.894e+10	-0.4131142	-0.3842927	0.000718185	-0.002541059	-0.2065698	-0.01614857	0.0005084063	-0.002419256	
0.000718185	-0.002541059	-0.3478993	-0.3361972	-0.0003335533	-0.002605234	-0.09034351	0.06551802	
-0.2065698	-0.01614857	-0.0003335533	-0.002605234	-0.3605333	-0.5170047	-0.0003328151	-0.00377827	
0.0005084063	-0.002419256	-0.09034351	0.06551802	-0.0003328151	-0.00377827	-0.3141914	-0.3941448	

2.896e+10	-0.4180001	-0.3767655	-0.0001277268	-0.002590253	-0.2099842	-0.006342233	-0.0002903299	-0.002454086	
-0.0001277268	-0.002590253	-0.341538	-0.3468243	-0.001126677	-0.002358949	-0.07708773	0.04411283	
-0.2099842	-0.006342233	-0.001126677	-0.002358949	-0.3734434	-0.5123065	-0.001419894	-0.003470684	
-0.0002903299	-0.002454086	-0.07708773	0.04411283	-0.001419894	-0.003470684	-0.2991323	-0.4067727	

2.898e+10	-0.4220669	-0.3683221	-0.0009161035	-0.002347263	-0.2120144	0.003885802	-0.001044825	-0.002194463	
-0.0009161035	-0.002347263	-0.3405641	-0.3587543	-0.001759368	-0.001908613	-0.07193864	0.0199774	
-0.2120144	0.003885802	-0.001759368	-0.001908613	-0.3858641	-0.5061524	-0.002327625	-0.0028621	
-0.001044825	-0.002194463	-0.07193864	0.0199774	-0.002327625	-0.0028621	-0.2907299	-0.4234894	

2.9e+10	-0.4249898	-0.358636	-0.001528456	-0.001880094	-0.2126266	0.0143463	-0.00162378	-0.001695038	
-0.001528456	-0.001880094	-0.3443508	-0.3691419	-0.00220765	-0.001328589	-0.07498901	-0.003654455	
-0.2126266	0.0143463	-0.00220765	-0.001328589	-0.3978722	-0.4980492	-0.00297818	-0.002028531	
-0.00162378	-0.001695038	-0.07498901	-0.003654455	-0.00297818	-0.002028531	-0.2890214	-0.4411666	

2.902e+10	-0.4260112	-0.3483138	-0.001921368	-0.001307232	-0.211893	0.0248917	-0.001958239	-0.001081006	
-0.001921368	-0.001307232	-0.3509003	-0.3769535	-0.002459644	-0.000682582	-0.08508782	-0.02394916	
-0.211893	0.0248917	-0.002459644	-0.000682582	-0.4089849	-0.4875821	-0.003311697	-0.00108691	
-0.001958239	-0.001081006	-0.08508782	-0.02394916	-0.003311697	-0.00108691	-0.293245	-0.4571269	

2.904e+10	-0.4252197	-0.3376296	-0.002130624	-0.000724079	-0.2097853	0.03563319	-0.002073835	-0.0004707831	
-0.002130624	-0.000724079	-0.3589711	-0.3818646	-0.002525002	-3.87843e-05	-0.09996543	-0.0389347	
-0.2097853	0.03563319	-0.002525002	-3.87843e-05	-0.4181929	-0.4750149	-0.003344302	-0.0001735116	
-0.002073835	-0.0004707831	-0.09996543	-0.0389347	-0.003344302	-0.0001735116	-0.3013744	-0.4701606	

2.906e+10	-0.4224593	-0.326985	-0.002215708	-0.0001561032	-0.2060573	0.04655041	-0.002038085	8.363943e-05	
-0.002215708	-0.0001561032	-0.3673629	-0.3844233	-0.002444395	0.00055042	-0.1169887	-0.04812374	
-0.2060573	0.04655041	-0.002444395	0.00055042	-0.4252051	-0.4606291	-0.00316394	0.0006230346	
-0.002038085	8.363943e-05	-0.1169887	-0.04812374	-0.00316394	0.0006230346	-0.3120284	-0.4795649	

2.908e+10	-0.4176016	-0.3162882	-0.002196661	0.0004170491	-0.2002877	0.05750723	-0.001895911	0.0005832584	
-0.002196661	0.0004170491	-0.3756051	-0.3847624	-0.002273516	0.00107323	-0.134201	-0.05234976	
-0.2002877	0.05750723	-0.002273516	0.00107323	-0.4296241	-0.4450442	-0.002860598	0.001300636	
-0.001895911	0.0005832584	-0.134201	-0.05234976	-0.002860598	0.001300636	-0.3233889	-0.4858191	

2.91e+10	-0.409836	-0.3061505	-0.002046216	0.0009997752	-0.1920349	0.06800313	-0.001651159	0.001034566	
-0.002046216	0.0009997752	-0.3830686	-0.3833361	-0.002045083	0.001557936	-0.1507327	-0.0525792	
-0.1920349	0.06800313	-0.002045083	0.001557936	-0.431366	-0.4282155	-0.002464552	0.001895221	
-0.001651159	0.001034566	-0.1507327	-0.0525792	-0.002464552	0.001895221	-0.3349231	-0.489326	

2.912e+10	-0.3987199	-0.2977383	-0.001731215	0.00155224	-0.1810037	0.07735402	-0.001295281	0.001411572	
-0.001731215	0.00155224	-0.389342	-0.3810057	-0.001740848	0.002039712	-0.166246	-0.04943374	
-0.1810037	0.07735402	-0.001740848	0.002039712	-0.4295286	-0.410323	-0.001956964	0.002412342	
-0.001295281	0.001411572	-0.166246	-0.04943374	-0.001956964	0.002412342	-0.3460404	-0.4910892	

2.914e+10	-0.3847443	-0.2926723	-0.001251264	0.002007115	-0.1671608	0.08451223	-0.0008481351	0.001666716	
-0.001251264	0.002007115	-0.3948411	-0.3783745	-0.001307486	0.002509518	-0.1802417	-0.0431724	
-0.1671608	0.08451223	-0.001307486	0.002509518	-0.4230908	-0.3921981	-0.001328186	0.002809798	
-0.0008481351	0.001666716	-0.1802417	-0.0431724	-0.001328186	0.002809798	-0.3570913	-0.491494	

2.916e+10	-0.369163	-0.2922804	-0.0006503392	0.002304389	-0.1508223	0.0883808	-0.0003651414	0.001774114	
-0.0006503392	0.002304389	-0.4000726	-0.3756931	-0.0007096514	0.0029023	-0.1920389	-0.0343111	
-0.1508223	0.0883808	-0.0007096514	0.0029023	-0.4112549	-0.3757907	-0.0006160786	0.003038981	
-0.0003651414	0.001774114	-0.1920389	-0.0343111	-0.0006160786	0.003038981	-0.3683038	-0.4905346	

2.918e+10	-0.3537593	-0.2968393	1.325631e-05	0.002418864	-0.1328619	0.08770611	9.942064e-05	0.001745471	
1.325631e-05	0.002418864	-0.4055833	-0.3723003	3.02987e-05	0.003133454	-0.2012677	-0.02371475	
-0.1328619	0.08770611	3.02987e-05	0.003133454	-0.3946625	-0.3634196	0.0001183259	0.003087133	
9.942064e-05	0.001745471	-0.2012677	-0.02371475	0.0001183259	0.003087133	-0.3796291	-0.4878307	

2.92e+10	-0.3400379	-0.3063865	0.0006896277	0.00234406	-0.1148779	0.08154899	0.0005166665	0.0016073	
0.0006896277	0.00234406	-0.4108463	-0.3679847	0.000840763	0.003152512	-0.2081017	-0.01221773	
-0.1148779	0.08154899	0.000840763	0.003152512	-0.3751789	-0.3566543	0.0008327352	0.002971107	
0.0005166665	0.0016073	-0.2081017	-0.01221773	0.0008327352	0.002971107	-0.3907502	-0.4830532	

2.922e+10	-0.3297631	-0.3205687	0.00132897	0.002071912	-0.0991027	0.06970223	0.0008708046	0.001377423	
0.00132897	0.002071912	-0.4155043	-0.3625953	0.001652954	0.002956038	-0.21291	-7.431961e-05	
-0.0991027	0.06970223	0.001652954	0.002956038	-0.3548346	-0.3560754	0.001504527	0.002703102	
0.0008708046	0.001377423	-0.21291	-7.431961e-05	0.001504527	0.002703102	-0.4010899	-0.4764784	

2.924e+10	-0.3250182	-0.3377439	0.001860115	0.001608613	-0.08783736	0.05319619	0.001137885	0.001069929	
0.001860115	0.001608613	-0.419392	-0.356426	0.002422437	0.002551378	-0.2157563	0.01270492	
-0.08783736	0.05319619	0.002422437	0.002551378	-0.3356122	-0.3614147	0.002104363	0.002283673	
0.001137885	0.001069929	-0.2157563	0.01270492	0.002104363	0.002283673	-0.4107578	-0.4680499	

2.926e+10	-0.3265555	-0.3554998	0.002206961	0.001005444	-0.08265808	0.0342212	0.001288741	0.0007211685	
0.002206961	0.001005444	-0.4224961	-0.3496434	0.003100357	0.001934535	-0.21635	0.02602798	
-0.08265808	0.0342212	0.003100357	0.001934535	-0.3192307	-0.3723213	0.002585238	0.001730209	
0.001288741	0.0007211685	-0.21635	0.02602798	0.002585238	0.001730209	-0.4194199	-0.4577165	

2.928e+10	-0.333798	-0.3708504	0.002334279	0.0003568655	-0.08362927	0.01546958	0.001324102	0.00039091	
0.002334279	0.0003568655	-0.4248795	-0.3416119	0.003612869	0.001117333	-0.2143743	0.03953846	
-0.08362927	0.01546958	0.003612869	0.001117333	-0.3077241	-0.3872783	0.002914516	0.001092361	
0.001324102	0.00039091	-0.2143743	0.03953846	0.002914516	0.001092361	-0.4266647	-0.4449219	

2.93e+10	-0.344435	-0.3825338	0.002270281	-0.0002453486	-0.08966492	-0.001126822	0.001287621	0.0001231854	
0.002270281	-0.0002453486	-0.4255365	-0.332346	0.003887543	0.0001591777	-0.2098604	0.05267435	
-0.08966492	-0.001126822	0.003887543	0.0001591777	-0.3019706	-0.4039463	0.003102073	0.0004209164	
0.001287621	0.0001231854	-0.2098604	0.05267435	0.003102073	0.0004209164	-0.431284	-0.4296311	

2.932e+10	-0.356762	-0.3902937	0.002079513	-0.0007598827	-0.09922941	-0.01454676	0.001237295	-8.336106e-05	
0.002079513	-0.0007598827	-0.4235925	-0.3221072	0.003896263	-0.0008528001	-0.2027599	0.06521622	
-0.09922941	-0.01454676	0.003896263	-0.0008528001	-0.3012694	-0.419879	0.003175624	-0.0002713928	
0.001237295	-8.336106e-05	-0.2027599	0.06521622	0.003175624	-0.0002713928	-0.4321018	-0.4123487	

2.934e+10	-0.3696181	-0.3947063	0.001808612	-0.001191292	-0.1111099	-0.0245511	0.001204594	-0.0002687068	
0.001808612	-0.001191292	-0.4183314	-0.3121555	0.003653034	-0.001850725	-0.1928013	0.0768419	
-0.1111099	-0.0245511	0.003653034	-0.001850725	-0.3041033	-0.4336599	0.003136505	-0.001007021	
0.001204594	-0.0002687068	-0.1928013	0.0768419	0.003136505	-0.001007021	-0.4281922	-0.394295	

2.936e+10	-0.3821954	-0.3963282	0.00147141	-0.001550163	-0.1242604	-0.03100463	0.001176813	-0.0004767062	
0.00147141	-0.001550163	-0.4096282	-0.3038841	0.003166464	-0.002801845	-0.1794122	0.08680854	
-0.1242604	-0.03100463	0.003166464	-0.002801845	-0.3088189	-0.4456587	0.002934415	-0.00180096	
0.001176813	-0.0004767062	-0.1794122	0.08680854	0.002934415	-0.00180096	-0.4189806	-0.3767225	

2.938e+10	-0.3941908	-0.3952931	0.001070985	-0.001828081	-0.1377058	-0.03407875	0.001113952	-0.0007198485	
0.001070985	-0.001828081	-0.3980716	-0.2983378	0.002407729	-0.003663884	-0.1623555	0.09347172	
-0.1377058	-0.03407875	0.002407729	-0.003663884	-0.3152448	-0.4561213	0.002488357	-0.002613855	
0.001113952	-0.0007198485	-0.1623555	0.09347172	0.002488357	-0.002613855	-0.4039362	-0.3611606	

2.94e+10	-0.4048796	-0.3923556	0.0006236295	-0.002009034	-0.1505533	-0.03420487	0.0009853791	-0.0009775337	
0.0006236295	-0.002009034	-0.3841548	-0.2969086	0.001348719	-0.004329173	-0.1423968	0.09478746	
-0.1505533	-0.03420487	0.001348719	-0.004329173	-0.3232236	-0.4650579	0.001741253	-0.003330143	
0.0009853791	-0.0009775337	-0.1423968	0.09478746	0.001741253	-0.003330143	-0.3827346	-0.3503431	

2.942e+10	-0.4141859	-0.3879953	0.0001539933	-0.002086024	-0.1623873	-0.03215355	0.0007820902	-0.00122076	
0.0001539933	-0.002086024	-0.3694049	-0.3010646	4.142625e-05	-0.004635715	-0.1218368	0.08884492	
-0.1623873	-0.03215355	4.142625e-05	-0.004635715	-0.332305	-0.4719462	0.0007181293	-0.003789353	
0.0007820902	-0.00122076	-0.1218368	0.08884492	0.0007181293	-0.003789353	-0.3569758	-0.3475076	

2.944e+10	-0.4220731	-0.3829811	-0.0003187021	-0.002061308	-0.1732326	-0.02843002	0.0005045355	-0.001426505	
-0.0003187021	-0.002061308	-0.3565388	-0.3116867	-0.001338846	-0.004456951	-0.1042047	0.07529312	
-0.1732326	-0.02843002	-0.001338846	-0.004456951	-0.3417055	-0.4767617	-0.0004486436	-0.00385629	
0.0005045355	-0.001426505	-0.1042047	0.07529312	-0.0004486436	-0.00385629	-0.3308084	-0.3551212	

2.946e+10	-0.429039	-0.377451	-0.0007794442	-0.001930162	-0.183166	-0.02320421	0.0001546933	-0.001566983	
-0.0007794442	-0.001930162	-0.3490461	-0.3272034	-0.002552917	-0.003800574	-0.09297348	0.05608519	
-0.183166	-0.02320421	-0.002552917	-0.003800574	-0.3507776	-0.4803315	-0.001559714	-0.003496603	
0.0001546933	-0.001566983	-0.09297348	0.05608519	-0.001559714	-0.003496603	-0.3093796	-0.3727819	

2.948e+10	-0.4352148	-0.3715772	-0.00119655	-0.001685577	-0.1920327	-0.01649677	-0.0002502555	-0.001605614	
-0.00119655	-0.001685577	-0.3485995	-0.3443664	-0.003420656	-0.002812759	-0.08987562	0.03469814	
-0.1920327	-0.01649677	-0.003420656	-0.002812759	-0.3598162	-0.4832583	-0.002438221	-0.002792033	
-0.0002502555	-0.001605614	-0.08987562	0.03469814	-0.002438221	-0.002792033	-0.2966185	-0.3964982	

2.95e+10	-0.4406539	-0.3651888	-0.001525595	-0.001344047	-0.1995344	-0.008607189	-0.0006661833	-0.001514017	
-0.001525595	-0.001344047	-0.3543151	-0.3597992	-0.003886287	-0.001683357	-0.09449701	0.01469647	
-0.1995344	-0.008607189	-0.003886287	-0.001683357	-0.3695077	-0.4853997	-0.00298522	-0.001887907	
-0.0006661833	-0.001514017	-0.09449701	0.01469647	-0.00298522	-0.001887907	-0.2931864	-0.4216829	

2.952e+10	-0.4453525	-0.3582006	-0.001739136	-0.0009529383	-0.2055799	0.0001435219	-0.001033254	-0.001295262	
-0.001739136	-0.0009529383	-0.3640946	-0.3715416	-0.003981281	-0.0005652023	-0.1050622	-0.00128364	
-0.2055799	0.0001435219	-0.003981281	-0.0005652023	-0.3796995	-0.4863431	-0.003181925	-0.0009443415	
-0.001033254	-0.001295262	-0.1050622	-0.00128364	-0.003181925	-0.0009443415	-0.2974245	-0.4451273	

2.954e+10	-0.44902	-0.3510653	-0.001847201	-0.0005643936	-0.2103366	0.009477756	-0.001306257	-0.0009886314	
-0.001847201	-0.0005643936	-0.3757634	-0.3795866	-0.003772975	0.0004378828	-0.1191878	-0.01189652	
-0.2103366	0.009477756	-0.003772975	0.0004378828	-0.3900385	-0.4856305	-0.003087007	-9.917043e-05	
-0.001306257	-0.0009886314	-0.1191878	-0.01189652	-0.003087007	-9.917043e-05	-0.3074007	-0.4649606	

2.956e+10	-0.4520538	-0.3436252	-0.001884818	-0.0002037583	-0.2139162	0.01935497	-0.001475703	-0.0006474813	
-0.001884818	-0.0002037583	-0.3881969	-0.3844212	-0.0033421	0.001260209	-0.1343551	-0.01694918	
-0.2139162	0.01935497	-0.0033421	0.001260209	-0.4000282	-0.483551	-0.002809816	0.0005762614	
-0.001475703	-0.0006474813	-0.1343551	-0.01694918	-0.002809816	0.0005762614	-0.3211868	-0.4805084	

2.958e+10	-0.4544917	-0.3359381	-0.001883139	0.000133994	-0.2161746	0.02988134	-0.001563814	-0.0003051078	
-0.001883139	0.000133994	-0.4008127	-0.3865199	-0.00277865	0.001869288	-0.1486081	-0.01745744	
-0.2161746	0.02988134	-0.00277865	0.001869288	-0.4095654	-0.4807275	-0.002455008	0.001083811	
-0.001563814	-0.0003051078	-0.1486081	-0.01745744	-0.002455008	0.001083811	-0.3370163	-0.4918316	

2.96e+10	-0.4563273	-0.3274216	-0.001852875	0.0004660976	-0.2168546	0.04085751	-0.001592296	3.585621e-05	
-0.001852875	0.0004660976	-0.4132527	-0.3859041	-0.002171702	0.002271762	-0.1610689	-0.0148285	
-0.2168546	0.04085751	-0.002171702	0.002271762	-0.4191975	-0.4769946	-0.002079671	0.001469222	
-0.001592296	3.585621e-05	-0.1610689	-0.0148285	-0.002079671	0.001469222	-0.3538355	-0.4990008	

2.962e+10	-0.4569384	-0.3181722	-0.001790278	0.0008075893	-0.215802	0.05204855	-0.001559799	0.0003837008	
-0.001790278	0.0008075893	-0.4248115	-0.3831738	-0.00158429	0.002511919	-0.1716691	-0.01016896	
-0.215802	0.05204855	-0.00158429	0.002511919	-0.4290305	-0.4716637	-0.001694703	0.001775266	
-0.001559799	0.0003837008	-0.1716691	-0.01016896	-0.001694703	0.001775266	-0.3706376	-0.5027206	

2.964e+10	-0.4556899	-0.3085252	-0.001681183	0.001169759	-0.2130675	0.06315392	-0.001447069	0.000727167	
-0.001681183	0.001169759	-0.4351972	-0.3789785	-0.00103789	0.002644307	-0.180567	-0.003939986	
-0.2130675	0.06315392	-0.00103789	0.002644307	-0.4383017	-0.4644644	-0.001289896	0.00201773	
-0.001447069	0.000727167	-0.180567	-0.003939986	-0.001289896	0.00201773	-0.3869099	-0.5038665	

2.966e+10	-0.4526087	-0.2986672	-0.00149903	0.001554461	-0.208668	0.07405721	-0.001254714	0.001031367	
-0.00149903	0.001554461	-0.4448572	-0.3735442	-0.0005230552	0.002706012	-0.1876991	0.00340738	
-0.208668	0.07405721	-0.0005230552	0.002706012	-0.4462618	-0.4555485	-0.0008599771	0.00219215	
-0.001254714	0.001031367	-0.1876991	0.00340738	-0.0008599771	0.00219215	-0.4028941	-0.5027142	

2.968e+10	-0.4473495	-0.2894033	-0.001212805	0.001941648	-0.2023661	0.08473457	-0.001014912	0.001276376	
-0.001212805	0.001941648	-0.4538124	-0.3670967	-2.304984e-05	0.002706202	-0.1929418	0.01142906	
-0.2023661	0.08473457	-2.304984e-05	0.002706202	-0.4526881	-0.4453215	-0.0004160549	0.002289402	
-0.001014912	0.001276376	-0.1929418	0.01142906	-0.0004160549	0.002289402	-0.418589	-0.4992088	

2.97e+10	-0.4399685	-0.2806148	-0.0008059159	0.002293632	-0.1938336	0.09479038	-0.0007523601	0.00148106	
-0.0008059159	0.002293632	-0.4621956	-0.3590327	0.0004633732	0.002641668	-0.1965303	0.01954705	
-0.1938336	0.09479038	0.0004633732	0.002641668	-0.4574686	-0.4342733	2.465152e-05	0.002315369	
-0.0007523601	0.00148106	-0.1965303	0.01954705	2.465152e-05	0.002315369	-0.4335422	-0.4933171	

2.972e+10	-0.4297834	-0.2731699	-0.0002767562	0.002570142	-0.1827359	0.1036398	-0.0004517343	0.001669566	
-0.0002767562	0.002570142	-0.469265	-0.3495246	0.0009294317	0.002520283	-0.1989234	0.02746137	
-0.1827359	0.1036398	0.0009294317	0.002520283	-0.4606435	-0.422102	0.0004581228	0.002286864	
-0.0004517343	0.001669566	-0.1989234	0.02746137	0.0004581228	0.002286864	-0.4473211	-0.4850969	

2.974e+10	-0.4167037	-0.2683414	0.0003701496	0.002728003	-0.1691689	0.1102798	-7.288672e-05	0.001827447	
0.0003701496	0.002728003	-0.4747515	-0.3386369	0.001388862	0.002357162	-0.200545	0.03525324	
-0.1691689	0.1102798	0.001388862	0.002357162	-0.4614309	-0.4088142	0.0009009875	0.002209456	
-7.288672e-05	0.001827447	-0.200545	0.03525324	0.0009009875	0.002209456	-0.4595973	-0.4749306	

2.976e+10	-0.4014357	-0.2680281	0.001119507	0.002708343	-0.153454	0.1138404	0.0003987434	0.001895616	
0.001119507	0.002708343	-0.478414	-0.3269641	0.001878017	0.002138003	-0.2014203	0.04329109	
-0.153454	0.1138404	0.001878017	0.002138003	-0.4588663	-0.3951055	0.0013694	0.002062362	
0.0003987434	0.001895616	-0.2014203	0.04329109	0.0013694	0.002062362	-0.4704935	-0.4629988	

2.978e+10	-0.3861108	-0.2730783	0.001915841	0.002436611	-0.1363904	0.1133139	0.0009242297	0.001814138	
0.001915841	0.002436611	-0.4803938	-0.3146004	0.002412358	0.001795825	-0.201318	0.05157733	
-0.1363904	0.1133139	0.002412358	0.001795825	-0.4526408	-0.3825111	0.001854874	0.001809211	
0.0009242297	0.001814138	-0.201318	0.05157733	0.001854874	0.001809211	-0.479788	-0.4494491	

2.98e+10	-0.3727961	-0.2836862	0.002639208	0.001867143	-0.1192749	0.1079624	0.001438046	0.001560963	
0.002639208	0.001867143	-0.4804011	-0.3014719	0.002930276	0.001247572	-0.2001388	0.05996838	
-0.1192749	0.1079624	0.002930276	0.001247572	-0.4434406	-0.3726187	0.002323945	0.001422609	
0.001438046	0.001560963	-0.2001388	0.05996838	0.002323945	0.001422609	-0.4872358	-0.4338063	

2.982e+10	-0.3636078	-0.2985646	0.003144736	0.001040814	-0.1038246	0.09753186	0.001883575	0.001141363	
0.003144736	0.001040814	-0.477833	-0.2875652	0.00330367	0.0004768019	-0.1979246	0.06846016	
-0.1038246	0.09753186	0.00330367	0.0004768019	-0.4327002	-0.365919	0.002737641	0.0008910457	
0.001883575	0.001141363	-0.1979246	0.06846016	0.002737641	0.0008910457	-0.4918997	-0.4162764	

2.984e+10	-0.3599907	-0.3162596	0.003338026	7.637994e-05	-0.09193182	0.08260163	0.002203947	0.0005649346	
0.003338026	7.637994e-05	-0.4718923	-0.2736565	0.003422235	-0.0004376032	-0.1945856	0.07719906	
-0.09193182	0.08260163	0.003422235	-0.0004376032	-0.4214217	-0.362224	0.003050628	0.0002018685	
0.002203947	0.0005649346	-0.1945856	0.07719906	0.003050628	0.0002018685	-0.4931	-0.3973135	

2.986e+10	-0.3627902	-0.334656	0.003203068	-0.0008910593	-0.08525128	0.06466235	0.002323835	-0.000134077	
0.003203068	-0.0008910593	-0.4622757	-0.2609043	0.003250473	-0.001383361	-0.1895842	0.08631858	
-0.08525128	0.06466235	0.003250473	-0.001383361	-0.4101144	-0.3613101	0.00318777	-0.0006471688	
0.002323835	-0.000134077	-0.1895842	0.08631858	0.00318777	-0.0006471688	-0.4904035	-0.3776616	

2.988e+10	-0.3718684	-0.3507988	0.002772233	-0.001754904	-0.08450059	0.04593738	0.002177843	-0.0008670655	
0.002772233	-0.001754904	-0.4492326	-0.2503478	0.002794247	-0.002276497	-0.1820869	0.0954762	
-0.08450059	0.04593738	0.002794247	-0.002276497	-0.3993976	-0.3632965	0.003047698	-0.001609317	
0.002177843	-0.0008670655	-0.1820869	0.0954762	0.003047698	-0.001609317	-0.4833646	-0.3580628	

2.99e+10	-0.3853251	-0.3626044	0.002094224	-0.002426952	-0.08917405	0.02859632	0.001758499	-0.001505779	
0.002094224	-0.002426952	-0.433026	-0.2430029	0.002049289	-0.003038767	-0.1714551	0.1035917	
-0.08917405	0.02859632	0.002049289	-0.003038767	-0.3901979	-0.3679612	0.002548732	-0.002565602	
0.001758499	-0.001505779	-0.1714551	0.1035917	0.002548732	-0.002565602	-0.4713832	-0.3390976	

2.992e+10	-0.4008564	-0.3691232	0.001247804	-0.002822478	-0.09799763	0.01401694	0.001132622	-0.001932671	
0.001247804	-0.002822478	-0.4140687	-0.2399307	0.001026981	-0.003543895	-0.1575643	0.1092248	
-0.09799763	0.01401694	0.001026981	-0.003543895	-0.3832812	-0.3741591	0.001681024	-0.003346854	
0.001132622	-0.001932671	-0.1575643	0.1092248	0.001681024	-0.003346854	-0.4534971	-0.3224028	

2.994e+10	-0.4162058	-0.3712169	0.0003639694	-0.002893297	-0.1096658	0.002737631	0.0004176859	-0.002082934	
0.0003639694	-0.002893297	-0.3933471	-0.243031	-0.0001632435	-0.00363834	-0.1410896	0.1106284	
-0.1096658	0.002737631	-0.0001632435	-0.00363834	-0.3782648	-0.3807819	0.0005272981	-0.003785956	
0.0004176859	-0.002082934	-0.1410896	0.1106284	0.0005272981	-0.003785956	-0.4295115	-0.3106861	

2.996e+10	-0.4305982	-0.369589	-0.0004140988	-0.002676151	-0.1232853	-0.005080969	-0.0002576022	-0.001958532	
-0.0004140988	-0.002676151	-0.373496	-0.2537323	-0.001299543	-0.003252383	-0.1236846	0.1062729	
-0.1232853	-0.005080969	-0.001299543	-0.003252383	-0.3742958	-0.3875947	-0.0007505787	-0.003766542	
-0.0002576022	-0.001958532	-0.1236846	0.1062729	-0.0007505787	-0.003766542	-0.4011815	-0.3072815	

2.998e+10	-0.4433698	-0.3653559	-0.001000796	-0.002276638	-0.1379744	-0.009188436	-0.0007899958	-0.001622606	
-0.001000796	-0.002276638	-0.3582466	-0.2717269	-0.002148402	-0.002475814	-0.1081052	0.09547539	
-0.1379744	-0.009188436	-0.002148402	-0.002475814	-0.3711962	-0.3951456	-0.001942742	-0.00325898	
-0.0007899958	-0.001622606	-0.1081052	0.09547539	-0.001942742	-0.00325898	-0.3725283	-0.3140315	

3e+10	-0.4543544	-0.3590851	-0.001389723	-0.001800688	-0.1526831	-0.00952575	-0.001129348	-0.001167026	
-0.001389723	-0.001800688	-0.3507136	-0.2940751	-0.002587442	-0.001509557	-0.09737458	0.07933191	
-0.1526831	-0.00952575	-0.002587442	-0.001509557	-0.3694222	-0.4040022	-0.002840173	-0.00234209	
-0.001129348	-0.001167026	-0.09737458	0.07933191	-0.002840173	-0.00234209	-0.3479559	-0.3305442	

3.002e+10	-0.4633606	-0.351455	-0.0016111	-0.001312577	-0.1664193	-0.006596814	-0.001271295	-0.0006773835	
-0.0016111	-0.001312577	-0.3514688	-0.3170197	-0.002624852	-0.0005536215	-0.09356507	0.06055312	
-0.1664193	-0.006596814	-0.002624852	-0.0005536215	-0.3699099	-0.4134312	-0.00329839	-0.001186193	
-0.001271295	-0.0006773835	-0.09356507	0.06055312	-0.00329839	-0.001186193	-0.3307923	-0.3539873	

3.004e+10	-0.4704392	-0.3429244	-0.001688326	-0.0008517255	-0.1786265	-0.001122358	-0.001231921	-0.0002227675	
-0.001688326	-0.0008517255	-0.3592654	-0.3372547	-0.002339056	0.0002483214	-0.09688401	0.0426098	
-0.1786265	-0.001122358	-0.002339056	0.0002483214	-0.3724631	-0.4226251	-0.003270166	-1.483965e-05	
-0.001231921	-0.0002227675	-0.09688401	0.0426098	-0.003270166	-1.483965e-05	-0.3225764	-0.3806384	

3.006e+10	-0.4757644	-0.3341248	-0.001651935	-0.0004578117	-0.1892048	0.006309629	-0.001050497	0.0001323361	
-0.001651935	-0.0004578117	-0.3719176	-0.3533069	-0.001839738	0.0008033796	-0.1057113	0.02824619	
-0.1892048	0.006309629	-0.001839738	0.0008033796	-0.3766908	-0.4310488	-0.002832676	0.0009599102	
-0.001050497	0.0001323361	-0.1057113	0.02824619	-0.002832676	0.0009599102	-0.3231694	-0.407154	

3.008e+10	-0.4798067	-0.3252201	-0.001554331	-0.0001545949	-0.1980557	0.01548298	-0.00079702	0.0003503652	
-0.001554331	-0.0001545949	-0.3874788	-0.3645036	-0.001264871	0.001067764	-0.1174825	0.01875455	
-0.1980557	0.01548298	-0.001264871	0.001067764	-0.3822424	-0.4389453	-0.002154481	0.001614692	
-0.00079702	0.0003503652	-0.1174825	0.01875455	-0.002154481	0.001614692	-0.3311222	-0.430748	

3.01e+10	-0.4827897	-0.3162899	-0.001448007	7.208605e-05	-0.2048193	0.0260563	-0.0005432175	0.0004416183	
-0.001448007	7.208605e-05	-0.4041762	-0.3710087	-0.0007561622	0.001075112	-0.1298331	0.01385224	
-0.2048193	0.0260563	-0.0007561622	0.001075112	-0.3894225	-0.4464034	-0.001411168	0.00194302	
-0.0005432175	0.0004416183	-0.1298331	0.01385224	-0.001411168	0.00194302	-0.3441742	-0.449673	

3.012e+10	-0.4848422	-0.3068599	-0.001356093	0.0002584432	-0.2092531	0.03746208	-0.0003277225	0.0004476121	
-0.001356093	0.0002584432	-0.420662	-0.3732187	-0.0004035714	0.0009285938	-0.1415216	0.01235664	
-0.2092531	0.03746208	-0.0004035714	0.0009285938	-0.3985083	-0.4528149	-0.0007188085	0.002008659	
-0.0003277225	0.0004476121	-0.1415216	0.01235664	-0.0007188085	0.002008659	-0.360089	-0.4633884	

3.014e+10	-0.4854535	-0.2970203	-0.001273243	0.0004346875	-0.2113894	0.04911408	-0.0001532834	0.0004028858	
-0.001273243	0.0004346875	-0.4359566	-0.372079	-0.0002130863	0.0007441006	-0.1520797	0.01341224	
-0.2113894	0.04911408	-0.0002130863	0.0007441006	-0.4092969	-0.457131	-0.0001317898	0.001886101	
-0.0001532834	0.0004028858	-0.1520797	0.01341224	-0.0001317898	0.001886101	-0.3769127	-0.4726578	

3.016e+10	-0.4844132	-0.2868236	-0.001181985	0.0006121594	-0.211615	0.06055975	-1.285374e-05	0.0003164491	
-0.001181985	0.0006121594	-0.4497231	-0.3686187	-0.00013084	0.0005921369	-0.1613555	0.01633299	
-0.211615	0.06055975	-0.00013084	0.0005921369	-0.4207373	-0.4591542	0.0003235101	0.001634594	
-1.285374e-05	0.0003164491	-0.1613555	0.01633299	0.0003235101	0.001634594	-0.3939209	-0.4783744	

3.018e+10	-0.4814435	-0.2769541	-0.001069467	0.0007856015	-0.2100655	0.07183958	8.138893e-05	0.0001853476	
-0.001069467	0.0007856015	-0.4621237	-0.3635249	-0.0001004902	0.0004835485	-0.1691443	0.02064846	
-0.2100655	0.07183958	-0.0001004902	0.0004835485	-0.4321956	-0.4591162	0.0006303911	0.001310793	
8.138893e-05	0.0001853476	-0.1691443	0.02064846	0.0006303911	0.001310793	-0.4110087	-0.4808894	

3.02e+10	-0.476749	-0.2673203	-0.0009362428	0.0009457685	-0.2066748	0.08278956	0.0001017935	2.550456e-05	
-0.0009362428	0.0009457685	-0.473479	-0.3567921	-9.986591e-05	0.0004032376	-0.1753612	0.02573873	
-0.2066748	0.08278956	-9.986591e-05	0.0004032376	-0.4435048	-0.4573419	0.0007915997	0.0009777187	
0.0001017935	2.550456e-05	-0.1753612	0.02573873	0.0007915997	0.0009777187	-0.4276686	-0.4803422	

3.022e+10	-0.4698305	-0.2583983	-0.0007894702	0.001095836	-0.2013035	0.09310055	3.427129e-05	-0.0001203661	
-0.0007894702	0.001095836	-0.4834184	-0.3486523	-0.0001318914	0.0003508913	-0.1803513	0.03102244	
-0.2013035	0.09310055	-0.0001318914	0.0003508913	-0.4547717	-0.4536618	0.0008401679	0.0006893853	
3.427129e-05	-0.0001203661	-0.1803513	0.03102244	0.0008401679	0.0006893853	-0.4434398	-0.4766973	

3.024e+10	-0.4603257	-0.2504569	-0.000624379	0.001249033	-0.1939529	0.1023463	-0.0001002429	-0.0002048926	
-0.000624379	0.001249033	-0.4917515	-0.33911	-0.0001898174	0.0003474279	-0.1845951	0.03634996	
-0.1939529	0.1023463	-0.0001898174	0.0003474279	-0.4654965	-0.4478009	0.0008280909	0.0004688166	
-0.0001002429	-0.0002048926	-0.1845951	0.03634996	0.0008280909	0.0004688166	-0.4573936	-0.4708412	

3.026e+10	-0.4478785	-0.2451047	-0.0004135368	0.001410529	-0.1848477	0.1100165	-0.0002537116	-0.0002084011	
-0.0004135368	0.001410529	-0.498182	-0.3288649	-0.00024101	0.0004089905	-0.1883739	0.04186499	
-0.1848477	0.1100165	-0.00024101	0.0004089905	-0.4747859	-0.4398105	0.0007999923	0.0003050235	
-0.0002537116	-0.0002084011	-0.1883739	0.04186499	0.0007999923	0.0003050235	-0.4695761	-0.4633884	

3.028e+10	-0.4333978	-0.243709	-0.000123576	0.001551486	-0.1741734	0.1158082	-0.0003864669	-0.0001499006	
-0.000123576	0.001551486	-0.5030781	-0.3181557	-0.0002435576	0.0005215977	-0.1916361	0.04785131	
-0.1741734	0.1158082	-0.0002435576	0.0005215977	-0.4820281	-0.4300754	0.0007738597	0.0001722125	
-0.0003864669	-0.0001499006	-0.1916361	0.04785131	0.0007738597	0.0001722125	-0.4802682	-0.4548026	

3.03e+10	-0.4184153	-0.2474501	0.0002449673	0.001613106	-0.1621803	0.1191769	-0.0004947196	-5.671607e-05	
0.0002449673	0.001613106	-0.5065656	-0.3071497	-0.0001776568	0.0006436625	-0.1942505	0.05419916	
-0.1621803	0.1191769	-0.0001776568	0.0006436625	-0.4868441	-0.4196398	0.0007470241	5.409255e-05	
-0.0004947196	-5.671607e-05	-0.1942505	0.05419916	0.0007470241	5.409255e-05	-0.4896248	-0.4450559	

3.032e+10	-0.4049153	-0.2562737	0.0006425973	0.001551597	-0.1493876	0.1195109	-0.0005884273	7.277108e-05	
0.0006425973	0.001551597	-0.508625	-0.2956704	-5.986723e-05	0.0007382766	-0.19628	0.06079635	
-0.1493876	0.1195109	-5.986723e-05	0.0007382766	-0.489459	-0.4092513	0.0007174946	-5.06478e-05	
-0.0005884273	7.277108e-05	-0.19628	0.06079635	0.0007174946	-5.06478e-05	-0.4973665	-0.4340334	

3.034e+10	-0.3946009	-0.2697845	0.00100978	0.001373443	-0.1367748	0.1163222	-0.0006503656	0.0002557926	
0.00100978	0.001373443	-0.5088151	-0.2839012	8.21753e-05	0.0008019005	-0.1978406	0.06781315	
-0.1367748	0.1163222	8.21753e-05	0.0008019005	-0.490276	-0.3990052	0.0006945521	-0.000145555	
-0.0006503656	0.0002557926	-0.1978406	0.06781315	0.0006945521	-0.000145555	-0.5030814	-0.4219858	

3.036e+10	-0.3892967	-0.2869094	0.00132041	0.001108309	-0.1256266	0.109591	-0.0006386407	0.0004814251	
0.00132041	0.001108309	-0.5070247	-0.2720922	0.0002490468	0.0008489227	-0.1988693	0.07550364	
-0.1256266	0.109591	0.0002490468	0.0008489227	-0.489049	-0.389286	0.0006840575	-0.0002498558	
-0.0006386407	0.0004814251	-0.1988693	0.07550364	0.0006840575	-0.0002498558	-0.506407	-0.4097877	

3.038e+10	-0.3904625	-0.3057217	0.001568371	0.0007656914	-0.117218	0.09997216	-0.000533164	0.0006988651	
0.001568371	0.0007656914	-0.5032304	-0.2609613	0.000464973	0.000866372	-0.1988952	0.08413936	
-0.117218	0.09997216	0.000464973	0.000866372	-0.4859733	-0.3803674	0.0006687739	-0.0003869888	
-0.000533164	0.0006988651	-0.1988952	0.08413936	0.0006687739	-0.0003869888	-0.5080068	-0.3976128	

3.04e+10	-0.3984426	-0.3231133	0.001721813	0.000342771	-0.1123719	0.08871415	-0.0003637817	0.0008616114	
0.001721813	0.000342771	-0.497842	-0.2506062	0.0007281573	0.0008043706	-0.1973864	0.09347278	
-0.1123719	0.08871415	0.0007281573	0.0008043706	-0.4813249	-0.3732193	0.0006129896	-0.000558717	
-0.0003637817	0.0008616114	-0.1973864	0.09347278	0.0006129896	-0.000558717	-0.5081136	-0.3853997	

3.042e+10	-0.41172	-0.3366291	0.00172657	-0.0001223537	-0.1111935	0.07713766	-0.0001768907	0.0009724018	
0.00172657	-0.0001223537	-0.4907803	-0.2410684	0.0009828575	0.0006247274	-0.1939659	0.1031335	
-0.1111935	0.07713766	0.0009828575	0.0006247274	-0.4760783	-0.3680878	0.0004891543	-0.0007380236	
-0.0001768907	0.0009724018	-0.1939659	0.1031335	0.0004891543	-0.0007380236	-0.5063682	-0.3730541	

3.044e+10	-0.4280645	-0.3449114	0.001572265	-0.000542111	-0.113306	0.06634338	2.022834e-05	0.001066108	
0.001572265	-0.000542111	-0.4817159	-0.2324558	0.001159143	0.0003495464	-0.1884336	0.1127305	
-0.113306	0.06634338	0.001159143	0.0003495464	-0.4710145	-0.3644355	0.0002949048	-0.0008890026	
2.022834e-05	0.001066108	-0.1884336	0.1127305	0.0002949048	-0.0008890026	-0.502095	-0.3607919	

3.046e+10	-0.4452408	-0.3482358	0.001322751	-0.0008494194	-0.1181337	0.05703177	0.0002651375	0.00115229	
0.001322751	-0.0008494194	-0.4702237	-0.2255962	0.001234506	3.83128e-05	-0.1804094	0.1218252	
-0.1181337	0.05703177	0.001234506	3.83128e-05	-0.4660415	-0.3617595	4.221683e-05	-0.0009858765	
0.0002651375	0.00115229	-0.1804094	0.1218252	4.221683e-05	-0.0009858765	-0.4949616	-0.3494158	

3.048e+10	-0.4620852	-0.3470695	0.001057027	-0.001052976	-0.1251245	0.0497172	0.0005901582	0.001185643	
0.001057027	-0.001052976	-0.4567109	-0.2215699	0.001229305	-0.000276878	-0.1695959	0.1295252	
-0.1251245	0.0497172	0.001229305	-0.000276878	-0.4608834	-0.3598226	-0.0002558235	-0.001008045	
0.0005901582	0.001185643	-0.1695959	0.1295252	-0.0002558235	-0.001008045	-0.4850836	-0.3402904	

3.05e+10	-0.4776261	-0.3421989	0.0007969575	-0.001203798	-0.1335719	0.04484813	0.0009691719	0.001096336	
0.0007969575	-0.001203798	-0.4420223	-0.2214448	0.001145977	-0.0006011921	-0.1560334	0.1345894	
-0.1335719	0.04484813	0.001145977	-0.0006011921	-0.4554684	-0.3593202	-0.0005801882	-0.0009306624	
0.0009691719	0.001096336	-0.1560334	0.1345894	-0.0005801882	-0.0009306624	-0.473414	-0.3338331	

3.052e+10	-0.4912515	-0.3342303	0.0005139057	-0.001316877	-0.1426698	0.04258594	0.00132364	0.0008602062	
0.0005139057	-0.001316877	-0.4274875	-0.2254839	0.0009474426	-0.0009155101	-0.1406229	0.1356557	
-0.1426698	0.04258594	0.0009474426	-0.0009155101	-0.450505	-0.3605354	-0.0008946955	-0.000729176	
0.00132364	0.0008602062	-0.1406229	0.1356557	-0.0008946955	-0.000729176	-0.4603548	-0.3306767	

3.054e+10	-0.5024029	-0.3240248	0.0002031171	-0.001356174	-0.1516572	0.04268604	0.001593871	0.0005182185	
0.0002031171	-0.001356174	-0.4141481	-0.2339322	0.0006208608	-0.001140112	-0.1249637	0.1318224	
-0.1516572	0.04268604	0.0006208608	-0.001140112	-0.4467724	-0.3628232	-0.001141126	-0.0003911399	
0.001593871	0.0005182185	-0.1249637	0.1318224	-0.001141126	-0.0003911399	-0.4465962	-0.331309	

3.056e+10	-0.5110314	-0.3121798	-8.383008e-05	-0.001304108	-0.1600945	0.0448197	0.001779725	0.000111263	
-8.383008e-05	-0.001304108	-0.4036612	-0.2463959	0.0002435724	-0.001194316	-0.1109327	0.1230736	
-0.1600945	0.0448197	0.0002435724	-0.001194316	-0.4442193	-0.3655356	-0.001240032	5.826152e-05	
0.001779725	0.000111263	-0.1109327	0.1230736	-0.001240032	5.826152e-05	-0.4334609	-0.3365904	

3.058e+10	-0.5171018	-0.2995123	-0.0003045432	-0.001209756	-0.1677899	0.04868397	0.001882151	-0.000371686	
-0.0003045432	-0.001209756	-0.3976466	-0.2623989	-5.863534e-05	-0.001096133	-0.1005992	0.1101702	
-0.1677899	0.04868397	-5.863534e-05	-0.001096133	-0.4422365	-0.3685883	-0.001126756	0.0005328555	
0.001882151	-0.000371686	-0.1005992	0.1101702	-0.001126756	0.0005328555	-0.4231696	-0.3466071	

3.06e+10	-0.5209205	-0.2863785	-0.0004916555	-0.001130191	-0.174511	0.05425389	0.001839074	-0.0009411423	
-0.0004916555	-0.001130191	-0.3976699	-0.2794871	-0.0002322216	-0.0009598892	-0.09525495	0.09505566	
-0.174511	0.05425389	-0.0002322216	-0.0009598892	-0.4410771	-0.371948	-0.0008094458	0.0009069073	
0.001839074	-0.0009411423	-0.09525495	0.09505566	-0.0008094458	0.0009069073	-0.4180207	-0.3590471	

3.062e+10	-0.5226043	-0.2728626	-0.0007073383	-0.001048277	-0.179842	0.06129326	0.00156919	-0.001522351	
-0.0007073383	-0.001048277	-0.403338	-0.2950907	-0.0003414081	-0.0008765705	-0.09501178	0.07986574	
-0.179842	0.06129326	-0.0003414081	-0.0008765705	-0.4410415	-0.375887	-0.0003805509	0.001091566	
0.00156919	-0.001522351	-0.09501178	0.07986574	-0.0003805509	0.001091566	-0.4179269	-0.3713139	

3.064e+10	-0.5219223	-0.2590845	-0.000952002	-0.0008949278	-0.1833547	0.0694303	0.001077943	-0.001977826	
-0.000952002	-0.0008949278	-0.4130199	-0.3071832	-0.0004756022	-0.0008311209	-0.09902155	0.0662141	
-0.1833547	0.0694303	-0.0004756022	-0.0008311209	-0.4426345	-0.3795177	4.671967e-05	0.001082192	
0.001077943	-0.001977826	-0.09902155	0.0662141	4.671967e-05	0.001082192	-0.4214508	-0.3814786	

3.066e+10	-0.5186788	-0.2450676	-0.00115718	-0.0006398523	-0.184928	0.07811663	0.0004724489	-0.002219269	
-0.00115718	-0.0006398523	-0.4247386	-0.3154387	-0.0006515307	-0.0007532095	-0.106284	0.05497478	
-0.184928	0.07811663	-0.0006515307	-0.0007532095	-0.4453176	-0.382088	0.0004013943	0.0009280118	
0.0004724489	-0.002219269	-0.106284	0.05497478	0.0004013943	0.0009280118	-0.4269204	-0.3894222	

3.068e+10	-0.5123477	-0.2317646	-0.001261166	-0.0003259249	-0.1845815	0.08693619	-0.0001328589	-0.002264306	
-0.001261166	-0.0003259249	-0.4371489	-0.3204135	-0.0008216251	-0.0006086366	-0.1156847	0.04673966	
-0.1845815	0.08693619	-0.0008216251	-0.0006086366	-0.4482047	-0.3833445	0.0006549398	0.0006811778	
-0.0001328589	-0.002264306	-0.1156847	0.04673966	0.0006549398	0.0006811778	-0.4338087	-0.3951509	

3.07e+10	-0.503074	-0.2197876	-0.001264144	-1.985876e-05	-0.1823172	0.09559694	-0.000701393	-0.002178051	
-0.001264144	-1.985876e-05	-0.4497599	-0.322234	-0.0009471105	-0.0004210867	-0.1261128	0.04161016	
-0.1823172	0.09559694	-0.0009471105	-0.0004210867	-0.4505246	-0.3839692	0.0007959877	0.0003839731	
-0.000701393	-0.002178051	-0.1261128	0.04161016	0.0007959877	0.0003839731	-0.441459	-0.398609	

3.072e+10	-0.4909097	-0.2098973	-0.001207976	0.0002525794	-0.1779604	0.1037002	-0.001256347	-0.00197816	
-0.001207976	0.0002525794	-0.4617379	-0.3213945	-0.001036441	-0.0002193573	-0.1366365	0.0392057	
-0.1779604	0.1037002	-0.001036441	-0.0002193573	-0.4525432	-0.3843281	0.0008198637	7.772805e-05	
-0.001256347	-0.00197816	-0.1366365	0.0392057	0.0008198637	7.772805e-05	-0.4490783	-0.3994117	

3.074e+10	-0.4760127	-0.2027421	-0.001114183	0.0005108188	-0.1714756	0.1105085	-0.001787093	-0.001616463	
-0.001114183	0.0005108188	-0.4726029	-0.3180551	-0.001108349	1.063971e-05	-0.146784	0.03897391	
-0.1714756	0.1105085	-0.001108349	1.063971e-05	-0.4544942	-0.3844854	0.0007370528	-0.0001929497	
-0.001787093	-0.001616463	-0.146784	0.03897391	0.0007370528	-0.0001929497	-0.4554046	-0.3982556	

3.076e+10	-0.4585796	-0.1995865	-0.0009576662	0.0007672353	-0.1632461	0.1152855	-0.002199862	-0.00106867	
-0.0009576662	0.0007672353	-0.4817067	-0.3133023	-0.001134761	0.0002998167	-0.156545	0.0405436	
-0.1632461	0.1152855	-0.001134761	0.0002998167	-0.4561933	-0.3842865	0.0005813665	-0.0003920924	
-0.002199862	-0.00106867	-0.156545	0.0405436	0.0005813665	-0.0003920924	-0.4600702	-0.396282	

3.078e+10	-0.4397522	-0.2020775	-0.0007087347	0.0009826849	-0.154056	0.1173167	-0.002395782	-0.0004164075	
-0.0007087347	0.0009826849	-0.4892862	-0.3077623	-0.001052894	0.0006296449	-0.1657526	0.0439485	
-0.154056	0.1173167	-0.001052894	0.0006296449	-0.4570911	-0.3840891	0.0003978013	-0.0005153078	
-0.002395782	-0.0004164075	-0.1657526	0.0439485	0.0003978013	-0.0005153078	-0.463556	-0.3945171	

3.08e+10	-0.4219378	-0.2109224	-0.0003904923	0.001092405	-0.1449165	0.116391	-0.002385606	0.0002141687	
-0.0003904923	0.001092405	-0.495787	-0.3017989	-0.0008372984	0.0009217936	-0.1740504	0.04908729	
-0.1449165	0.116391	-0.0008372984	0.0009217936	-0.457219	-0.3846052	0.0002073794	-0.0005824212	
-0.002385606	0.0002141687	-0.1740504	0.04908729	0.0002073794	-0.0005824212	-0.4665566	-0.3931556	

3.082e+10	-0.4078048	-0.2257708	-7.90283e-05	0.001073595	-0.1368646	0.1126621	-0.0022545	0.0007842178	
-7.90283e-05	0.001073595	-0.5014166	-0.2954748	-0.000538301	0.00110662	-0.181056	0.05566552	
-0.1368646	0.1126621	-0.000538301	0.00110662	-0.4573903	-0.386388	5.488903e-06	-0.0005978748	
-0.0022545	0.0007842178	-0.181056	0.05566552	5.488903e-06	-0.0005978748	-0.4694621	-0.3915577	

3.084e+10	-0.3995218	-0.2445396	0.0001666399	0.000970396	-0.1308525	0.1066827	-0.002021687	0.001341172	
0.0001666399	0.000970396	-0.5062505	-0.288409	-0.0002310607	0.00118539	-0.1867125	0.06323503	
-0.1308525	0.1066827	-0.0002310607	0.00118539	-0.4585038	-0.3893901	-0.0001977104	-0.0005420272	
-0.002021687	0.001341172	-0.1867125	0.06323503	-0.0001977104	-0.0005420272	-0.471766	-0.3898629	

3.086e+10	-0.3977583	-0.2650713	0.0003490296	0.0008379127	-0.1275176	0.09941282	-0.001615516	0.001874237	
0.0003490296	0.0008379127	-0.5098515	-0.2811049	6.160879e-05	0.001204525	-0.1910405	0.07169327	
-0.1275176	0.09941282	6.160879e-05	0.001204525	-0.4610506	-0.3926624	-0.0003612605	-0.0004083307	
-0.001615516	0.001874237	-0.1910405	0.07169327	-0.0003612605	-0.0004083307	-0.4732761	-0.3887534	

3.088e+10	-0.4026437	-0.2847713	0.000494297	0.0006832462	-0.1271192	0.09188378	-0.001010346	0.002259715	
0.000494297	0.0006832462	-0.5124628	-0.2736296	0.0003672989	0.001176079	-0.1939377	0.08088739	
-0.1271192	0.09188378	0.0003672989	0.001176079	-0.4647597	-0.3954017	-0.0004465604	-0.0002307832	
-0.001010346	0.002259715	-0.1939377	0.08088739	-0.0004465604	-0.0002307832	-0.4748401	-0.3883754	

3.09e+10	-0.4131813	-0.3017391	0.0005883089	0.0004914491	-0.1293876	0.08521825	-0.0003212591	0.002389904	
0.0005883089	0.0004914491	-0.5142624	-0.2663406	0.0006903575	0.001059896	-0.1950963	0.09072629	
-0.1293876	0.08521825	0.0006903575	0.001059896	-0.4691333	-0.3977132	-0.0004544194	-5.974476e-05	
-0.0003212591	0.002389904	-0.1950963	0.09072629	-0.0004544194	-5.974476e-05	-0.4771102	-0.3885673	

3.092e+10	-0.4277415	-0.3144373	0.0005930278	0.0002914588	-0.1335724	0.08025838	0.0003050889	0.002296624	
0.0005930278	0.0002914588	-0.5155132	-0.2588253	0.0009754961	0.0008271931	-0.1942984	0.1007147	
-0.1335724	0.08025838	0.0009754961	0.0008271931	-0.4742332	-0.399766	-0.0004161203	8.073487e-05	
0.0003050889	0.002296624	-0.1942984	0.1007147	-0.0004161203	8.073487e-05	-0.4801476	-0.3885385	

3.094e+10	-0.4444552	-0.3220867	0.0005177719	0.000150603	-0.1387146	0.0773027	0.0008244149	0.002082234	
0.0005177719	0.000150603	-0.5159606	-0.2506483	0.001158584	0.0005140428	-0.1915919	0.1103928	
-0.1387146	0.0773027	0.001158584	0.0005140428	-0.4804095	-0.4012575	-0.0003530065	0.0001968038	
0.0008244149	0.002082234	-0.1915919	0.1103928	-0.0003530065	0.0001968038	-0.4833646	-0.3879411	

3.096e+10	-0.4615304	-0.3252121	0.0004307221	0.0001015882	-0.1440628	0.07614861	0.001272171	0.001793896	
0.0004307221	0.0001015882	-0.514916	-0.2421913	0.001232075	0.0001890842	-0.1870657	0.1194496	
-0.1440628	0.07614861	0.001232075	0.0001890842	-0.4874597	-0.4015451	-0.0002643721	0.0002948546	
0.001272171	0.001793896	-0.1870657	0.1194496	-0.0002643721	0.0002948546	-0.4862715	-0.3870751	

3.098e+10	-0.4779178	-0.3245488	0.0003949186	0.0001087935	-0.1492531	0.07637666	0.001658224	0.001409613	
0.0003949186	0.0001087935	-0.5121404	-0.2337197	0.001237276	-0.0001149028	-0.1808015	0.1275414	
-0.1492531	0.07637666	0.001237276	-0.0001149028	-0.4947232	-0.4003331	-0.0001447918	0.0003660757	
0.001658224	0.001409613	-0.1808015	0.1275414	-0.0001447918	0.0003660757	-0.4891747	-0.3863269	

3.1e+10	-0.4931128	-0.3209658	0.0004135319	0.0001111924	-0.1540782	0.07783048	0.00192766	0.0009215126	
0.0004135319	0.0001111924	-0.5075447	-0.2260796	0.001200564	-0.0004178457	-0.1728712	0.1342861	
-0.1540782	0.07783048	0.001200564	-0.0004178457	-0.501529	-0.3980774	-1.903711e-06	0.0003909454	
0.00192766	0.0009215126	-0.1728712	0.1342861	-1.903711e-06	0.0003909454	-0.4925007	-0.3857537	

3.102e+10	-0.5069668	-0.3149456	0.0004493025	8.826367e-05	-0.1583832	0.0803524	0.002028045	0.0003952407	
0.0004493025	8.826367e-05	-0.5014164	-0.2195847	0.001095552	-0.0007404345	-0.1635008	0.1391993	
-0.1583832	0.0803524	0.001095552	-0.0007404345	-0.5081067	-0.3949809	0.0001377587	0.0003599813	
0.002028045	0.0003952407	-0.1635008	0.1391993	0.0001377587	0.0003599813	-0.496328	-0.384714	

3.104e+10	-0.5193449	-0.3066506	0.0004908365	5.891799e-05	-0.1619187	0.0837157	0.001984677	-8.272456e-05	
0.0004908365	5.891799e-05	-0.49383	-0.214416	0.0008810507	-0.001050032	-0.1531147	0.1417858	
-0.1619187	0.0837157	0.0008810507	-0.001050032	-0.5146995	-0.3912448	0.0002491918	0.0002883148	
0.001984677	-8.272456e-05	-0.1531147	0.1417858	0.0002491918	0.0002883148	-0.5001346	-0.3829353	

3.106e+10	-0.5298668	-0.2967397	0.000562993	2.11478e-05	-0.1645926	0.08755231	0.001869777	-0.0004887485	
0.000562993	2.11478e-05	-0.4847203	-0.2113662	0.0005643544	-0.001280228	-0.1423548	0.1416608	
-0.1645926	0.08755231	0.0005643544	-0.001280228	-0.5212616	-0.3864177	0.0003313893	0.0001994102	
0.001869777	-0.0004887485	-0.1423548	0.1416608	0.0003313893	0.0001994102	-0.5034296	-0.3810171	

3.108e+10	-0.538476	-0.2853491	0.0006725307	-7.044492e-05	-0.1665596	0.09156692	0.001721833	-0.0008607644	
0.0006725307	-7.044492e-05	-0.4747053	-0.2114517	0.0002037543	-0.001396514	-0.1321209	0.1385953	
-0.1665596	0.09156692	0.0002037543	-0.001396514	-0.5274554	-0.3799932	0.0003985261	9.917165e-05	
0.001721833	-0.0008607644	-0.1321209	0.1385953	0.0003985261	9.917165e-05	-0.5067866	-0.3794008	

3.11e+10	-0.5451777	-0.2728857	0.0007709788	-0.0002589688	-0.1680776	0.0957143	0.001517089	-0.001232597	
0.0007709788	-0.0002589688	-0.4653696	-0.2152281	-0.0001493046	-0.001420777	-0.1234623	0.1328613	
-0.1680776	0.0957143	-0.0001493046	-0.001420777	-0.5324233	-0.3725299	0.0004551793	-2.717817e-05	
0.001517089	-0.001232597	-0.1234623	0.1328613	0.0004551793	-2.717817e-05	-0.5108413	-0.3781407	

3.112e+10	-0.5499356	-0.2597186	0.0007828594	-0.0005311523	-0.1691522	0.1001559	0.001213374	-0.001582958	
0.0007828594	-0.0005311523	-0.4583927	-0.2220894	-0.0004935196	-0.001389032	-0.1171118	0.1251922	
-0.1691522	0.1001559	-0.0004935196	-0.001389032	-0.5362186	-0.364277	0.0004804775	-0.0001933456	
0.001213374	-0.001582958	-0.1171118	0.1251922	0.0004804775	-0.0001933456	-0.5161065	-0.3759376	

3.114e+10	-0.5527964	-0.2457741	0.0006678456	-0.000821608	-0.1696649	0.1049099	0.0008112403	-0.00185562	
0.0006678456	-0.000821608	-0.4547143	-0.23059	-0.0008539363	-0.001297032	-0.1134328	0.116442	
-0.1696649	0.1049099	-0.0008539363	-0.001297032	-0.5388584	-0.3557166	0.0004427442	-0.0003860263	
0.0008112403	-0.00185562	-0.1134328	0.116442	0.0004427442	-0.0003860263	-0.5216367	-0.3723546	

3.116e+10	-0.5533637	-0.2312501	0.0004394532	-0.001069105	-0.1695074	0.1098692	0.0003543853	-0.00202137	
0.0004394532	-0.001069105	-0.4542653	-0.2394056	-0.001222138	-0.001104674	-0.1125815	0.1073224	
-0.1695074	0.1098692	-0.001222138	-0.001104674	-0.5406213	-0.3462737	0.0003327612	-0.0005713281	
0.0003543853	-0.00202137	-0.1125815	0.1073224	0.0003327612	-0.0005713281	-0.5268134	-0.3672368	

3.118e+10	-0.5513144	-0.2162798	0.0001256076	-0.001244578	-0.1687117	0.1149148	-0.0001234109	-0.002092664	
0.0001256076	-0.001244578	-0.4567192	-0.2476687	-0.001546295	-0.0007974188	-0.1145472	0.0987699	
-0.1687117	0.1149148	-0.001546295	-0.0007974188	-0.5409178	-0.3359063	0.0001636115	-0.0007287291	
-0.0001234109	-0.002092664	-0.1145472	0.0987699	0.0001636115	-0.0007287291	-0.5313961	-0.3610009	

3.12e+10	-0.5463627	-0.2014555	-0.0002586064	-0.001329176	-0.1672905	0.1201219	-0.0006258137	-0.002085946	
-0.0002586064	-0.001329176	-0.461784	-0.254498	-0.001785924	-0.0004073912	-0.1189221	0.09171465	
-0.1672905	0.1201219	-0.001785924	-0.0004073912	-0.5389259	-0.3251009	-6.05646e-05	-0.0008568723	
-0.0006258137	-0.002085946	-0.1189221	0.09171465	-6.05646e-05	-0.0008568723	-0.5352315	-0.3538591	

3.122e+10	-0.5383374	-0.1875743	-0.0006985591	-0.001290343	-0.1651087	0.1255971	-0.001176404	-0.001982079	
-0.0006985591	-0.001290343	-0.4687967	-0.2592169	-0.001945155	3.089651e-05	-0.1248696	0.086722	
-0.1651087	0.1255971	-0.001945155	3.089651e-05	-0.5344319	-0.3145532	-0.0003593096	-0.0009463868	
-0.001176404	-0.001982079	-0.1248696	0.086722	-0.0003593096	-0.0009463868	-0.5381657	-0.345231	

3.124e+10	-0.5273632	-0.1751238	-0.001153696	-0.001085668	-0.161673	0.1312944	-0.001772715	-0.001720282	
-0.001153696	-0.001085668	-0.476722	-0.2614304	-0.002041814	0.0005272887	-0.1314701	0.08378796	
-0.161673	0.1312944	-0.002041814	0.0005272887	-0.527569	-0.3050834	-0.000755358	-0.0009485953	
-0.001772715	-0.001720282	-0.1314701	0.08378796	-0.000755358	-0.0009485953	-0.5391556	-0.3354642	

3.126e+10	-0.513331	-0.1648126	-0.001544856	-0.0006933139	-0.1566407	0.1367427	-0.002349289	-0.0012287	
-0.001544856	-0.0006933139	-0.4845676	-0.261131	-0.002042675	0.001124828	-0.1383926	0.08256402	
-0.1566407	0.1367427	-0.002042675	0.001124828	-0.5187237	-0.2968354	-0.001229299	-0.00077593	
-0.002349289	-0.0012287	-0.1383926	0.08256402	-0.001229299	-0.00077593	-0.5377038	-0.3251321	

3.128e+10	-0.4961772	-0.1576827	-0.001780395	-0.0001401201	-0.1498181	0.1413296	-0.002786659	-0.0004893575	
-0.001780395	-0.0001401201	-0.4916069	-0.2590853	-0.001848584	0.001819773	-0.1454957	0.08309029	
-0.1498181	0.1413296	-0.001848584	0.001819773	-0.5076981	-0.2902909	-0.001680697	-0.0003550976	
-0.002786659	-0.0004893575	-0.1454957	0.08309029	-0.001680697	-0.0003550976	-0.533753	-0.3154092	

3.13e+10	-0.4765342	-0.1552952	-0.001792446	0.0004937219	-0.1413502	0.1442917	-0.002962542	0.0004390553	
-0.001792446	0.0004937219	-0.497753	-0.2558103	-0.001369353	0.002510529	-0.1524639	0.08555873	
-0.1413502	0.1442917	-0.001369353	0.002510529	-0.4943244	-0.2862041	-0.00196648	0.0003082942	
-0.002962542	0.0004390553	-0.1524639	0.08555873	-0.00196648	0.0003082942	-0.5278507	-0.3069698	

3.132e+10	-0.4560777	-0.1589123	-0.0015642	0.001108746	-0.1316462	0.1448295	-0.002799713	0.001450613	
-0.0015642	0.001108746	-0.5031187	-0.2513942	-0.000607053	0.003046304	-0.1586343	0.09000701	
-0.1316462	0.1448295	-0.000607053	0.003046304	-0.4789557	-0.2860817	-0.00196915	0.001129112	
-0.002799713	0.001450613	-0.1586343	0.09000701	-0.00196915	0.001129112	-0.5204404	-0.2997502	

3.134e+10	-0.4371574	-0.1690357	-0.001119434	0.001617271	-0.1215602	0.1421779	-0.002259406	0.002422069	
-0.001119434	0.001617271	-0.5074885	-0.2460949	0.0003506916	0.003314901	-0.1634138	0.09602775	
-0.1215602	0.1421779	0.0003506916	0.003314901	-0.4632997	-0.2910782	-0.001619636	0.001984455	
-0.002259406	0.002422069	-0.1634138	0.09602775	-0.001619636	0.001984455	-0.5114922	-0.2936461	

3.136e+10	-0.4220434	-0.1850006	-0.0004987976	0.00194692	-0.1124324	0.136004	-0.001321832	0.00320383	
-0.0004987976	0.00194692	-0.5105205	-0.2399063	0.001401177	0.003269505	-0.16653	0.1031725	
-0.1124324	0.136004	0.001401177	0.003269505	-0.4495019	-0.3013699	-0.0008858156	0.00272788	
-0.001321832	0.00320383	-0.16653	0.1031725	-0.0008858156	0.00272788	-0.5005786	-0.2895919	

3.138e+10	-0.412762	-0.2051663	0.0002303024	0.002023537	-0.105986	0.126668	-4.252528e-05	0.003582948	
0.0002303024	0.002023537	-0.5119806	-0.233323	0.002456641	0.002887054	-0.1678916	0.1110408	
-0.105986	0.126668	0.002456641	0.002887054	-0.4394834	-0.3158008	0.0002112311	0.003166863	
-4.252528e-05	0.003582948	-0.1678916	0.1110408	0.0002112311	0.003166863	-0.488311	-0.2883264	

3.14e+10	-0.4105512	-0.2274786	0.0009459873	0.001794301	-0.1035064	0.1156437	0.001354331	0.003358835	
0.0009459873	0.001794301	-0.5118969	-0.2269484	0.003411805	0.002138479	-0.1671975	0.119393	
-0.1035064	0.1156437	0.003411805	0.002138479	-0.4341995	-0.3329323	0.001520203	0.00309055	
0.001354331	0.003358835	-0.1671975	0.119393	0.001520203	0.00309055	-0.4756086	-0.2906546	

3.142e+10	-0.4157839	-0.2488415	0.001490227	0.00129548	-0.1054105	0.1048966	0.002509045	0.002524683	
0.001490227	0.00129548	-0.510545	-0.2210384	0.004108564	0.001039398	-0.1640255	0.1276444	
-0.1054105	0.1048966	0.004108564	0.001039398	-0.4342891	-0.3511786	0.002738913	0.002400525	
0.002509045	0.002524683	-0.1640255	0.1276444	0.002738913	0.002400525	-0.4635955	-0.2962537	

3.144e+10	-0.4271617	-0.266713	0.001765379	0.0006596619	-0.1107931	0.09627701	0.003147587	0.001320862	
0.001765379	0.0006596619	-0.5079522	-0.2157175	0.004392537	-0.0002915133	-0.1582463	0.1347734	
-0.1107931	0.09627701	0.004392537	-0.0002915133	-0.4399333	-0.3687555	0.003548038	0.001218987	
0.003147587	0.001320862	-0.1582463	0.1347734	0.003548038	0.001218987	-0.4527051	-0.304779	

3.146e+10	-0.4424146	-0.2794668	0.00177852	3.158756e-05	-0.1180907	0.09067972	0.003222112	6.658783e-05	
0.00177852	3.158756e-05	-0.5040104	-0.2110389	0.004199344	-0.001659078	-0.1503275	0.1396441	
-0.1180907	0.09067972	0.004199344	-0.001659078	-0.4504623	-0.3837803	0.003777513	-0.0001735972	
0.003222112	6.658783e-05	-0.1503275	0.1396441	0.003777513	-0.0001735972	-0.4433417	-0.3166998	

3.148e+10	-0.4592443	-0.2870791	0.001596851	-0.0005056614	-0.1259139	0.08796953	0.002847327	-0.001014616	
0.001596851	-0.0005056614	-0.4986199	-0.2080661	0.003573093	-0.002882916	-0.1413544	0.1415025	
-0.1259139	0.08796953	0.003573093	-0.002882916	-0.4643491	-0.394773	0.00344372	-0.001491158	
0.002847327	-0.001014616	-0.1413544	0.1415025	0.00344372	-0.001491158	-0.4369437	-0.3321393	

3.15e+10	-0.4761603	-0.2903074	0.001277428	-0.0009218183	-0.1333545	0.08763085	0.002165243	-0.001816662	
0.001277428	-0.0009218183	-0.4924812	-0.2075259	0.002607573	-0.003847174	-0.1325598	0.1401781	
-0.1333545	0.08763085	0.002607573	-0.003847174	-0.4796506	-0.4016194	0.00267323	-0.002535914	
0.002165243	-0.001816662	-0.1325598	0.1401781	0.00267323	-0.002535914	-0.435364	-0.3502919	

3.152e+10	-0.4924781	-0.2897445	0.0008630206	-0.00118493	-0.1399751	0.08910527	0.001304378	-0.002276834	
0.0008630206	-0.00118493	-0.4869142	-0.2095976	0.001398722	-0.004476465	-0.1251002	0.1360455	
-0.1399751	0.08910527	0.001398722	-0.004476465	-0.4951602	-0.4048512	0.001622161	-0.003193861	
0.001304378	-0.002276834	-0.1251002	0.1360455	0.001622161	-0.003193861	-0.4395654	-0.3691007	

3.154e+10	-0.5075825	-0.2862415	0.0004244816	-0.001264241	-0.1454763	0.09189523	0.0004168569	-0.00236677	
0.0004244816	-0.001264241	-0.4830011	-0.2139358	5.421033e-05	-0.004705888	-0.1199169	0.1297254	
-0.1454763	0.09189523	5.421033e-05	-0.004705888	-0.5104975	-0.4050507	0.0004638151	-0.003404047	
0.0004168569	-0.00236677	-0.1199169	0.1297254	0.0004638151	-0.003404047	-0.4494187	-0.3860155	

3.156e+10	-0.5211654	-0.2801495	5.435199e-05	-0.001182351	-0.1496771	0.09542831	-0.0003380973	-0.002141677	
5.435199e-05	-0.001182351	-0.4813111	-0.219549	-0.001280667	-0.004501781	-0.1176004	0.1222476	
-0.1496771	0.09542831	-0.001280667	-0.004501781	-0.5253156	-0.402652	-0.0006042027	-0.003179399	
-0.0003380973	-0.002141677	-0.1176004	0.1222476	-0.0006042027	-0.003179399	-0.4635493	-0.3998427	

3.158e+10	-0.5329469	-0.2719016	-0.0001914691	-0.001019171	-0.1527906	0.09910967	-0.0008658973	-0.001733689	
-0.0001914691	-0.001019171	-0.4820469	-0.225397	-0.002441709	-0.003907551	-0.1184651	0.1148809	
-0.1527906	0.09910967	-0.002441709	-0.003907551	-0.5391933	-0.3976729	-0.001413211	-0.00264005	
-0.0008658973	-0.001733689	-0.1184651	0.1148809	-0.001413211	-0.00264005	-0.4807504	-0.4095849	

3.16e+10	-0.5426769	-0.2622234	-0.0003276601	-0.0008589566	-0.1551457	0.1026498	-0.001172778	-0.001279414	
-0.0003276601	-0.0008589566	-0.485035	-0.2310382	-0.003314662	-0.00304692	-0.1219424	0.1089142	
-0.1551457	0.1026498	-0.003314662	-0.00304692	-0.551644	-0.3901523	-0.001901085	-0.001971384	
-0.001172778	-0.001279414	-0.1219424	0.1089142	-0.001901085	-0.001971384	-0.4998113	-0.4145095	

3.162e+10	-0.5504802	-0.2514487	-0.0004069093	-0.0007371149	-0.1571134	0.1060941	-0.001324733	-0.0008537321	
-0.0004069093	-0.0007371149	-0.4901651	-0.2355845	-0.003876935	-0.002061403	-0.1268764	0.1051106	
-0.1571134	0.1060941	-0.003876935	-0.002061403	-0.5620784	-0.3809851	-0.002123574	-0.001326441	
-0.001324733	-0.0008537321	-0.1268764	0.1051106	-0.002123574	-0.001326441	-0.5189839	-0.414893	

3.164e+10	-0.5563703	-0.2399563	-0.00046559	-0.0006479371	-0.1589062	0.1094993	-0.001380099	-0.0004674061	
-0.00046559	-0.0006479371	-0.4968842	-0.238387	-0.004169297	-0.001048029	-0.1322721	0.103268	
-0.1589062	0.1094993	-0.004169297	-0.001048029	-0.5706339	-0.3707156	-0.002180487	-0.0007674431	
-0.001380099	-0.0004674061	-0.1322721	0.103268	-0.002180487	-0.0007674431	-0.5370792	-0.4110738	

3.166e+10	-0.5604757	-0.2275856	-0.0005143623	-0.0005852802	-0.1604879	0.1130021	-0.001358571	-0.0001097854	
-0.0005143623	-0.0005852802	-0.5043963	-0.2389658	-0.004236919	-4.880796e-05	-0.1376057	0.1029422	
-0.1604879	0.1130021	-0.004236919	-4.880796e-05	-0.5775436	-0.3596291	-0.002141612	-0.0002903185	
-0.001358571	-0.0001097854	-0.1376057	0.1029422	-0.002141612	-0.0002903185	-0.5532617	-0.4038892	

3.168e+10	-0.562391	-0.2148687	-0.0005697312	-0.0005557833	-0.161913	0.1166036	-0.001258156	0.0002114461	
-0.0005697312	-0.0005557833	-0.5117944	-0.2376756	-0.004095966	0.0009185596	-0.1427857	0.1038541	
-0.161913	0.1166036	-0.004095966	0.0009185596	-0.5827339	-0.3477928	-0.002034123	0.0001155059	
-0.001258156	0.0002114461	-0.1427857	0.1038541	-0.002034123	0.0001155059	-0.5670598	-0.3945573	

3.17e+10	-0.5619928	-0.2021083	-0.0006662615	-0.000553141	-0.163363	0.1203536	-0.001089553	0.0004692356	
-0.0006662615	-0.000553141	-0.5186846	-0.2349584	-0.003748788	0.001814657	-0.1476598	0.1059872	
-0.163363	0.1203536	-0.003748788	0.001814657	-0.5859021	-0.3352778	-0.001881174	0.0004450375	
-0.001089553	0.0004692356	-0.1476598	0.1059872	-0.001881174	0.0004450375	-0.5787159	-0.383625	

3.172e+10	-0.5593043	-0.1898582	-0.0008309655	-0.000538399	-0.1649294	0.1245091	-0.0008880719	0.0006445119	
-0.0008309655	-0.000538399	-0.5250813	-0.2309319	-0.00322192	0.00258494	-0.151938	0.1092188	
-0.1649294	0.1245091	-0.00322192	0.00258494	-0.5867611	-0.3224413	-0.001719953	0.0007001497	
-0.0008880719	0.0006445119	-0.151938	0.1092188	-0.001719953	0.0007001497	-0.5883137	-0.3716291	

3.174e+10	-0.554574	-0.1785882	-0.001056048	-0.0004567741	-0.1663705	0.1295159	-0.0006959117	0.0007494146	
-0.001056048	-0.0004567741	-0.5309488	-0.2257025	-0.002570152	0.003198911	-0.155372	0.1132577	
-0.1663705	0.1295159	-0.002570152	0.003198911	-0.5854417	-0.3099754	-0.001585207	0.0009115347	
-0.0006959117	0.0007494146	-0.155372	0.1132577	-0.001585207	0.0009115347	-0.5960493	-0.3585675	

3.176e+10	-0.5480907	-0.16851	-0.001302054	-0.0002746232	-0.1673276	0.1354509	-0.0005296399	0.0008202673	
-0.001302054	-0.0002746232	-0.5359515	-0.2193727	-0.001847078	0.003662945	-0.1580515	0.1176793	
-0.1673276	0.1354509	-0.001847078	0.003662945	-0.5822224	-0.2984514	-0.001483153	0.001128224	
-0.0005296399	0.0008202673	-0.1580515	0.1176793	-0.001483153	0.001128224	-0.6017178	-0.3447465	

3.178e+10	-0.5399489	-0.1598376	-0.00152901	1.654613e-05	-0.167354	0.1422784	-0.0003711188	0.0008824256	
-0.00152901	1.654613e-05	-0.5397158	-0.2120558	-0.001070528	0.004000852	-0.1602151	0.1224494	
-0.167354	0.1422784	-0.001070528	0.004000852	-0.5774942	-0.2876763	-0.001381418	0.001393526	
-0.0003711188	0.0008824256	-0.1602151	0.1224494	-0.001381418	0.001393526	-0.60516	-0.3306293	

3.18e+10	-0.5302231	-0.1529408	-0.001703086	0.0004249428	-0.1661108	0.1498295	-0.0001988635	0.000926038	
-0.001703086	0.0004249428	-0.5420625	-0.2042879	-0.0002311379	0.004213365	-0.161927	0.1277447	
-0.1661108	0.1498295	-0.0002311379	0.004213365	-0.5711009	-0.2776813	-0.001224921	0.00171411	
-0.0001988635	0.000926038	-0.161927	0.1277447	-0.001224921	0.00171411	-0.6066898	-0.3163613	

3.182e+10	-0.5192524	-0.148501	-0.001771374	0.0009589775	-0.1632459	0.1579203	-2.493565e-05	0.0009287153	
-0.001771374	0.0009589775	-0.5431911	-0.1962036	0.0006643116	0.004271957	-0.1629467	0.1337507	
-0.1632459	0.1579203	0.0006643116	0.004271957	-0.5628504	-0.2685865	-0.0009704928	0.002059602	
-2.493565e-05	0.0009287153	-0.1629467	0.1337507	-0.0009704928	0.002059602	-0.6065389	-0.3020127	

3.184e+10	-0.507839	-0.1465802	-0.00165369	0.00159695	-0.1583036	0.1661771	0.0001168498	0.000901418	
-0.00165369	0.00159695	-0.5432739	-0.187807	0.001581728	0.00415737	-0.162933	0.140293	
-0.1583036	0.1661771	0.001581728	0.00415737	-0.5525835	-0.261441	-0.0006071602	0.002388951	
0.0001168498	0.000901418	-0.162933	0.140293	-0.0006071602	0.002388951	-0.6046275	-0.2876157	

3.186e+10	-0.496534	-0.1473629	-0.001272521	0.00225836	-0.1508559	0.1739073	0.0002237447	0.0008926769	
-0.001272521	0.00225836	-0.542027	-0.1792583	0.002494123	0.003875615	-0.1617682	0.1471461	
-0.1508559	0.1739073	0.002494123	0.003875615	-0.5408807	-0.2567134	-0.0001359634	0.002680254	
0.0002237447	0.0008926769	-0.1617682	0.1471461	-0.0001359634	0.002680254	-0.6005946	-0.273074	

3.188e+10	-0.4857352	-0.150546	-0.0006062008	0.002815683	-0.1407846	0.1800665	0.0003508051	0.0009362776	
-0.0006062008	0.002815683	-0.539052	-0.1706868	0.003401877	0.003428581	-0.1594473	0.1541379	
-0.1407846	0.1800665	0.003401877	0.003428581	-0.5283298	-0.2544951	0.0004631924	0.002920193	
0.0003508051	0.0009362776	-0.1594473	0.1541379	0.0004631924	0.002920193	-0.5939912	-0.2586446	

3.19e+10	-0.475689	-0.1563986	0.0003069106	0.003140841	-0.128559	0.1835332	0.0005741694	0.0009943303	
0.0003069106	0.003140841	-0.5341607	-0.1623923	0.004313831	0.002771664	-0.1558119	0.1613479	
-0.128559	0.1835332	0.004313831	0.002771664	-0.5150872	-0.2552434	0.001239233	0.003053085	
0.0005741694	0.0009943303	-0.1558119	0.1613479	0.001239233	0.003053085	-0.5845337	-0.2449954	

3.192e+10	-0.4672696	-0.1651018	0.001370458	0.003125548	-0.1151065	0.1833533	0.0009090653	0.0009642382	
0.001370458	0.003125548	-0.5274387	-0.1551336	0.005184955	0.001817574	-0.1503638	0.1685869	
-0.1151065	0.1833533	0.005184955	0.001817574	-0.5015582	-0.259428	0.002200812	0.002944135	
0.0009090653	0.0009642382	-0.1503638	0.1685869	0.002200812	0.002944135	-0.5722448	-0.2325973	

3.194e+10	-0.4617157	-0.1764968	0.0024381	0.002701614	-0.1019296	0.1789919	0.001275365	0.0007640161	
0.0024381	0.002701614	-0.5190789	-0.1494319	0.00587358	0.0004937861	-0.1426415	0.1752078	
-0.1019296	0.1789919	0.00587358	0.0004937861	-0.4889126	-0.2680046	0.003230493	0.002441962	
0.001275365	0.0007640161	-0.1426415	0.1752078	0.003230493	0.002441962	-0.5569546	-0.221977	

3.196e+10	-0.4600833	-0.1894448	0.003331872	0.001870065	-0.09059217	0.1706664	0.001567742	0.0004001369	
0.003331872	0.001870065	-0.5091537	-0.1455167	0.006170623	-0.001170191	-0.1324589	0.180255	
-0.09059217	0.1706664	0.006170623	-0.001170191	-0.4793339	-0.2808862	0.004111139	0.001502511	
0.001567742	0.0004001369	-0.1324589	0.180255	0.004111139	0.001502511	-0.5382842	-0.2138829	

3.198e+10	-0.462737	-0.202261	0.003877414	0.0007271093	-0.08251344	0.1593206	0.001731184	-7.247032e-05	
0.003877414	0.0007271093	-0.4977753	-0.144052	0.005893028	-0.00300485	-0.1202395	0.1825607	
-0.08251344	0.1593206	0.005893028	-0.00300485	-0.4746677	-0.2968357	0.00464509	0.0002179356	
0.001731184	-7.247032e-05	-0.1202395	0.1825607	0.00464509	0.0002179356	-0.5160423	-0.2102778	

3.2e+10	-0.4692506	-0.213652	0.003963906	-0.0005566462	-0.07850205	0.1463444	0.001739743	-0.0006229183	
0.003963906	-0.0005566462	-0.4854057	-0.1461829	0.004966548	-0.004762083	-0.1067782	0.1811289	
-0.07850205	0.1463444	0.004966548	-0.004762083	-0.4756935	-0.3133048	0.004714204	-0.001264314	
0.001739743	-0.0006229183	-0.1067782	0.1811289	0.004714204	-0.001264314	-0.4914181	-0.2132669	

3.202e+10	-0.478966	-0.2226335	0.003574131	-0.0017673	-0.07879888	0.1333478	0.001525751	-0.001210467	
0.003574131	-0.0017673	-0.47362	-0.15261	0.00343144	-0.006179031	-0.09351941	0.1751463	
-0.07879888	0.1333478	0.00343144	-0.006179031	-0.4817707	-0.3282722	0.004229715	-0.002775973	
0.001525751	-0.001210467	-0.09351941	0.1751463	0.004229715	-0.002775973	-0.4670769	-0.2243874	

3.204e+10	-0.4910338	-0.2280345	0.00280532	-0.002707837	-0.08278044	0.1218992	0.001034516	-0.00169235	
0.00280532	-0.002707837	-0.4645099	-0.1631243	0.001434204	-0.007010499	-0.08244691	0.1644276	
-0.08278044	0.1218992	0.001434204	-0.007010499	-0.4917838	-0.3404003	0.0031475	-0.004057147	
0.001034516	-0.00169235	-0.08244691	0.1644276	0.0031475	-0.004057147	-0.4465287	-0.2437587	

3.206e+10	-0.5039511	-0.22977	0.001838348	-0.00327697	-0.08933544	0.1128751	0.0003645666	-0.001884663	
0.001838348	-0.00327697	-0.4596212	-0.1767082	-0.0007558538	-0.007075039	-0.07576458	0.1499233	
-0.08933544	0.1128751	-0.0007558538	-0.007075039	-0.504555	-0.3488496	0.001616257	-0.004784372	
0.0003645666	-0.001884663	-0.07576458	0.1499233	0.001616257	-0.004784372	-0.4330095	-0.2695247	

3.208e+10	-0.5164124	-0.227765	0.0008570668	-0.003490929	-0.0971433	0.1064601	-0.0002546553	-0.001744107	
0.0008570668	-0.003490929	-0.4597629	-0.1910043	-0.002768167	-0.006354212	-0.07507455	0.1339456	
-0.0971433	0.1064601	-0.002768167	-0.006354212	-0.5187632	-0.3530808	2.008561e-05	-0.004795058	
-0.0002546553	-0.001744107	-0.07507455	0.1339456	2.008561e-05	-0.004795058	-0.4286834	-0.2984979	

3.21e+10	-0.5273879	-0.2227774	-3.765266e-05	-0.003440594	-0.1054749	0.102248	-0.0006607721	-0.001413808	
-3.765266e-05	-0.003440594	-0.4645919	-0.2042318	-0.004290087	-0.00505333	-0.0803708	0.1194242	
-0.1054749	0.102248	-0.004290087	-0.00505333	-0.5327451	-0.3532852	-0.001260666	-0.004250487	
-0.0006607721	-0.001413808	-0.0803708	0.1194242	-0.001260666	-0.004250487	-0.4339569	-0.3267725	

3.212e+10	-0.5364007	-0.2156317	-0.0008103288	-0.00320474	-0.1140435	0.09983756	-0.0008581169	-0.001064236	
-0.0008103288	-0.00320474	-0.4730948	-0.2151033	-0.005204099	-0.003489104	-0.0899595	0.1087037	
-0.1140435	0.09983756	-0.005204099	-0.003489104	-0.5453432	-0.3499697	-0.002103855	-0.003477987	
-0.0008581169	-0.001064236	-0.0899595	0.1087037	-0.002103855	-0.003477987	-0.4472203	-0.3510438	

3.214e+10	-0.5431908	-0.2072072	-0.001445202	-0.002841271	-0.1227471	0.09915057	-0.0009313712	-0.0007680362	
-0.001445202	-0.002841271	-0.4840804	-0.2226521	-0.005574769	-0.001921724	-0.1015031	0.1026074	
-0.1227471	0.09915057	-0.005574769	-0.001921724	-0.5557625	-0.3444531	-0.002615743	-0.002700181	
-0.0009313712	-0.0007680362	-0.1015031	0.1026074	-0.002615743	-0.002700181	-0.4657821	-0.369042	

3.216e+10	-0.5478687	-0.197677	-0.001942874	-0.00240869	-0.1313359	0.1001599	-0.0009341022	-0.0005226941	
-0.001942874	-0.00240869	-0.496244	-0.22657	-0.005533049	-0.000483106	-0.1130515	0.1005838	
-0.1313359	0.1001599	-0.005533049	-0.000483106	-0.5639826	-0.337804	-0.002924752	-0.001968317	
-0.0009341022	-0.0005226941	-0.1130515	0.1005838	-0.002924752	-0.001968317	-0.4865787	-0.3805674	

3.218e+10	-0.5502188	-0.1880602	-0.002332794	-0.001956753	-0.1394658	0.1027855	-0.0008775848	-0.0003342398	
-0.002332794	-0.001956753	-0.5082661	-0.2273584	-0.005183046	0.0007718371	-0.1235441	0.1017333	
-0.1394658	0.1027855	-0.005183046	0.0007718371	-0.5704808	-0.3302972	-0.003078479	-0.00127326	
-0.0008775848	-0.0003342398	-0.1235441	0.1017333	-0.003078479	-0.00127326	-0.5075398	-0.3865017	

3.22e+10	-0.5503939	-0.1785153	-0.002665202	-0.00148831	-0.1470357	0.1067493	-0.0007896663	-0.0002312138	
-0.002665202	-0.00148831	-0.5194439	-0.2257528	-0.004602996	0.001807603	-0.1325248	0.1052263	
-0.1470357	0.1067493	-0.004602996	0.001807603	-0.5751289	-0.3224834	-0.003091963	-0.0006453816	
-0.0007896663	-0.0002312138	-0.1325248	0.1052263	-0.003091963	-0.0006453816	-0.5275752	-0.387968	

3.222e+10	-0.5485198	-0.1699002	-0.002957181	-0.0009699845	-0.1540625	0.1120151	-0.0007333569	-0.0002198781	
-0.002957181	-0.0009699845	-0.5296716	-0.2223271	-0.003874436	0.002596647	-0.1397565	0.1103335	
-0.1540625	0.1120151	-0.003874436	0.002596647	-0.5779962	-0.3144798	-0.003024146	-0.0001193476	
-0.0007333569	-0.0002198781	-0.1397565	0.1103335	-0.003024146	-0.0001193476	-0.546276	-0.3860697	

3.224e+10	-0.5450847	-0.1626004	-0.00318106	-0.0003742516	-0.1604016	0.1186909	-0.0007656514	-0.0002530667	
-0.00318106	-0.0003742516	-0.5389923	-0.2175482	-0.003088602	0.00314079	-0.145071	0.1163902	
-0.1604016	0.1186909	-0.003088602	0.00314079	-0.5791118	-0.3071417	-0.002950555	0.0003304363	
-0.0007656514	-0.0002530667	-0.145071	0.1163902	-0.002950555	0.0003304363	-0.5634702	-0.381498	

3.226e+10	-0.5406809	-0.1568777	-0.003297098	0.0002930981	-0.1656916	0.1269101	-0.0008941913	-0.0002535364	
-0.003297098	0.0002930981	-0.5474389	-0.2113489	-0.002318763	0.00348342	-0.1486818	0.1226947	
-0.1656916	0.1269101	-0.002318763	0.00348342	-0.5791438	-0.3008411	-0.002894298	0.0007782326	
-0.0008941913	-0.0002535364	-0.1486818	0.1226947	-0.002894298	0.0007782326	-0.579027	-0.3745894	

3.228e+10	-0.5358438	-0.1526391	-0.003287504	0.001001955	-0.1693004	0.1364619	-0.001071797	-0.0001674557	
-0.003287504	0.001001955	-0.5547018	-0.2038707	-0.001597002	0.003683395	-0.1509399	0.1288238	
-0.1693004	0.1364619	-0.001597002	0.003683395	-0.5787985	-0.2955491	-0.002807098	0.00127986	
-0.001071797	-0.0001674557	-0.1509399	0.1288238	-0.002807098	0.00127986	-0.592824	-0.3657069	

3.23e+10	-0.5308903	-0.1497266	-0.003147057	0.001744442	-0.1709709	0.1468506	-0.001241062	9.747476e-06	
-0.003147057	0.001744442	-0.5605855	-0.1953262	-0.0009228181	0.003788425	-0.1523237	0.1347172	
-0.1709709	0.1468506	-0.0009228181	0.003788425	-0.5784462	-0.2908016	-0.002620965	0.001822975	
-0.001241062	9.747476e-06	-0.1523237	0.1347172	-0.002620965	0.001822975	-0.6047433	-0.3555106	

3.232e+10	-0.5259662	-0.1481396	-0.002846201	0.002519878	-0.1705758	0.1576786	-0.001376203	0.000252084	
-0.002846201	0.002519878	-0.5650275	-0.1862088	-0.0002851257	0.003824185	-0.1530271	0.1404202	
-0.1705758	0.1576786	-0.0002851257	0.003824185	-0.5778714	-0.2863552	-0.002312329	0.002349759	
-0.001376203	0.000252084	-0.1530271	0.1404202	-0.002312329	0.002349759	-0.6150117	-0.3441412	

3.234e+10	-0.5213905	-0.1476369	-0.002329408	0.003292378	-0.1680186	0.1686061	-0.001482676	0.0005525808	
-0.002329408	0.003292378	-0.5681848	-0.1766435	0.0003264379	0.003807733	-0.1530532	0.1459545	
-0.1680186	0.1686061	0.0003264379	0.003807733	-0.5769733	-0.282157	-0.00191095	0.002823522	
-0.001482676	0.0005525808	-0.1530532	0.1459545	-0.00191095	0.002823522	-0.6237711	-0.3318046	

3.236e+10	-0.5173991	-0.1483618	-0.001557877	0.003977277	-0.1630397	0.1792411	-0.001550745	0.0009421262	
-0.001557877	0.003977277	-0.5700958	-0.1665997	0.0009306988	0.003757966	-0.1524524	0.1512333	
-0.1630397	0.1792411	0.0009306988	0.003757966	-0.5758564	-0.2782559	-0.001443882	0.003259842	
-0.001550745	0.0009421262	-0.1524524	0.1512333	-0.001443882	0.003259842	-0.6309373	-0.318433	

3.238e+10	-0.5141616	-0.1497671	-0.0005580344	0.004468087	-0.1556217	0.1888514	-0.001518406	0.001445453	
-0.0005580344	0.004468087	-0.5704523	-0.1562721	0.001563143	0.003679319	-0.1515055	0.1561778	
-0.1556217	0.1888514	0.001563143	0.003679319	-0.5745629	-0.2746682	-0.0008830844	0.003686814	
-0.001518406	0.001445453	-0.1515055	0.1561778	-0.0008830844	0.003686814	-0.6362019	-0.3041345	

3.24e+10	-0.5115422	-0.1516228	0.0006073037	0.004694582	-0.1458663	0.1966958	-0.00129415	0.002029845	
0.0006073037	0.004694582	-0.5690379	-0.1456807	0.002271351	0.003544248	-0.1503984	0.1610007	
-0.1458663	0.1966958	0.002271351	0.003544248	-0.5729853	-0.2710936	-0.0001633139	0.004083936	
-0.00129415	0.002029845	-0.1503984	0.1610007	-0.0001633139	0.004083936	-0.6393895	-0.2890986	

3.242e+10	-0.5094162	-0.15419	0.001870552	0.0046147	-0.1344271	0.2020229	-0.0008226887	0.002595015	
0.001870552	0.0046147	-0.5657041	-0.1356047	0.003081371	0.003282934	-0.1490514	0.1660039	
-0.1344271	0.2020229	0.003081371	0.003282934	-0.5707424	-0.2674768	0.0007567274	0.004364179	
-0.0008226887	0.002595015	-0.1490514	0.1660039	0.0007567274	0.004364179	-0.640428	-0.2736943	

3.244e+10	-0.5080492	-0.1575591	0.00317565	0.004176495	-0.1219734	0.20445	-0.0001165744	0.00303176	
0.00317565	0.004176495	-0.560713	-0.1261565	0.003976426	0.002796649	-0.1472922	0.1713034	
-0.1219734	0.20445	0.003976426	0.002796649	-0.5674402	-0.2644811	0.001850381	0.004424562	
-0.0001165744	0.00303176	-0.1472922	0.1713034	0.001850381	0.004424562	-0.6393556	-0.2580568	

3.246e+10	-0.5079486	-0.1618141	0.004410376	0.003311164	-0.1093154	0.2037016	0.0007746023	0.003266103	
0.004410376	0.003311164	-0.5541891	-0.1177965	0.004866747	0.001990047	-0.1447529	0.1768534	
-0.1093154	0.2037016	0.004866747	0.001990047	-0.5633507	-0.2629342	0.003049594	0.004199409	
0.0007746023	0.003266103	-0.1447529	0.1768534	0.003049594	0.004199409	-0.6360405	-0.2422445	

3.248e+10	-0.5096386	-0.1664771	0.005384703	0.002006512	-0.09743215	0.1996771	0.001812605	0.003236373	
0.005384703	0.002006512	-0.5461889	-0.1105279	0.005602357	0.000822419	-0.1413059	0.1824991	
-0.09743215	0.1996771	0.005602357	0.000822419	-0.5593369	-0.263204	0.004300255	0.003645592	
0.001812605	0.003236373	-0.1413059	0.1824991	0.004300255	0.003645592	-0.6300477	-0.2264586	

3.25e+10	-0.5133907	-0.1706828	0.005903254	0.0003741735	-0.08736688	0.1926886	0.002939464	0.002842873	
0.005903254	0.0003741735	-0.5366023	-0.1046937	0.006019017	-0.0006637082	-0.1368855	0.1881304	
-0.08736688	0.1926886	0.006019017	-0.0006637082	-0.5562825	-0.265214	0.005539443	0.002683479	
0.002939464	0.002842873	-0.1368855	0.1881304	0.005539443	0.002683479	-0.6208883	-0.2113676	

3.252e+10	-0.5190233	-0.1738642	0.005860861	-0.001371523	-0.08001379	0.1834934	0.003997317	0.001982199	
0.005860861	-0.001371523	-0.5256307	-0.1011254	0.005986153	-0.002358732	-0.131094	0.1936979	
-0.08001379	0.1834934	0.005986153	-0.002358732	-0.5547782	-0.2680708	0.006615996	0.001204239	
0.003997317	0.001982199	-0.131094	0.1936979	0.006615996	0.001204239	-0.6083968	-0.1975627	

3.254e+10	-0.5261359	-0.1753282	0.005275736	-0.003027315	-0.07590348	0.1732415	0.004732393	0.0006665263	
0.005275736	-0.003027315	-0.5138218	-0.1002492	0.005410771	-0.004118024	-0.123457	0.1988057	
-0.07590348	0.1732415	0.005410771	-0.004118024	-0.554915	-0.2711299	0.007245487	-0.0008007412	
0.004732393	0.0006665263	-0.123457	0.1988057	0.007245487	-0.0008007412	-0.5926195	-0.1860565	

3.256e+10	-0.5341633	-0.1744883	0.004218575	-0.004438153	-0.07495439	0.1631125	0.004930707	-0.0009128734	
0.004218575	-0.004438153	-0.5019895	-0.1023134	0.00423126	-0.00575006	-0.1138701	0.2024998	
-0.07495439	0.1631125	0.00423126	-0.00575006	-0.5566142	-0.2738882	0.007132344	-0.003137415	
0.004930707	-0.0009128734	-0.1138701	0.2024998	0.007132344	-0.003137415	-0.5737378	-0.1777113	

3.258e+10	-0.5423025	-0.1709873	0.002770454	-0.005481001	-0.07656698	0.1539732	0.004541569	-0.002489631	
0.002770454	-0.005481001	-0.4907749	-0.1075447	0.002460134	-0.007002309	-0.1024451	0.203778	
-0.07656698	0.1539732	0.002460134	-0.007002309	-0.5597237	-0.2759037	0.006131891	-0.005446062	
0.004541569	-0.002489631	-0.1024451	0.203778	0.006131891	-0.005446062	-0.5519992	-0.1736211	

3.26e+10	-0.5495506	-0.1649776	0.00105467	-0.006031179	-0.08015384	0.1462222	0.003643318	-0.003856205	
0.00105467	-0.006031179	-0.4810374	-0.1159309	0.0002572271	-0.007613656	-0.09018387	0.2016086	
-0.08015384	0.1462222	0.0002572271	-0.007613656	-0.5638648	-0.2764786	0.0043046	-0.007353765	
0.003643318	-0.003856205	-0.09018387	0.2016086	0.0043046	-0.007353765	-0.5280896	-0.1755697	

3.262e+10	-0.5550333	-0.1568493	-0.0007421947	-0.006009139	-0.0851336	0.1400202	0.002336623	-0.004882811	
-0.0007421947	-0.006009139	-0.4739141	-0.127517	-0.002089818	-0.007429787	-0.0784489	0.1954434	
-0.0851336	0.1400202	-0.002089818	-0.007429787	-0.5682513	-0.275193	0.001841007	-0.008568556	
0.002336623	-0.004882811	-0.0784489	0.1954434	0.001841007	-0.008568556	-0.5041793	-0.1850025	

3.264e+10	-0.5581761	-0.1474765	-0.00241393	-0.005424323	-0.09114088	0.1354276	0.0007172336	-0.005444259	
-0.00241393	-0.005424323	-0.47086	-0.1413544	-0.004262899	-0.006445425	-0.06898688	0.1854011	
-0.09114088	0.1354276	-0.004262899	-0.006445425	-0.5719148	-0.2722994	-0.0009928002	-0.008864981	
0.0007172336	-0.005444259	-0.06898688	0.1854011	-0.0009928002	-0.008864981	-0.4834962	-0.2024492	

3.266e+10	-0.5589129	-0.1375925	-0.00377141	-0.004373849	-0.09787613	0.1325621	-0.001032314	-0.005401336	
-0.00377141	-0.004373849	-0.4729449	-0.1555879	-0.005968607	-0.00477321	-0.06353046	0.1725778	
-0.09787613	0.1325621	-0.005968607	-0.00477321	-0.5743273	-0.2685458	-0.003808425	-0.008093316	
-0.001032314	-0.005401336	-0.06353046	0.1725778	-0.003808425	-0.008093316	-0.4695735	-0.2263944	

3.268e+10	-0.5572918	-0.127944	-0.004702321	-0.003011887	-0.1049031	0.131504	-0.002630784	-0.004728528	
-0.004702321	-0.003011887	-0.479798	-0.1682109	-0.00697182	-0.002644169	-0.06297705	0.1589808	
-0.1049031	0.131504	-0.00697182	-0.002644169	-0.5755308	-0.2647146	-0.006116838	-0.006320911	
-0.002630784	-0.004728528	-0.06297705	0.1589808	-0.006116838	-0.006320911	-0.4644696	-0.2535526	

3.27e+10	-0.5534816	-0.1188583	-0.005160146	-0.001503068	-0.111857	0.1321308	-0.003816095	-0.003587314	
-0.005160146	-0.001503068	-0.4900876	-0.1774092	-0.007156881	-0.0003825919	-0.06705548	0.1468002	
-0.111857	0.1321308	-0.007156881	-0.0003825919	-0.57588	-0.2608673	-0.007515341	-0.003915574	
-0.003816095	-0.003587314	-0.06705548	0.1468002	-0.007515341	-0.003915574	-0.4683696	-0.2800914	

3.272e+10	-0.5475319	-0.1108991	-0.005149897	5.392962e-06	-0.118361	0.1343487	-0.004499391	-0.002237433	
-0.005149897	5.392962e-06	-0.5020684	-0.1827379	-0.006585442	0.001667596	-0.07441141	0.137621	
-0.118361	0.1343487	-0.006585442	0.001667596	-0.5753571	-0.2570082	-0.007917414	-0.001397478	
-0.004499391	-0.002237433	-0.07441141	0.137621	-0.007917414	-0.001397478	-0.4798617	-0.3030044	

3.274e+10	-0.5396678	-0.1048031	-0.004705781	0.001376958	-0.1242468	0.1380385	-0.004744479	-0.0008750553	
-0.004705781	0.001376958	-0.5144077	-0.1844886	-0.005468523	0.003265071	-0.08324047	0.1320303	
-0.1242468	0.1380385	-0.005468523	0.003265071	-0.5736965	-0.2536286	-0.007535895	0.0008492817	
-0.004744479	-0.0008750553	-0.08324047	0.1320303	-0.007535895	0.0008492817	-0.4966465	-0.3206806	

3.276e+10	-0.5305746	-0.1013085	-0.00391006	0.00247566	-0.1292534	0.1430978	-0.004636686	0.0004203396	
-0.00391006	0.00247566	-0.5262138	-0.1830411	-0.004066355	0.004316621	-0.09208888	0.1296295	
-0.1292534	0.1430978	-0.004066355	0.004316621	-0.5710884	-0.2511659	-0.006650602	0.002685668	
-0.004636686	0.0004203396	-0.09208888	0.1296295	-0.006650602	0.002685668	-0.516397	-0.3320303	

3.278e+10	-0.5212454	-0.1004704	-0.002906022	0.003219545	-0.1328559	0.1493764	-0.004203733	0.00160525	
-0.002906022	0.003219545	-0.5367654	-0.1790785	-0.002599609	0.004856388	-0.1000391	0.1295757	
-0.1328559	0.1493764	-0.002599609	0.004856388	-0.5681543	-0.2501122	-0.00543625	0.004117373	
-0.004203733	0.00160525	-0.1000391	0.1295757	-0.00543625	0.004117373	-0.5368146	-0.3372656	

3.28e+10	-0.5124675	-0.1023081	-0.001843505	0.003613403	-0.134783	0.1563682	-0.003464453	0.002584205	
-0.001843505	0.003613403	-0.5455968	-0.1730735	-0.001211301	0.004976503	-0.1068927	0.1310167	
-0.134783	0.1563682	-0.001211301	0.004976503	-0.5655647	-0.2505057	-0.003986397	0.005124441	
-0.003464453	0.002584205	-0.1068927	0.1310167	-0.003986397	0.005124441	-0.5560451	-0.3376821	

3.282e+10	-0.5047618	-0.106186	-0.0008120786	0.003715182	-0.1349184	0.1635528	-0.002517669	0.0032481	
-0.0008120786	0.003715182	-0.5525005	-0.1658632	2.557813e-05	0.004773631	-0.1127188	0.1334319	
-0.1349184	0.1635528	2.557813e-05	0.004773631	-0.5637836	-0.2514844	-0.002423993	0.005663787	
-0.002517669	0.0032481	-0.1127188	0.1334319	-0.002423993	0.005663787	-0.5734205	-0.3342749	

3.284e+10	-0.4984789	-0.1120628	0.0001491434	0.003567384	-0.133421	0.1704643	-0.00151803	0.003577991	
0.0001491434	0.003567384	-0.5576393	-0.1582166	0.001072255	0.004326303	-0.1176208	0.1365056	
-0.133421	0.1704643	0.001072255	0.004326303	-0.5625074	-0.2530369	-0.00091369	0.005757755	
-0.00151803	0.003577991	-0.1176208	0.1365056	-0.00091369	0.005757755	-0.5887372	-0.3282255	

3.286e+10	-0.4942519	-0.1195721	0.0009874939	0.003187123	-0.1304062	0.1767494	-0.0005751022	0.003647946	
0.0009874939	0.003187123	-0.5613616	-0.1502064	0.001895902	0.003708587	-0.1216304	0.1400185	
-0.1304062	0.1767494	0.001895902	0.003708587	-0.5617552	-0.2548235	0.0004230418	0.005523122	
-0.0005751022	0.003647946	-0.1216304	0.1400185	0.0004230418	0.005523122	-0.6019848	-0.320081	

3.288e+10	-0.4926184	-0.1281339	0.001632649	0.002622756	-0.1260124	0.1820529	0.0003019359	0.003536434	
0.001632649	0.002622756	-0.5637749	-0.142029	0.002491296	0.003005901	-0.12499	0.1436833	
-0.1260124	0.1820529	0.002491296	0.003005901	-0.5616806	-0.2571575	0.001583167	0.005084526	
0.0003019359	0.003536434	-0.12499	0.1436833	0.001583167	0.005084526	-0.6130436	-0.310208	

3.29e+10	-0.4937299	-0.1366451	0.002041861	0.001972492	-0.1206922	0.1859208	0.001125443	0.003243492	
0.002041861	0.001972492	-0.5647669	-0.1337134	0.002891234	0.002292303	-0.1279603	0.1474612	
-0.1206922	0.1859208	0.002891234	0.002292303	-0.5625315	-0.2599261	0.002612122	0.004477104	
0.001125443	0.003243492	-0.1279603	0.1474612	0.002612122	0.004477104	-0.621662	-0.2991857	

3.292e+10	-0.4971692	-0.1443469	0.002247742	0.001329311	-0.1147909	0.1882054	0.001844919	0.00274129	
0.002247742	0.001329311	-0.5642459	-0.1257104	0.003157155	0.001595485	-0.1307296	0.1515051	
-0.1147909	0.1882054	0.003157155	0.001595485	-0.5644618	-0.262254	0.003500401	0.003674756	
0.001844919	0.00274129	-0.1307296	0.1515051	0.003500401	0.003674756	-0.6278865	-0.2876014	

3.294e+10	-0.5024426	-0.1510268	0.002305878	0.0007274388	-0.109048	0.1888005	0.002362878	0.002068252	
0.002305878	0.0007274388	-0.5623894	-0.1184115	0.003323542	0.0008944584	-0.1332927	0.1560657	
-0.109048	0.1888005	0.003323542	0.0008944584	-0.5669046	-0.2643519	0.004170481	0.002687486	
0.002362878	0.002068252	-0.1332927	0.1560657	0.004170481	0.002687486	-0.631997	-0.2761127	

3.296e+10	-0.5093763	-0.1564127	0.00224124	0.0001676228	-0.1038833	0.1879516	0.002636881	0.001335741	
0.00224124	0.0001676228	-0.5596271	-0.1119261	0.003372871	0.0001669437	-0.1354298	0.1612274	
-0.1038833	0.1879516	0.003372871	0.0001669437	-0.569755	-0.2661655	0.004564789	0.001600982	
0.002636881	0.001335741	-0.1354298	0.1612274	0.004564789	0.001600982	-0.6344578	-0.2647491	

3.298e+10	-0.517855	-0.1601048	0.002052696	-0.0003328025	-0.09966691	0.1860339	0.002711659	0.0006353648	
0.002052696	-0.0003328025	-0.5562126	-0.1063045	0.003268254	-0.0005630511	-0.1369117	0.1669759	
-0.09966691	0.1860339	0.003268254	-0.0005630511	-0.5732131	-0.2680248	0.004700884	0.0005112191	
0.002711659	0.0006353648	-0.1369117	0.1669759	0.004700884	0.0005112191	-0.6353008	-0.2537164	

3.3e+10	-0.5273845	-0.1615396	0.001760306	-0.000731123	-0.0965312	0.1834756	0.002646052	-1.59354e-05	
0.001760306	-0.000731123	-0.5521908	-0.1015452	0.003010999	-0.001239384	-0.1377011	0.1731761	
-0.0965312	0.1834756	0.003010999	-0.001239384	-0.5777514	-0.2695327	0.004631078	-0.000548952	
0.002646052	-1.59354e-05	-0.1377011	0.1731761	0.004631078	-0.000548952	-0.6345335	-0.2429395	

3.302e+10	-0.5371052	-0.1606285	0.001416903	-0.001006494	-0.09456899	0.1805866	0.00244341	-0.0006279066	
0.001416903	-0.001006494	-0.5476083	-0.09783974	0.002643077	-0.00183514	-0.1376891	0.1798946	
-0.09456899	0.1805866	0.002643077	-0.00183514	-0.5832367	-0.2702347	0.004363375	-0.001587535	
0.00244341	-0.0006279066	-0.1376891	0.1798946	0.004363375	-0.001587535	-0.6321127	-0.232948	

3.304e+10	-0.5463746	-0.1575996	0.001064219	-0.001177423	-0.09364741	0.1776933	0.002077374	-0.001160815	
0.001064219	-0.001177423	-0.5427745	-0.09531513	0.002182431	-0.002367979	-0.1365821	0.1871636	
-0.09364741	0.1776933	0.002182431	-0.002367979	-0.5893171	-0.2694373	0.003857534	-0.002577132	
0.002077374	-0.001160815	-0.1365821	0.1871636	0.003857534	-0.002577132	-0.6284531	-0.2240293	

3.306e+10	-0.5548755	-0.1528382	0.0007135633	-0.001262041	-0.09382276	0.1750521	0.001576716	-0.001527517	
0.0007135633	-0.001262041	-0.5381817	-0.09412133	0.001598338	-0.002835205	-0.1340514	0.1946818	
-0.09382276	0.1750521	0.001598338	-0.002835205	-0.5952394	-0.2676361	0.003098913	-0.003429635	
0.001576716	-0.001527517	-0.1340514	0.1946818	0.003098913	-0.003429635	-0.623931	-0.2162994	

3.308e+10	-0.562481	-0.1465153	0.0003726139	-0.001257037	-0.09481331	0.1730366	0.001042581	-0.001684924	
0.0003726139	-0.001257037	-0.5341694	-0.09361181	0.0008684193	-0.003173318	-0.129774	0.2020662	
-0.09481331	0.1730366	0.0008684193	-0.003173318	-0.6010384	-0.2647137	0.002144937	-0.004053133	
0.001042581	-0.001684924	-0.129774	0.2020662	0.002144937	-0.004053133	-0.6188382	-0.2092244	

3.31e+10	-0.5689392	-0.1386924	7.267296e-05	-0.001159625	-0.09637836	0.1718145	0.0005708862	-0.001674668	
7.267296e-05	-0.001159625	-0.5306276	-0.09365946	4.213971e-05	-0.003302731	-0.1239132	0.2087766	
-0.09637836	0.1718145	4.213971e-05	-0.003302731	-0.6066695	-0.2608967	0.001088231	-0.004416505	
0.0005708862	-0.001674668	-0.1239132	0.2087766	0.001088231	-0.004416505	-0.6128074	-0.2031414	

3.312e+10	-0.573836	-0.1297406	-0.0001508426	-0.0009934131	-0.09823213	0.1713149	0.0001886059	-0.001569811	
-0.0001508426	-0.0009934131	-0.5273688	-0.09422361	-0.0007883985	-0.003204954	-0.1166194	0.2144291	
-0.09823213	0.1713149	-0.0007883985	-0.003204954	-0.6119826	-0.2558724	-1.005767e-05	-0.004537489	
0.0001886059	-0.001569811	-0.1166194	0.2144291	-1.005767e-05	-0.004537489	-0.6057861	-0.1981185	

3.314e+10	-0.5769333	-0.1198972	-0.0002838034	-0.0007983351	-0.1001343	0.1714967	-0.0001215802	-0.001404347	
-0.0002838034	-0.0007983351	-0.5244206	-0.09530337	-0.001566085	-0.002915846	-0.1078698	0.2187383	
-0.1001343	0.1714967	-0.001566085	-0.002915846	-0.6164523	-0.2496889	-0.001132061	-0.004418689	
-0.0001215802	-0.001404347	-0.1078698	0.2187383	-0.001132061	-0.004418689	-0.5979646	-0.1947521	

3.316e+10	-0.5781824	-0.1098759	-0.0003310684	-0.0006110231	-0.1021619	0.1723342	-0.0003513318	-0.001175521	
-0.0003310684	-0.0006110231	-0.5220407	-0.09713154	-0.002281174	-0.002451401	-0.09800375	0.221158	
-0.1021619	0.1723342	-0.002281174	-0.002451401	-0.6196931	-0.2426056	-0.002247509	-0.004018149	
-0.0003513318	-0.001175521	-0.09800375	0.221158	-0.002247509	-0.004018149	-0.5899221	-0.1931582	

3.318e+10	-0.5777788	-0.1000074	-0.0003066335	-0.0004618703	-0.1040953	0.1739994	-0.0004562865	-0.0009115805	
-0.0003066335	-0.0004618703	-0.5204672	-0.09937858	-0.002899877	-0.00178611	-0.08748122	0.2211779	
-0.1040953	0.1739994	-0.002899877	-0.00178611	-0.6215507	-0.2353604	-0.003261419	-0.003290005	
-0.0004562865	-0.0009115805	-0.08748122	0.2211779	-0.003261419	-0.003290005	-0.5819699	-0.1934828	

3.32e+10	-0.5759096	-0.090391	-0.0002359211	-0.0003781398	-0.1057022	0.1764756	-0.0004243731	-0.000696054	
-0.0002359211	-0.0003781398	-0.519722	-0.1019654	-0.003328118	-0.0009142171	-0.07707283	0.2184949	
-0.1057022	0.1764756	-0.003328118	-0.0009142171	-0.6224156	-0.2281414	-0.004032627	-0.002261154	
-0.0004243731	-0.000696054	-0.07707283	0.2184949	-0.004032627	-0.002261154	-0.5743737	-0.1956446	

3.322e+10	-0.5725139	-0.08117497	-0.0001603407	-0.0003753688	-0.1066677	0.1796489	-0.0003201297	-0.0006066666	
-0.0001603407	-0.0003753688	-0.5197973	-0.1047151	-0.003460381	8.396559e-05	-0.06771154	0.2131956	
-0.1066677	0.1796489	-0.003460381	8.396559e-05	-0.6224426	-0.2207853	-0.004451507	-0.001044911	
-0.0003201297	-0.0006066666	-0.06771154	0.2131956	-0.004451507	-0.001044911	-0.5675974	-0.1996599	

3.324e+10	-0.5674782	-0.07249431	-0.0001280152	-0.0004400579	-0.1069026	0.1832354	-0.0002474561	-0.0006473454	
-0.0001280152	-0.0004400579	-0.5208756	-0.1075838	-0.003265616	0.001071785	-0.06022429	0.2056845	
-0.1069026	0.1832354	-0.003265616	0.001071785	-0.6214016	-0.2133593	-0.004492183	0.0002165609	
-0.0002474561	-0.0006473454	-0.06022429	0.2056845	-0.004492183	0.0002165609	-0.5624705	-0.205835	

3.326e+10	-0.5608583	-0.06489352	-0.000168959	-0.0005329489	-0.1063537	0.1871402	-0.0002723975	-0.0007520795	
-0.000168959	-0.0005329489	-0.5232867	-0.1101784	-0.002792303	0.001935646	-0.05513285	0.1966683	
-0.1063537	0.1871402	-0.002792303	0.001935646	-0.6189993	-0.2059136	-0.004183432	0.001413573	
-0.0002723975	-0.0007520795	-0.05513285	0.1966683	-0.004183432	0.001413573	-0.5599713	-0.2134963	

3.328e+10	-0.5530117	-0.05890467	-0.0002842126	-0.0006086635	-0.1048943	0.1912763	-0.0003926215	-0.000847767	
-0.0002842126	-0.0006086635	-0.5270259	-0.1120228	-0.002109214	0.00261678	-0.05283879	0.1869774	
-0.1048943	0.1912763	-0.002109214	0.00261678	-0.6152315	-0.1989516	-0.003556354	0.002466211	
-0.0003926215	-0.000847767	-0.05283879	0.1869774	-0.003556354	0.002466211	-0.5606218	-0.2209478	

3.33e+10	-0.5443357	-0.05442787	-0.0004541886	-0.0006325361	-0.1022141	0.1954344	-0.000577197	-0.0009035798	
-0.0004541886	-0.0006325361	-0.5316729	-0.1122349	-0.00126789	0.003079181	-0.05321693	0.1774938	
-0.1022141	0.1954344	-0.00126789	0.003079181	-0.6103251	-0.1930205	-0.00265258	0.003276833	
-0.000577197	-0.0009035798	-0.05321693	0.1774938	-0.00265258	0.003276833	-0.5637594	-0.2272015	

3.332e+10	-0.5349776	-0.05170096	-0.0006517237	-0.0005859913	-0.09821905	0.1991685	-0.0008173805	-0.0009132275	
-0.0006517237	-0.0005859913	-0.5364078	-0.1107918	-0.0003299564	0.003276227	-0.05607705	0.1689676	
-0.09821905	0.1991685	-0.0003299564	0.003276227	-0.6045671	-0.1879545	-0.001571439	0.003747456	
-0.0008173805	-0.0009132275	-0.05607705	0.1689676	-0.001571439	0.003747456	-0.5683803	-0.2317203	

3.334e+10	-0.5249753	-0.05082681	-0.0008470712	-0.0004564823	-0.09304538	0.2019237	-0.001118943	-0.0008425718	
-0.0008470712	-0.0004564823	-0.5405344	-0.1080094	0.0006076723	0.003183115	-0.06084737	0.1619676	
-0.09304538	0.2019237	0.0006076723	0.003183115	-0.5978649	-0.1836988	-0.0004740444	0.003848011	
-0.001118943	-0.0008425718	-0.06084737	0.1619676	-0.0004740444	0.003848011	-0.5738731	-0.2341933	

3.336e+10	-0.5146435	-0.05245708	-0.0009980774	-0.0002420136	-0.08695079	0.2032632	-0.001446018	-0.0006332531	
-0.0009980774	-0.0002420136	-0.5438086	-0.1040322	0.001442169	0.002833839	-0.06683481	0.1568437	
-0.08695079	0.2032632	0.001442169	0.002833839	-0.5898853	-0.1807964	0.0005022631	0.003654749	
-0.001446018	-0.0006332531	-0.06683481	0.1568437	0.0005022631	0.003654749	-0.5795927	-0.2349947	

3.338e+10	-0.5049038	-0.05690174	-0.001060356	2.702563e-05	-0.08038085	0.202812	-0.001707369	-0.0002649249	
-0.001060356	2.702563e-05	-0.5460487	-0.09933232	0.002118045	0.002307637	-0.07349173	0.1535266	
-0.08038085	0.202812	0.002118045	0.002307637	-0.580842	-0.1800228	0.001316478	0.003286105	
-0.001707369	-0.0002649249	-0.07349173	0.1535266	0.001316478	0.003286105	-0.585024	-0.2338745	

3.34e+10	-0.496835	-0.06399862	-0.001019572	0.00029467	-0.07395519	0.2003566	-0.001818786	0.0002049739	
-0.001019572	0.00029467	-0.5470165	-0.09409292	0.00264018	0.001666796	-0.08037475	0.1519297	
-0.07395519	0.2003566	0.00264018	0.001666796	-0.5716034	-0.1818724	0.002005064	0.00280716	
-0.001818786	0.0002049739	-0.08037475	0.1519297	0.002005064	0.00280716	-0.5893428	-0.2311983	

3.342e+10	-0.4912091	-0.07297352	-0.0009043696	0.0005131273	-0.06841531	0.1958016	-0.001766153	0.0006843366	
-0.0009043696	0.0005131273	-0.5465013	-0.08880758	0.00301952	0.0009218347	-0.08725712	0.1518674	
-0.06841531	0.1958016	0.00301952	0.0009218347	-0.563206	-0.1865898	0.002588196	0.002210216	
-0.001766153	0.0006843366	-0.08725712	0.1518674	0.002588196	0.002210216	-0.5920579	-0.2277441	

3.344e+10	-0.4883466	-0.08329918	-0.0007570911	0.0006745436	-0.06456761	0.1894493	-0.001585672	0.001124797	
-0.0007570911	0.0006745436	-0.5445285	-0.08420016	0.003221737	6.537625e-05	-0.09393415	0.1533467	
-0.06456761	0.1894493	0.003221737	6.537625e-05	-0.5564847	-0.1935707	0.003029125	0.001486708	
-0.001585672	0.001124797	-0.09393415	0.1533467	0.003029125	0.001486708	-0.5932329	-0.2246374	

3.346e+10	-0.4886487	-0.09427581	-0.0005991497	0.0007936566	-0.06326089	0.1819673	-0.001295802	0.001514511	
-0.0005991497	0.0007936566	-0.5416091	-0.08084738	0.003179331	-0.000864997	-0.1000885	0.1563236	
-0.06326089	0.1819673	0.003179331	-0.000864997	-0.5518866	-0.2023988	0.003282062	0.0006762182	
-0.001295802	0.001514511	-0.1000885	0.1563236	0.003282062	0.0006762182	-0.5935572	-0.2221581	

3.348e+10	-0.4924373	-0.104581	-0.0004335762	0.0008772747	-0.06490412	0.1745219	-0.000894006	0.001820869	
-0.0004335762	0.0008772747	-0.5384032	-0.07873648	0.002849702	-0.001775578	-0.1054112	0.1605954	
-0.06490412	0.1745219	0.002849702	-0.001775578	-0.5500139	-0.2124533	0.003338864	-0.0001662419	
-0.000894006	0.001820869	-0.1054112	0.1605954	0.003338864	-0.0001662419	-0.5935481	-0.2201491	

3.35e+10	-0.499336	-0.1130798	-0.0002705445	0.0009245908	-0.06918236	0.1683492	-0.0004125958	0.001988853	
-0.0002705445	0.0009245908	-0.5353285	-0.07771433	0.002251144	-0.002561071	-0.1095859	0.1658805	
-0.06918236	0.1683492	0.002251144	-0.002561071	-0.5513629	-0.223101	0.003207594	-0.001012828	
-0.0004125958	0.001988853	-0.1095859	0.1658805	0.003207594	-0.001012828	-0.5931427	-0.2189395	

3.352e+10	-0.5082329	-0.1188307	-0.000127889	0.0009520185	-0.07526727	0.1643222	7.013414e-05	0.002000371	
-0.000127889	0.0009520185	-0.5325232	-0.07768673	0.001441744	-0.00314498	-0.1126143	0.1718961	
-0.07526727	0.1643222	0.001441744	-0.00314498	-0.5560486	-0.2329424	0.002865754	-0.001842396	
7.013414e-05	0.002000371	-0.1126143	0.1718961	0.002865754	-0.001842396	-0.5924872	-0.2184626	

3.354e+10	-0.5178024	-0.1217355	2.999457e-06	0.0009933855	-0.08210663	0.1626846	0.0004921709	0.001902262	
2.999457e-06	0.0009933855	-0.5301891	-0.0785752	0.0004859175	-0.003478626	-0.1143848	0.1784465	
-0.08210663	0.1626846	0.0004859175	-0.003478626	-0.5632911	-0.2408452	0.002279461	-0.002588636	
0.0004921709	0.001902262	-0.1143848	0.1784465	0.002279461	-0.002588636	-0.592033	-0.2189997	

3.356e+10	-0.5272421	-0.1222082	0.0001690166	0.001059706	-0.08896532	0.1633096	0.0008569435	0.001754507	
0.0001690166	0.001059706	-0.5287351	-0.08024686	-0.0005471472	-0.003519726	-0.114753	0.1852942	
-0.08896532	0.1633096	-0.0005471472	-0.003519726	-0.5720852	-0.2461421	0.001465495	-0.003141047	
0.0008569435	0.001754507	-0.114753	0.1852942	0.001465495	-0.003141047	-0.5924362	-0.2204428	

3.358e+10	-0.5362026	-0.1208385	0.0004124177	0.001107183	-0.09532366	0.165974	0.001202803	0.001568884	
0.0004124177	0.001107183	-0.5284922	-0.08228723	-0.00155648	-0.003241362	-0.1136931	0.1920151	
-0.09532366	0.165974	-0.00155648	-0.003241362	-0.5814247	-0.2495594	0.0005180422	-0.003412503	
0.001202803	0.001568884	-0.1136931	0.1920151	0.0005180422	-0.003412503	-0.5940737	-0.2222332	

3.36e+10	-0.5445575	-0.1177375	0.0007184517	0.00106575	-0.1005108	0.1704293	0.001537621	0.001310933	
0.0007184517	0.00106575	-0.5294459	-0.08414018	-0.002424833	-0.002671406	-0.1113006	0.1982542	
-0.1005108	0.1704293	-0.002424833	-0.002671406	-0.591171	-0.2511808	-0.0004417485	-0.003389233	
0.001537621	0.001310933	-0.1113006	0.1982542	-0.0004417485	-0.003389233	-0.5967556	-0.2237115	

3.362e+10	-0.5519908	-0.113207	0.00102165	0.0009050879	-0.1041755	0.176081	0.001822037	0.0009619926	
0.00102165	0.0009050879	-0.5311838	-0.08555736	-0.003070463	-0.001894137	-0.1078316	0.2037445	
-0.1041755	0.176081	-0.003070463	-0.001894137	-0.6011974	-0.2508701	-0.001327405	-0.003115071	
0.001822037	0.0009619926	-0.1078316	0.2037445	-0.001327405	-0.003115071	-0.6001113	-0.2247306	

3.364e+10	-0.5583123	-0.107514	0.001268111	0.0006500148	-0.1062226	0.1822891	0.002015777	0.0005451818	
0.001268111	0.0006500148	-0.5334489	-0.08620879	-0.003472239	-0.001001554	-0.103644	0.2083328	
-0.1062226	0.1822891	-0.003472239	-0.001001554	-0.6110575	-0.2486218	-0.002097625	-0.002637076	
0.002015777	0.0005451818	-0.103644	0.2083328	-0.002097625	-0.002637076	-0.6040581	-0.2253675	

3.366e+10	-0.5634066	-0.1010683	0.001445675	0.0003346376	-0.1067559	0.1886136	0.002111782	9.896854e-05	
0.001445675	0.0003346376	-0.5361248	-0.08644921	-0.00363789	-5.460822e-05	-0.09878063	0.2120289	
-0.1067559	0.1886136	-0.00363789	-5.460822e-05	-0.620276	-0.2444583	-0.002721217	-0.001982164	
0.002111782	9.896854e-05	-0.09878063	0.2120289	-0.002721217	-0.001982164	-0.6087988	-0.2254431	

3.368e+10	-0.5674336	-0.09414154	0.001554394	-3.551572e-05	-0.1060379	0.1948107	0.002122504	-0.000359894	
0.001554394	-3.551572e-05	-0.5392868	-0.08599365	-0.003568019	0.000904173	-0.09357442	0.2146939	
-0.1060379	0.1948107	-0.003568019	0.000904173	-0.628456	-0.2389791	-0.003151259	-0.001186992	
0.002122504	-0.000359894	-0.09357442	0.2146939	-0.003151259	-0.001186992	-0.6142742	-0.2245493	

3.37e+10	-0.5705252	-0.08699693	0.001563979	-0.0004630937	-0.1041747	0.2007161	0.002043932	-0.0008339052	
0.001563979	-0.0004630937	-0.5427259	-0.08479452	-0.003257371	0.001821976	-0.08827116	0.2163019	
-0.1041747	0.2007161	-0.003257371	0.001821976	-0.6357165	-0.2323876	-0.00335274	-0.000312795	
0.002043932	-0.0008339052	-0.08827116	0.2163019	-0.00335274	-0.000312795	-0.6200796	-0.2221428	

3.372e+10	-0.5726947	-0.07916234	0.001426516	-0.0009132423	-0.10114	0.2061791	0.001848274	-0.001310104	
0.001426516	-0.0009132423	-0.5460947	-0.08249156	-0.002721858	0.002634902	-0.08301457	0.2169391	
-0.10114	0.2061791	-0.002721858	0.002634902	-0.6420852	-0.2249808	-0.003322708	0.0005673641	
0.001848274	-0.001310104	-0.08301457	0.2169391	-0.003322708	0.0005673641	-0.6255341	-0.2185688	

3.374e+10	-0.5736275	-0.07104244	0.001128722	-0.001307498	-0.09708564	0.2108854	0.001519953	-0.001741619	
0.001128722	-0.001307498	-0.5489834	-0.07950098	-0.002005256	0.003291592	-0.07810054	0.2166952	
-0.09708564	0.2108854	-0.002005256	0.003291592	-0.6474772	-0.2163915	-0.003088646	0.001400422	
0.001519953	-0.001741619	-0.07810054	0.2166952	-0.003088646	0.001400422	-0.6304471	-0.214008	

3.376e+10	-0.5731629	-0.06277155	0.0007157307	-0.001576869	-0.09234429	0.2146272	0.001079975	-0.002075762	
0.0007157307	-0.001576869	-0.5513841	-0.07602049	-0.001152529	0.003769753	-0.07364875	0.2157245	
-0.09234429	0.2146272	-0.001152529	0.003769753	-0.6514221	-0.2067684	-0.002677378	0.0021596	
0.001079975	-0.002075762	-0.07364875	0.2157245	-0.002677378	0.0021596	-0.6348663	-0.2087334	

3.378e+10	-0.5713375	-0.05501355	0.0002566525	-0.001702059	-0.08708447	0.2173965	0.0005731145	-0.002286055	
0.0002566525	-0.001702059	-0.5534338	-0.07217319	-0.0001933566	0.004054993	-0.06968704	0.2142202	
-0.08708447	0.2173965	-0.0001933566	0.004054993	-0.6536111	-0.1964658	-0.002097427	0.002826248	
0.0005731145	-0.002286055	-0.06968704	0.2142202	-0.002097427	0.002826248	-0.6388284	-0.2026483	

3.38e+10	-0.5684078	-0.04763064	-0.0002047262	-0.001701226	-0.08151357	0.2191834	3.775443e-05	-0.0023743	
-0.0002047262	-0.001701226	-0.5550792	-0.06776183	0.0008487801	0.004120692	-0.06623841	0.2122755	
-0.08151357	0.2191834	0.0008487801	0.004120692	-0.6539818	-0.1860448	-0.001350804	0.00336532	
3.775443e-05	-0.0023743	-0.06623841	0.2122755	-0.001350804	0.00336532	-0.6420112	-0.1953027	

3.382e+10	-0.5644433	-0.0408559	-0.0006550392	-0.001581405	-0.07573041	0.2199371	-0.0005091203	-0.002344866	
-0.0006550392	-0.001581405	-0.5560181	-0.0628588	0.001935212	0.003929406	-0.06334803	0.2099512	
-0.07573041	0.2199371	0.001935212	0.003929406	-0.6526727	-0.1758602	-0.0004528605	0.00372588	
-0.0005091203	-0.002344866	-0.06334803	0.2099512	-0.0004528605	0.00372588	-0.6437924	-0.1872827	

3.384e+10	-0.5593386	-0.03479858	-0.001064715	-0.001327081	-0.06985461	0.2195447	-0.001049803	-0.002186209	
-0.001064715	-0.001327081	-0.5559887	-0.05784817	0.003001937	0.003450535	-0.06110331	0.207344	
-0.06985461	0.2195447	0.003001937	0.003450535	-0.6497543	-0.1657411	0.0005546624	0.003856719	
-0.001049803	-0.002186209	-0.06110331	0.207344	0.0005546624	0.003856719	-0.6440378	-0.1788496	

3.386e+10	-0.5530947	-0.02985772	-0.001365828	-0.0009453918	-0.06420144	0.217857	-0.001542509	-0.001889282	
-0.001365828	-0.0009453918	-0.5550388	-0.05285759	0.003971762	0.002673242	-0.05953281	0.2046466	
-0.06420144	0.217857	0.003971762	0.002673242	-0.6448999	-0.156256	0.001614996	0.003725077	
-0.001542509	-0.001889282	-0.05953281	0.2046466	0.001614996	0.003725077	-0.642827	-0.1705626	

3.388e+10	-0.5460866	-0.02651702	-0.001500949	-0.0005080433	-0.05919777	0.2149161	-0.001934598	-0.001478042	
-0.001500949	-0.0005080433	-0.5534444	-0.04832278	0.004760208	0.00160467	-0.05862362	0.2020471	
-0.05919777	0.2149161	0.004760208	0.00160467	-0.6380607	-0.1477772	0.002667027	0.003311309	
-0.001934598	-0.001478042	-0.05862362	0.2020471	0.002667027	0.003311309	-0.6403799	-0.1625168	

3.39e+10	-0.5388787	-0.02503584	-0.001487382	-0.0001120979	-0.05525069	0.210903	-0.002204037	-0.001005831	
-0.001487382	-0.0001120979	-0.5513338	-0.04416558	0.005270762	0.0002705193	-0.05821129	0.1995842	
-0.05525069	0.210903	0.005270762	0.0002705193	-0.6294948	-0.1411703	0.003648983	0.002593581	
-0.002204037	-0.001005831	-0.05821129	0.1995842	0.003648983	0.002593581	-0.6365678	-0.1545901	

3.392e+10	-0.5320387	-0.02509031	-0.001405432	0.0002007734	-0.05252293	0.206206	-0.002368652	-0.0005164496	
-0.001405432	0.0002007734	-0.5486726	-0.04029199	0.005393848	-0.001264122	-0.05825265	0.1972897	
-0.05252293	0.206206	0.005393848	-0.001264122	-0.6199114	-0.1368636	0.004467191	0.001550135	
-0.002368652	-0.0005164496	-0.05825265	0.1972897	0.004467191	0.001550135	-0.6310143	-0.1473061	

3.394e+10	-0.5256906	-0.02653835	-0.00131361	0.0004698231	-0.05117964	0.201079	-0.002456069	-1.243139e-05	
-0.00131361	0.0004698231	-0.5453137	-0.03688892	0.005030642	-0.002877579	-0.05874016	0.1951722	
-0.05117964	0.201079	0.005030642	-0.002877579	-0.6099726	-0.1348926	0.004985196	0.000199834	
-0.002456069	-1.243139e-05	-0.05874016	0.1951722	0.004985196	0.000199834	-0.6237309	-0.1413648	

3.396e+10	-0.5200774	-0.02944107	-0.001199114	0.0007434819	-0.05141509	0.1958434	-0.002461228	0.0005240481	
-0.001199114	0.0007434819	-0.5414255	-0.03444311	0.004132823	-0.004389328	-0.05972516	0.1934187	
-0.05141509	0.1958434	0.004132823	-0.004389328	-0.6000708	-0.1352318	0.005062071	-0.001359693	
-0.002461228	0.0005240481	-0.05972516	0.1934187	0.005062071	-0.001359693	-0.6152561	-0.1373006	

3.398e+10	-0.5157053	-0.03362032	-0.00101884	0.001016353	-0.05339347	0.1909765	-0.002351688	0.001086633	
-0.00101884	0.001016353	-0.5374699	-0.03296722	0.00273438	-0.005596638	-0.06106444	0.1921504	
-0.05339347	0.1909765	0.00273438	-0.005596638	-0.5905957	-0.1377619	0.004606549	-0.002958941	
-0.002351688	0.001086633	-0.06106444	0.1921504	0.004606549	-0.002958941	-0.6062575	-0.1352924	

3.4e+10	-0.5130881	-0.03875941	-0.0007689137	0.001248874	-0.05694996	0.1872094	-0.002107594	0.001641308	
-0.0007689137	0.001248874	-0.5337553	-0.03227186	0.0009540169	-0.006318584	-0.06251819	0.1913878	
-0.05694996	0.1872094	0.0009540169	-0.006318584	-0.582152	-0.1428825	0.003602705	-0.004399765	
-0.002107594	0.001641308	-0.06251819	0.1913878	0.003602705	-0.004399765	-0.5971061	-0.1353304	

3.402e+10	-0.5123729	-0.04401593	-0.0004727766	0.001428708	-0.06164142	0.1850852	-0.001729175	0.002156048	
-0.0004727766	0.001428708	-0.530296	-0.0321556	-0.001018892	-0.006427949	-0.06401786	0.1909968	
-0.06164142	0.1850852	-0.001018892	-0.006427949	-0.575693	-0.1500641	0.002110937	-0.005479446	
-0.001729175	0.002156048	-0.06401786	0.1909968	0.002110937	-0.005479446	-0.5880502	-0.1374929	

3.404e+10	-0.5132763	-0.04879006	-0.0001291465	0.001567489	-0.06658749	0.1848526	-0.001209046	0.002604668	
-0.0001291465	0.001567489	-0.5270025	-0.03260216	-0.002956997	-0.005874225	-0.06559567	0.1909366	
-0.06658749	0.1848526	-0.002956997	-0.005874225	-0.5717798	-0.1585686	0.0002653602	-0.006010345	
-0.001209046	0.002604668	-0.06559567	0.1909366	0.0002653602	-0.006010345	-0.5795503	-0.1420295	

3.406e+10	-0.5154317	-0.05281012	0.0002934157	0.001641584	-0.07132827	0.1863023	-0.0005356851	0.002936032	
0.0002934157	0.001641584	-0.5240254	-0.03388721	-0.004617401	-0.004700342	-0.06729218	0.1912996	
-0.07132827	0.1863023	-0.004617401	-0.004700342	-0.57041	-0.1674482	-0.001704941	-0.005856996	
-0.0005356851	0.002936032	-0.06729218	0.1912996	-0.001704941	-0.005856996	-0.5725808	-0.1490394	

3.408e+10	-0.5186482	-0.05606847	0.0007879339	0.001576009	-0.0754165	0.1892248	0.0002656272	0.003068826	
0.0007879339	0.001576009	-0.5217303	-0.03584246	-0.00578702	-0.003048569	-0.06892875	0.1921934	
-0.0754165	0.1892248	-0.00578702	-0.003048569	-0.5713171	-0.1761968	-0.003508193	-0.005006498	
0.0002656272	0.003068826	-0.06892875	0.1921934	-0.003508193	-0.005006498	-0.5680547	-0.1578559	

3.41e+10	-0.5228027	-0.05817979	0.001269775	0.00131223	-0.07848057	0.1934681	0.00110825	0.002935997	
0.001269775	0.00131223	-0.5203754	-0.03812267	-0.006334584	-0.001136348	-0.07033088	0.1935478	
-0.07848057	0.1934681	-0.006334584	-0.001136348	-0.5744292	-0.184429	-0.004881588	-0.003585883	
0.00110825	0.002935997	-0.07033088	0.1935478	-0.004881588	-0.003585883	-0.56629	-0.1674203	

3.412e+10	-0.5275524	-0.05898802	0.001625882	0.0008775717	-0.08009832	0.1986495	0.001870812	0.002537508	
0.001625882	0.0008775717	-0.5197924	-0.04026963	-0.006234326	0.0007853678	-0.07138873	0.1951844	
-0.08009832	0.1986495	-0.006234326	0.0007853678	-0.5797192	-0.1917238	-0.005652723	-0.001826869	
0.001870812	0.002537508	-0.07138873	0.1951844	-0.005652723	-0.001826869	-0.567064	-0.1769465	

3.414e+10	-0.532347	-0.05830148	0.001801253	0.0003666982	-0.07998184	0.2041945	0.002461301	0.001938314	
0.001801253	0.0003666982	-0.5196989	-0.04245309	-0.00556018	0.002503511	-0.07217201	0.1970062	
-0.07998184	0.2041945	-0.00556018	0.002503511	-0.5869211	-0.1974067	-0.00577458	1.511785e-05	
0.002461301	0.001938314	-0.07217201	0.1970062	-0.00577458	1.511785e-05	-0.5701463	-0.1861323	

3.416e+10	-0.5367136	-0.05641088	0.001816645	-0.0001369545	-0.07829586	0.2094118	0.002840564	0.001227398	
0.001816645	-0.0001369545	-0.5200922	-0.04458763	-0.004443961	0.003864439	-0.07278676	0.1990068	
-0.07829586	0.2094118	-0.004443961	0.003864439	-0.5953106	-0.2010384	-0.005304717	0.001701116	
0.002840564	0.001227398	-0.07278676	0.1990068	-0.005304717	0.001701116	-0.5755361	-0.1945843	

3.418e+10	-0.5404615	-0.05346893	0.001716322	-0.0006027967	-0.0753275	0.213904	0.00301618	0.0004810461	
0.001716322	-0.0006027967	-0.5212238	-0.04679308	-0.003045739	0.004777171	-0.07309287	0.2012581	
-0.0753275	0.213904	-0.003045739	0.004777171	-0.6041348	-0.2023752	-0.004380264	0.003060263	
0.00301618	0.0004810461	-0.07309287	0.2012581	-0.004380264	0.003060263	-0.5831365	-0.2014733	

3.42e+10	-0.5435614	-0.05004194	0.001519149	-0.001029276	-0.07146487	0.2174896	0.003014114	-0.0002552162	
0.001519149	-0.001029276	-0.5232079	-0.04881285	-0.001527986	0.005215167	-0.07299828	0.2036523	
-0.07146487	0.2174896	-0.001527986	0.005215167	-0.6128381	-0.2019651	-0.003170913	0.004005002	
0.003014114	-0.0002552162	-0.07299828	0.2036523	-0.003170913	0.004005002	-0.5923034	-0.2062619	

3.422e+10	-0.5459704	-0.04594238	0.001224883	-0.001402924	-0.06689991	0.2200555	0.00285529	-0.0009544801	
0.001224883	-0.001402924	-0.525862	-0.05017164	-4.096961e-05	0.005204739	-0.07251468	0.2060314	
-0.06689991	0.2200555	-4.096961e-05	0.005204739	-0.6213122	-0.1998404	-0.001835293	0.00451526	
0.00285529	-0.0009544801	-0.07251468	0.2060314	-0.001835293	0.00451526	-0.6022173	-0.2086542	

3.424e+10	-0.5474729	-0.04145298	0.0008463735	-0.001695487	-0.06183005	0.2214503	0.00255514	-0.001596505	
0.0008463735	-0.001695487	-0.5288629	-0.05083055	0.001307569	0.004809005	-0.07176879	0.2083136	
-0.06183005	0.2214503	0.001307569	0.004809005	-0.6293632	-0.1961453	-0.0005045547	0.004614498	
0.00255514	-0.001596505	-0.07176879	0.2083136	-0.0005045547	0.004614498	-0.612262	-0.2090274	

3.426e+10	-0.5479235	-0.03668121	0.0004148006	-0.001895136	-0.05665726	0.2214676	0.002127454	-0.00216242	
0.0004148006	-0.001895136	-0.532066	-0.05095097	0.002439175	0.004099884	-0.07086638	0.2105752	
-0.05665726	0.2214676	0.002439175	0.004099884	-0.6366259	-0.1907547	0.0007102808	0.004355059	
0.002127454	-0.00216242	-0.07086638	0.2105752	0.0007102808	0.004355059	-0.6221981	-0.2077017	

3.428e+10	-0.5473475	-0.03213498	-5.427994e-05	-0.002013769	-0.05187667	0.2201401	0.001582291	-0.002637127	
-5.427994e-05	-0.002013769	-0.5355725	-0.05062651	0.003293697	0.003154462	-0.06968139	0.2129387	
-0.05187667	0.2201401	0.003293697	0.003154462	-0.6426131	-0.1842663	0.001727802	0.003817062	
0.001582291	-0.002637127	-0.06968139	0.2129387	0.001727802	0.003817062	-0.6319254	-0.2045936	

3.43e+10	-0.5460055	-0.02813717	-0.0005766341	-0.002048696	-0.04782865	0.2177184	0.0009250996	-0.002998329	
-0.0005766341	-0.002048696	-0.5394189	-0.04966057	0.003825799	0.002065582	-0.06813088	0.2152971	
-0.04782865	0.2177184	0.003825799	0.002065582	-0.647164	-0.1768013	0.002504783	0.0030958	
0.0009250996	-0.002998329	-0.06813088	0.2152971	0.002504783	0.0030958	-0.6410899	-0.1995545	

3.432e+10	-0.5440637	-0.02461063	-0.001162031	-0.001956305	-0.04470298	0.2145422	0.0001639452	-0.003210817	
-0.001162031	-0.001956305	-0.5433362	-0.04763132	0.004025325	0.0009390186	-0.06608824	0.217522	
-0.04470298	0.2145422	0.004025325	0.0009390186	-0.6503417	-0.1687954	0.00304036	0.002270841	
0.0001639452	-0.003210817	-0.06608824	0.217522	0.00304036	0.002270841	-0.6491638	-0.1929074	

3.434e+10	-0.5416133	-0.02175344	-0.001771469	-0.001671685	-0.04258969	0.2108415	-0.0006739463	-0.003228814	
-0.001771469	-0.001671685	-0.5469404	-0.04477448	0.003920494	-0.0001315495	-0.06375784	0.2194559	
-0.04258969	0.2108415	0.003920494	-0.0001315495	-0.6521772	-0.1604315	0.003345744	0.001399624	
-0.0006739463	-0.003228814	-0.06375784	0.2194559	0.003345744	0.001399624	-0.6558747	-0.1849758	

3.436e+10	-0.5387214	-0.01965987	-0.002315692	-0.001163153	-0.04160785	0.2067243	-0.001530636	-0.003010533	
-0.002315692	-0.001163153	-0.5500645	-0.04126301	0.003561901	-0.00107574	-0.06122999	0.2210878	
-0.04160785	0.2067243	0.003561901	-0.00107574	-0.6525055	-0.1518428	0.003429353	0.0005341344	
-0.001530636	-0.003010533	-0.06122999	0.2210878	0.003429353	0.0005341344	-0.6611621	-0.1761688	

3.438e+10	-0.5356867	-0.01861298	-0.002694051	-0.0004585671	-0.0419283	0.2024641	-0.002324448	-0.002541139	
-0.002694051	-0.0004585671	-0.5527732	-0.03729661	0.003003398	-0.00184857	-0.05845214	0.2224899	
-0.0419283	0.2024641	0.003003398	-0.00184857	-0.651029	-0.1433763	0.003312372	-0.0002741833	
-0.002324448	-0.002541139	-0.05845214	0.2224899	0.003312372	-0.0002741833	-0.6650898	-0.1669356	

3.44e+10	-0.5329686	-0.01879794	-0.002837016	0.0003719892	-0.04370779	0.1984641	-0.002969222	-0.001842431	
-0.002837016	0.0003719892	-0.5551012	-0.03297909	0.002302927	-0.002414006	-0.05532932	0.2235754	
-0.04370779	0.1984641	0.002302927	-0.002414006	-0.6476929	-0.1354281	0.003035	-0.0009845504	
-0.002969222	-0.001842431	-0.05532932	0.2235754	0.003035	-0.0009845504	-0.6676859	-0.1569732	

3.442e+10	-0.5310628	-0.01975163	-0.002709328	0.001242144	-0.0468875	0.1953005	-0.003393836	-0.0009706032	
-0.002709328	0.001242144	-0.5569357	-0.02801824	0.001528538	-0.002752681	-0.05195461	0.2241476	
-0.0468875	0.1953005	0.001528538	-0.002752681	-0.6427354	-0.1287812	0.002641572	-0.001584018	
-0.003393836	-0.0009706032	-0.05195461	0.2241476	0.002641572	-0.001584018	-0.6686542	-0.1465239	

3.444e+10	-0.5300963	-0.0211982	-0.002303212	0.002062929	-0.0511592	0.1933565	-0.003555	-1.240929e-06	
-0.002303212	0.002062929	-0.5579523	-0.02260476	0.0007511253	-0.002871899	-0.04848743	0.2240739	
-0.0511592	0.1933565	0.0007511253	-0.002871899	-0.6366598	-0.1239848	0.002160876	-0.002073799	
-0.003555	-1.240929e-06	-0.04848743	0.2240739	0.002160876	-0.002073799	-0.667746	-0.1359758	

3.446e+10	-0.5300511	-0.02277179	-0.001635022	0.002741686	-0.05603536	0.192875	-0.003429693	0.0009899301	
-0.001635022	0.002741686	-0.5580226	-0.01695165	2.093077e-05	-0.002801922	-0.04515911	0.2233606	
-0.05603536	0.192875	2.093077e-05	-0.002801922	-0.6300812	-0.1207644	0.001601775	-0.002450662	
-0.003429693	0.0009899301	-0.04515911	0.2233606	0.001601775	-0.002450662	-0.6649907	-0.1257715	

3.448e+10	-0.5309144	-0.02429439	-0.0007538342	0.003183978	-0.06121246	0.194023	-0.00300694	0.001914895	
-0.0007538342	0.003183978	-0.5572418	-0.01147795	-0.0006323002	-0.002572327	-0.0420087	0.2221123	
-0.06121246	0.194023	-0.0006323002	-0.002572327	-0.6232248	-0.119563	0.0009781999	-0.002693578	
-0.00300694	0.001914895	-0.0420087	0.2221123	0.0009781999	-0.002693578	-0.6605309	-0.1163506	

3.45e+10	-0.5326947	-0.02540079	0.0002404926	0.00331208	-0.06628931	0.1969747	-0.002315107	0.002662287	
0.0002404926	0.00331208	-0.5558064	-0.006111657	-0.001179486	-0.0022062	-0.03912995	0.2203425	
-0.06628931	0.1969747	-0.001179486	-0.0022062	-0.6166613	-0.1204254	0.0003306469	-0.002783631	
-0.002315107	0.002662287	-0.03912995	0.2203425	0.0003306469	-0.002783631	-0.6545961	-0.1077809	

3.452e+10	-0.5352938	-0.02589929	0.001215832	0.003104831	-0.07054841	0.2017933	-0.001439811	0.003140475	
0.001215832	0.003104831	-0.5536993	-0.0008697496	-0.001588825	-0.001738157	-0.0366229	0.217985	
-0.07054841	0.2017933	-0.001588825	-0.001738157	-0.6111639	-0.1235653	-0.0002985765	-0.002731128	
-0.001439811	0.003140475	-0.0366229	0.217985	-0.0002985765	-0.002731128	-0.6470866	-0.1004056	

3.454e+10	-0.5384627	-0.02558163	0.002049888	0.002610564	-0.07334429	0.2081564	-0.0005055699	0.003316689	
0.002049888	0.002610564	-0.5507359	0.003941051	-0.001844972	-0.001221161	-0.03472887	0.2149931	
-0.07334429	0.2081564	-0.001844972	-0.001221161	-0.6076345	-0.1280487	-0.0008914917	-0.002560015	
-0.0005055699	0.003316689	-0.03472887	0.2149931	-0.0008914917	-0.002560015	-0.6379719	-0.09454884	

3.456e+10	-0.5418844	-0.02432252	0.002670972	0.001918369	-0.07416768	0.2153986	0.0003831697	0.003223406	
0.002670972	0.001918369	-0.5468769	0.008304617	-0.001964115	-0.0007017085	-0.0337261	0.2115282	
-0.07416768	0.2153986	-0.001964115	-0.0007017085	-0.6063805	-0.1332104	-0.001446897	-0.002275553	
0.0003831697	0.003223406	-0.0337261	0.2115282	-0.001446897	-0.002275553	-0.6276051	-0.0912221	

3.458e+10	-0.5453388	-0.02218907	0.003057533	0.001114725	-0.07299054	0.222788	0.001167582	0.002913558	
0.003057533	0.001114725	-0.542385	0.01164547	-0.001968779	-0.0001978985	-0.03388261	0.2078869	
-0.07299054	0.222788	-0.001968779	-0.0001978985	-0.607167	-0.137945	-0.001944817	-0.001857858	
0.001167582	0.002913558	-0.03388261	0.2078869	-0.001944817	-0.001857858	-0.6168411	-0.0905372	

3.46e+10	-0.5486989	-0.0190651	0.003209079	0.0002661914	-0.06994408	0.2297805	0.001807852	0.002431703	
0.003209079	0.0002661914	-0.5376257	0.01407822	-0.001863805	0.0002812086	-0.03517232	0.204477	
-0.06994408	0.2297805	-0.001863805	0.0002812086	-0.6095425	-0.1420693	-0.002329505	-0.001307792	
0.001807852	0.002431703	-0.03517232	0.204477	-0.002329505	-0.001307792	-0.6066549	-0.09272289	

3.462e+10	-0.5518328	-0.01512492	0.003129368	-0.0005652051	-0.06531243	0.2359888	0.002263175	0.001830199	
0.003129368	-0.0005652051	-0.5328263	0.01544161	-0.001645567	0.0007117593	-0.03757851	0.2015772	
-0.06531243	0.2359888	-0.001645567	0.0007117593	-0.6132505	-0.1453054	-0.002550201	-0.0006690328	
0.002263175	0.001830199	-0.03757851	0.2015772	-0.002550201	-0.0006690328	-0.5976559	-0.09733445	

3.464e+10	-0.5545086	-0.01006623	0.002840803	-0.001311432	-0.05926278	0.2410932	0.002515326	0.001189956	
0.002840803	-0.001311432	-0.5279708	0.0162232	-0.001329573	0.00105759	-0.04098635	0.1994931	
-0.05926278	0.2410932	-0.001329573	0.00105759	-0.6181823	-0.1470438	-0.0025943	4.527908e-07	
0.002515326	0.001189956	-0.04098635	0.1994931	-0.0025943	4.527908e-07	-0.5903332	-0.1040917	

3.466e+10	-0.5563243	-0.004175246	0.002401534	-0.00191712	-0.05210909	0.2447339	0.002602478	0.0005944219	
0.002401534	-0.00191712	-0.5231414	0.01580064	-0.0009503339	0.001297991	-0.04534632	0.1986296	
-0.05210909	0.2447339	-0.0009503339	0.001297991	-0.6237555	-0.1473346	-0.002464965	0.0006600242	
0.002602478	0.0005944219	-0.04534632	0.1986296	-0.002464965	0.0006600242	-0.5853554	-0.1127217	

3.468e+10	-0.5569947	0.002430363	0.001883963	-0.002373479	-0.04428957	0.2466451	0.002604532	6.725136e-05	
0.001883963	-0.002373479	-0.5186952	0.01421667	-0.0005340574	0.001429923	-0.05013424	0.1994454	
-0.04428957	0.2466451	-0.0005340574	0.001429923	-0.6293279	-0.1456389	-0.00215113	0.001271668	
0.002604532	6.725136e-05	-0.05013424	0.1994454	-0.00215113	0.001271668	-0.5834194	-0.1222015	

3.47e+10	-0.5563803	0.009420247	0.001335174	-0.002712834	-0.03634711	0.2467979	0.002574467	-0.0004328415	
0.001335174	-0.002712834	-0.5151353	0.01178001	-9.957031e-05	0.001444573	-0.05469077	0.2021318	
-0.03634711	0.2467979	-9.957031e-05	0.001444573	-0.6342546	-0.1427028	-0.001654374	0.001758652	
0.002574467	-0.0004328415	-0.05469077	0.2021318	-0.001654374	0.001758652	-0.5846413	-0.1316474	

3.472e+10	-0.5544387	0.0163585	0.0007557796	-0.002972627	-0.02867406	0.2453098	0.002496516	-0.0009610234	
0.0007557796	-0.002972627	-0.5126765	0.008680286	0.0003197144	0.00132559	-0.05829875	0.2064359	
-0.02867406	0.2453098	0.0003197144	0.00132559	-0.6384055	-0.1386114	-0.001037882	0.002038718	
0.002496516	-0.0009610234	-0.05829875	0.2064359	-0.001037882	0.002038718	-0.5885105	-0.1395519	

3.474e+10	-0.551128	0.02329183	0.0001169437	-0.003156134	-0.0214239	0.2422947	0.002316914	-0.001525809	
0.0001169437	-0.003156134	-0.511291	0.00544367	0.0006676918	0.001074907	-0.06054908	0.2118573	
-0.0214239	0.2422947	0.0006676918	0.001074907	-0.6417726	-0.1338395	-0.0004110865	0.00208761	
0.002316914	-0.001525809	-0.06054908	0.2118573	-0.0004110865	0.00208761	-0.5941302	-0.1459324	

3.476e+10	-0.5463094	0.02958706	-0.0005930272	-0.003227978	-0.01491419	0.2377827	0.001999597	-0.002089463	
-0.0005930272	-0.003227978	-0.5108462	0.001961518	0.0008906108	0.0007358876	-0.06130469	0.2179523	
-0.01491419	0.2377827	0.0008906108	0.0007358876	-0.6443073	-0.1281607	0.0001323768	0.001952317	
0.001999597	-0.002089463	-0.06130469	0.2179523	0.0001323768	0.001952317	-0.60097	-0.1505073	

3.478e+10	-0.5399899	0.03510886	-0.001356717	-0.003148749	-0.009543176	0.2317536	0.001534523	-0.002613964	
-0.001356717	-0.003148749	-0.5114585	-0.001249731	0.0009741281	0.0003755137	-0.06044991	0.2243487	
-0.009543176	0.2317536	0.0009741281	0.0003755137	-0.645683	-0.1221198	0.0005601801	0.001704299	
0.001534523	-0.002613964	-0.06044991	0.2243487	0.0005601801	0.001704299	-0.6087376	-0.1532432	

3.48e+10	-0.5324531	0.03900748	-0.002140765	-0.002890967	-0.005802562	0.224435	0.0009134926	-0.003066009	
-0.002140765	-0.002890967	-0.5132027	-0.004209921	0.0009425999	4.637458e-05	-0.05785114	0.2306558	
-0.005802562	0.224435	0.0009425999	4.637458e-05	-0.6457531	-0.1156076	0.0008734811	0.001391693	
0.0009134926	-0.003066009	-0.05785114	0.2306558	0.0008734811	0.001391693	-0.6169722	-0.1538285	

3.482e+10	-0.5241265	0.04115761	-0.002910353	-0.002434296	-0.004176598	0.2163397	0.0001165227	-0.0033928	
-0.002910353	-0.002434296	-0.5158615	-0.006302751	0.0008297045	-0.0002310334	-0.05359651	0.2362877	
-0.004176598	0.2163397	0.0008297045	-0.0002310334	-0.6444989	-0.1094717	0.001072719	0.001042445	
0.0001165227	-0.0033928	-0.05359651	0.2362877	0.001072719	0.001042445	-0.6249418	-0.1524599	

3.484e+10	-0.5155413	0.04138891	-0.003618976	-0.001750261	-0.00484795	0.2081836	-0.0008439279	-0.003499066	
-0.003618976	-0.001750261	-0.5189394	-0.007246232	0.0006574676	-0.0004498573	-0.0479367	0.2407744	
-0.00484795	0.2081836	0.0006574676	-0.0004498573	-0.6421947	-0.1035528	0.00115482	0.0006957252	
-0.0008439279	-0.003499066	-0.0479367	0.2407744	0.00115482	0.0006957252	-0.6320831	-0.1491852	

3.486e+10	-0.5069932	0.03963413	-0.004182615	-0.000813018	-0.007756551	0.2005401	-0.001885331	-0.003283995	
-0.004182615	-0.000813018	-0.5220465	-0.007471883	0.0004425138	-0.0006008915	-0.0414062	0.2437988	
-0.007756551	0.2005401	0.0004425138	-0.0006008915	-0.6388097	-0.09797984	0.001143537	0.0003948904	
-0.001885331	-0.003283995	-0.0414062	0.2437988	0.001143537	0.0003948904	-0.6380518	-0.1447276	

3.488e+10	-0.4990221	0.03559527	-0.00447678	0.0003507579	-0.01271448	0.1939337	-0.00286205	-0.002708399	
-0.00447678	0.0003507579	-0.5250826	-0.007057028	0.0002107639	-0.0006786871	-0.03432472	0.2453203	
-0.01271448	0.1939337	0.0002107639	-0.0006786871	-0.6341457	-0.0930771	0.001088386	0.000156641	
-0.00286205	-0.002708399	-0.03432472	0.2453203	0.001088386	0.000156641	-0.6429154	-0.1394731	

3.49e+10	-0.4922814	0.02959181	-0.004392943	0.001634594	-0.01960212	0.1889761	-0.003632323	-0.001818932	
-0.004392943	0.001634594	-0.528095	-0.006083486	-1.487443e-05	-0.0006978815	-0.02699561	0.2452688	
-0.01960212	0.1889761	-1.487443e-05	-0.0006978815	-0.6280512	-0.08938492	0.00102366	-4.832293e-05	
-0.003632323	-0.001818932	-0.02699561	0.2452688	0.00102366	-4.832293e-05	-0.6466802	-0.133568	

3.492e+10	-0.4874892	0.02188099	-0.00389925	0.002877928	-0.02794815	0.1864267	-0.004106465	-0.0007100478	
-0.00389925	0.002877928	-0.5310406	-0.00454163	-0.0002372419	-0.0006805009	-0.01974781	0.2435808	
-0.02794815	0.1864267	-0.0002372419	-0.0006805009	-0.6208981	-0.08726153	0.0009354771	-0.0002530943	
-0.004106465	-0.0007100478	-0.01974781	0.2435808	0.0009354771	-0.0002530943	-0.6491793	-0.1271286	

3.494e+10	-0.4850547	0.01304048	-0.003037267	0.003946821	-0.03678468	0.1868027	-0.004232416	0.0005294259	
-0.003037267	0.003946821	-0.5337445	-0.002422072	-0.0004807116	-0.0006177237	-0.01298757	0.240119	
-0.03678468	0.1868027	-0.0004807116	-0.0006177237	-0.6132937	-0.08761226	0.0007820754	-0.0004463231	
-0.004232416	0.0005294259	-0.01298757	0.240119	0.0007820754	-0.0004463231	-0.6502448	-0.1206331	

3.496e+10	-0.4851437	0.003979746	-0.001868936	0.004744571	-0.04492181	0.1900326	-0.003957062	0.001795836	
-0.001868936	0.004744571	-0.53611	0.0001871377	-0.0007427136	-0.0004650007	-0.007286239	0.2349871	
-0.04492181	0.1900326	-0.0007427136	-0.0004650007	-0.6061064	-0.09025878	0.0005599194	-0.0005704548	
-0.003957062	0.001795836	-0.007286239	0.2349871	0.0005599194	-0.0005704548	-0.6499928	-0.1146113	

3.498e+10	-0.487715	-0.004937264	-0.0004722446	0.005173089	-0.05160935	0.1954717	-0.0032558	0.002932565	
-0.0004722446	0.005173089	-0.5382326	0.002818205	-0.0009671152	-0.000184837	-0.003187486	0.2285578	
-0.05160935	0.1954717	-0.0009671152	-0.000184837	-0.5999713	-0.09502612	0.0003222515	-0.000584891	
-0.0032558	0.002932565	-0.003187486	0.2285578	0.0003222515	-0.000584891	-0.6488618	-0.1092809	

3.5e+10	-0.4927388	-0.01298888	0.001023647	0.005141998	-0.05637754	0.2024673	-0.002206605	0.003756558	
0.001023647	0.005141998	-0.5402984	0.005846819	-0.001074495	0.0002024453	-0.000911733	0.2213481	
-0.05637754	0.2024673	-0.001074495	0.0002024453	-0.5954733	-0.1017861	0.0001346218	-0.00050755	
-0.002206605	0.003756558	-0.000911733	0.2213481	0.0001346218	-0.00050755	-0.6471947	-0.1047068	

3.502e+10	-0.4999111	-0.01946679	0.002430184	0.004629408	-0.05903766	0.2104561	-0.000983044	0.004165062	
0.002430184	0.004629408	-0.542279	0.009370842	-0.001017704	0.0006280563	-0.0005895233	0.2137792	
-0.05903766	0.2104561	-0.001017704	0.0006280563	-0.5933255	-0.1099664	1.69942e-05	-0.000387988	
-0.000983044	0.004165062	-0.0005895233	0.2137792	1.69942e-05	-0.000387988	-0.6451785	-0.1005708	

3.504e+10	-0.5086431	-0.02380906	0.003566032	0.003726297	-0.05941058	0.2188182	0.0002336591	0.004171461	
0.003566032	0.003726297	-0.5438882	0.01367228	-0.0008012479	0.001017108	-0.002354979	0.2063066	
-0.05941058	0.2188182	-0.0008012479	0.001017108	-0.5940541	-0.1189194	-3.935642e-05	-0.0002516409	
0.0002336591	0.004171461	-0.002354979	0.2063066	-3.935642e-05	-0.0002516409	-0.6427213	-0.09720246	

3.506e+10	-0.518329	-0.02598533	0.004344059	0.002583622	-0.05759002	0.2267613	0.001338259	0.003852479	
0.004344059	0.002583622	-0.5447743	0.01854797	-0.0004521275	0.001319805	-0.00632055	0.1994599	
-0.05759002	0.2267613	-0.0004521275	0.001319805	-0.5978065	-0.1273949	-2.729414e-05	-0.0001059198	
0.001338259	0.003852479	-0.00632055	0.1994599	-2.729414e-05	-0.0001059198	-0.6399833	-0.09461865	

3.508e+10	-0.5283285	-0.02583957	0.00475508	0.001344118	-0.05397729	0.2336153	0.002274464	0.003274475	
0.00475508	0.001344118	-0.5447011	0.02378216	-2.768597e-06	0.001496497	-0.01238933	0.1940048	
-0.05397729	0.2336153	-2.768597e-06	0.001496497	-0.6041183	-0.1345937	7.11277e-05	1.44517e-05	
0.002274464	0.003274475	-0.01238933	0.1940048	7.11277e-05	1.44517e-05	-0.6372771	-0.0927415	

3.51e+10	-0.5381832	-0.0235917	0.004829063	0.0001047803	-0.04926013	0.239129	0.002992308	0.002492478	
0.004829063	0.0001047803	-0.5435689	0.02896292	0.0005006247	0.001511448	-0.02002689	0.1906711	
-0.04926013	0.239129	0.0005006247	0.001511448	-0.6123453	-0.1397959	0.0002337429	5.11309e-05	
0.002992308	0.002492478	-0.02002689	0.1906711	0.0002337429	5.11309e-05	-0.634777	-0.09158586	

3.512e+10	-0.5475295	-0.01931151	0.004599805	-0.001060173	-0.04392582	0.2433981	0.003446477	0.001584109	
0.004599805	-0.001060173	-0.5413756	0.0339656	0.0009913634	0.001350368	-0.02845999	0.1898183	
-0.04392582	0.2433981	0.0009913634	0.001350368	-0.6219248	-0.1428968	0.0003941742	-1.76691e-05	
0.003446477	0.001584109	-0.02845999	0.1898183	0.0003941742	-1.76691e-05	-0.6324652	-0.09080161	

3.514e+10	-0.5559779	-0.01300526	0.004114073	-0.002077807	-0.03827508	0.2465872	0.003634537	0.0006505517	
0.004114073	-0.002077807	-0.5381128	0.03838361	0.001402197	0.001038518	-0.03700918	0.191466	
-0.03827508	0.2465872	0.001402197	0.001038518	-0.6323161	-0.1436587	0.0004999116	-0.0001550354	
0.003634537	0.0006505517	-0.03700918	0.191466	0.0004999116	-0.0001550354	-0.6302519	-0.09059613	

3.516e+10	-0.5632259	-0.005210126	0.003442668	-0.002902283	-0.03226464	0.2486958	0.00360478	-0.0002375651	
0.003442668	-0.002902283	-0.5339409	0.04174077	0.001697471	0.0006268025	-0.0450089	0.1955778	
-0.03226464	0.2486958	0.001697471	0.0006268025	-0.6428979	-0.1419385	0.0005528004	-0.0003159898	
0.00360478	-0.0002375651	-0.0450089	0.1955778	0.0005528004	-0.0003159898	-0.6282901	-0.09109773	

3.518e+10	-0.5690375	0.003774055	0.002666141	-0.003522842	-0.02616031	0.2496531	0.00341135	-0.001063562	
0.002666141	-0.003522842	-0.529269	0.04369984	0.001876491	0.0001576261	-0.05188417	0.2020755	
-0.02616031	0.2496531	0.001876491	0.0001576261	-0.6530622	-0.1377408	0.0005775591	-0.0004992045	
0.00341135	-0.001063562	-0.05188417	0.2020755	0.0005775591	-0.0004992045	-0.6269774	-0.09247215	

3.52e+10	-0.5733137	0.01381124	0.001835933	-0.003970592	-0.02026346	0.2495085	0.003067463	-0.00183533	
0.001835933	-0.003970592	-0.5248229	0.04407061	0.001942878	-0.0003525203	-0.05684469	0.2106758	
-0.02026346	0.2495085	0.001942878	-0.0003525203	-0.6622461	-0.1313685	0.0005617668	-0.00073121	
0.003067463	-0.00183533	-0.05684469	0.2106758	0.0005617668	-0.00073121	-0.6267628	-0.09411771	

3.522e+10	-0.5759573	0.02454258	0.0009640957	-0.004276986	-0.01478678	0.2484504	0.002556386	-0.002536298	
0.0009640957	-0.004276986	-0.5212312	0.04321938	0.001880718	-0.000894962	-0.05920423	0.2206451	
-0.01478678	0.2484504	0.001880718	-0.000894962	-0.6701116	-0.1233512	0.0004518937	-0.001010127	
0.002556386	-0.002536298	-0.05920423	0.2206451	0.0004518937	-0.001010127	-0.6277271	-0.09583151	

3.524e+10	-0.5768909	0.0357895	3.403732e-05	-0.00444227	-0.009753926	0.2467173	0.001876034	-0.003113007	
3.403732e-05	-0.00444227	-0.5187636	0.04173873	0.001661084	-0.001436543	-0.05880392	0.2310339	
-0.009753926	0.2467173	0.001661084	-0.001436543	-0.6764925	-0.1140558	0.0002090031	-0.001278124	
0.001876034	-0.003113007	-0.05880392	0.2310339	0.0002090031	-0.001278124	-0.6297105	-0.09714675	

3.526e+10	-0.5759567	0.04735226	-0.0009544052	-0.004433025	-0.005117909	0.2443264	0.001064661	-0.003512805	
-0.0009544052	-0.004433025	-0.5173966	0.03999318	0.001277157	-0.001917625	-0.05573253	0.2410202	
-0.005117909	0.2443264	0.001277157	-0.001917625	-0.6812601	-0.1035174	-0.0001526712	-0.001464866	
0.001064661	-0.003512805	-0.05573253	0.2410202	-0.0001526712	-0.001464866	-0.6325003	-0.09769016	

3.528e+10	-0.5730892	0.05891975	-0.001963425	-0.004212499	-0.0009430953	0.2412282	0.0001747848	-0.003713189	
-0.001963425	-0.004212499	-0.5170677	0.03824328	0.0007582311	-0.002283717	-0.05036492	0.2500074	
-0.0009430953	0.2412282	0.0007582311	-0.002283717	-0.6841996	-0.09202106	-0.0005873349	-0.001534862	
0.0001747848	-0.003713189	-0.05036492	0.2500074	-0.0005873349	-0.001534862	-0.6359475	-0.09731365	

3.53e+10	-0.5682235	0.07017179	-0.002946394	-0.0037685	0.002535827	0.2373965	-0.0007553453	-0.003712641	
-0.002946394	-0.0037685	-0.5177181	0.03701968	0.0001473062	-0.002509781	-0.04300043	0.2575956	
0.002535827	0.2373965	0.0001473062	-0.002509781	-0.685016	-0.0799861	-0.001059018	-0.001482498	
-0.0007553453	-0.003712641	-0.04300043	0.2575956	-0.001059018	-0.001482498	-0.6397838	-0.09595882	

3.532e+10	-0.5613303	0.08068893	-0.003862383	-0.003100998	0.005068128	0.2330149	-0.00170361	-0.003499117	
-0.003862383	-0.003100998	-0.5191595	0.03648528	-0.0005273142	-0.002587209	-0.03406528	0.2632955	
0.005068128	0.2330149	-0.0005273142	-0.002587209	-0.6835629	-0.06762624	-0.001553568	-0.001296682	
-0.00170361	-0.003499117	-0.03406528	0.2632955	-0.001553568	-0.001296682	-0.6435569	-0.09319663	

3.534e+10	-0.5523707	0.09015722	-0.004677292	-0.002193991	0.006577978	0.2283553	-0.002634714	-0.003035169	
-0.004677292	-0.002193991	-0.5209822	0.03679613	-0.001249913	-0.002491672	-0.02408881	0.2667546	
0.006577978	0.2283553	-0.001249913	-0.002491672	-0.6797655	-0.05540915	-0.002042686	-0.0009416913	
-0.002634714	-0.003035169	-0.02408881	0.2667546	-0.002042686	-0.0009416913	-0.6467378	-0.08905208	

3.536e+10	-0.5414487	0.09790988	-0.005318333	-0.001021262	0.00710949	0.223617	-0.00346794	-0.002285817	
-0.005318333	-0.001021262	-0.5227691	0.03802285	-0.001979897	-0.002181226	-0.01373681	0.267838	
0.00710949	0.223617	-0.001979897	-0.002181226	-0.6735126	-0.04402629	-0.002457738	-0.0003875089	
-0.00346794	-0.002285817	-0.01373681	0.267838	-0.002457738	-0.0003875089	-0.6489346	-0.08416672	

3.538e+10	-0.5287861	0.103552	-0.005662771	0.0004059124	0.006628205	0.2188196	-0.004085857	-0.001266347	
-0.005662771	0.0004059124	-0.5243282	0.03997666	-0.002634557	-0.001632222	-0.003676894	0.2666547	
0.006628205	0.2188196	-0.002634557	-0.001632222	-0.6648216	-0.03379474	-0.002701502	0.0003470289	
-0.004085857	-0.001266347	-0.003676894	0.2666547	-0.002701502	0.0003470289	-0.6500934	-0.07878507	

3.54e+10	-0.5148048	0.1064236	-0.005580461	0.002001391	0.004926212	0.2141133	-0.004385809	-5.052313e-05	
-0.005580461	0.002001391	-0.5256812	0.04229531	-0.003122429	-0.0008753235	0.005671134	0.263489	
0.004926212	0.2141133	-0.003122429	-0.0008753235	-0.6538245	-0.02546026	-0.002701316	0.001187482	
-0.004385809	-5.052313e-05	0.005671134	0.263489	-0.002701316	0.001187482	-0.6502962	-0.07317227	

3.542e+10	-0.5002597	0.1059685	-0.004993456	0.003600069	0.00178774	0.2098924	-0.004306009	0.001249382	
-0.004993456	0.003600069	-0.5267619	0.04534466	-0.003386413	2.423308e-05	0.01399738	0.2586215	
0.00178774	0.2098924	-0.003386413	2.423308e-05	-0.6408541	-0.01980377	-0.00243416	0.002046125	
-0.004306009	0.001249382	0.01399738	0.2586215	-0.00243416	0.002046125	-0.6494777	-0.06734613	

3.544e+10	-0.4860541	0.1018962	-0.00389854	0.005029592	-0.00271723	0.2067421	-0.003818625	0.002523661	
-0.00389854	0.005029592	-0.5273955	0.04892501	-0.003398322	0.00101373	0.02106715	0.2522016	
-0.00271723	0.2067421	-0.003398322	0.00101373	-0.6265656	-0.01750156	-0.001897023	0.002859578	
-0.003818625	0.002523661	0.02106715	0.2522016	-0.001897023	0.002859578	-0.6474507	-0.06165819	

3.546e+10	-0.4733498	0.09424101	-0.00234212	0.006120582	-0.008171827	0.2051573	-0.002904409	0.00363829	
-0.00234212	0.006120582	-0.5273326	0.05300663	-0.003113694	0.002046093	0.02647916	0.2444601	
-0.008171827	0.2051573	-0.003113694	0.002046093	-0.6120378	-0.01923406	-0.001065117	0.003559247	
-0.002904409	0.00363829	0.02647916	0.2444601	-0.001065117	0.003559247	-0.6441893	-0.05635926	

3.548e+10	-0.4632416	0.08351727	-0.0004136655	0.006698139	-0.0140641	0.2053489	-0.001593187	0.004408341	
-0.0004136655	0.006698139	-0.5263431	0.05745802	-0.00246681	0.003024608	0.02989552	0.2358528	
-0.0140641	0.2053489	-0.00246681	0.003024608	-0.5986344	-0.02509022	7.80061e-05	0.004011542	
-0.001593187	0.004408341	0.02989552	0.2358528	7.80061e-05	0.004011542	-0.6398851	-0.05182116	

3.55e+10	-0.4566776	0.07077905	0.001690793	0.006589023	-0.01998852	0.207399	-5.012443e-05	0.004639429	
0.001690793	0.006589023	-0.5243203	0.0620574	-0.00145227	0.003775413	0.03122589	0.2269822	
-0.01998852	0.207399	-0.00145227	0.003775413	-0.587688	-0.03450339	0.001445194	0.00403383	
-5.012443e-05	0.004639429	0.03122589	0.2269822	0.001445194	0.00403383	-0.6347247	-0.04817084	

3.552e+10	-0.454101	0.05720526	0.003663511	0.005729353	-0.02544021	0.2114954	0.001448731	0.004264645	
0.003663511	0.005729353	-0.5211167	0.06647927	-0.0001858999	0.004128817	0.03062181	0.2182725	
-0.02544021	0.2114954	-0.0001858999	0.004128817	-0.580283	-0.04658653	0.002822041	0.003510413	
0.001448731	0.004264645	0.03062181	0.2182725	0.002822041	0.003510413	-0.6286972	-0.04561707	

3.554e+10	-0.4553508	0.04408594	0.005198958	0.004237297	-0.02963385	0.2176317	0.00264394	0.003392625	
0.005198958	0.004237297	-0.5166153	0.07040009	0.001141018	0.004014081	0.02817811	0.2099273	
-0.02963385	0.2176317	0.001141018	0.004014081	-0.577056	-0.05983652	0.003955313	0.002474723	
0.00264394	0.003392625	0.02817811	0.2099273	0.003955313	0.002474723	-0.6218401	-0.04435588	

3.556e+10	-0.4598488	0.03255904	0.006106059	0.002361766	-0.03171693	0.2252782	0.003400282	0.002221778	
0.006106059	0.002361766	-0.5108253	0.07324706	0.00235467	0.003459854	0.02379062	0.2022153	
-0.03171693	0.2252782	0.00235467	0.003459854	-0.5781208	-0.07282862	0.00466893	0.001069242	
0.003400282	0.002221778	0.02379062	0.2022153	0.00466893	0.001069242	-0.6145132	-0.0450192	

3.558e+10	-0.466762	0.02323679	0.006336053	0.0003640031	-0.03124814	0.2334479	0.003682382	0.0009356847	
0.006336053	0.0003640031	-0.5039848	0.074422	0.003325547	0.002530271	0.0173669	0.195711	
-0.03124814	0.2334479	0.003325547	0.002530271	-0.5829242	-0.08431225	0.0048599	-0.0005453312	
0.003682382	0.0009356847	0.0173669	0.195711	0.0048599	-0.0005453312	-0.6073651	-0.048014	

3.56e+10	-0.4751861	0.01642779	0.005918224	-0.001538384	-0.02836271	0.2412585	0.003488655	-0.0002996475	
0.005918224	-0.001538384	-0.496681	0.07343206	0.00392843	0.001307805	0.009202553	0.1911686	
-0.02836271	0.2412585	0.00392843	0.001307805	-0.5904262	-0.09309184	0.004445124	-0.002184285	
0.003488655	-0.0002996475	0.009202553	0.1911686	0.004445124	-0.002184285	-0.6011873	-0.05312576	

3.562e+10	-0.484227	0.01217252	0.004928234	-0.003136367	-0.02342826	0.2480762	0.002871654	-0.001291235	
0.004928234	-0.003136367	-0.4897578	0.06996451	0.004049891	-5.004253e-05	-6.601184e-06	0.18911	
-0.02342826	0.2480762	0.004049891	-5.004253e-05	-0.5993673	-0.09900968	0.003407169	-0.003579881	
0.002871654	-0.001291235	-6.601184e-06	0.18911	0.003407169	-0.003579881	-0.5966318	-0.06028804	

3.564e+10	-0.4932289	0.009987188	0.003526538	-0.004246378	-0.01680215	0.2535038	0.002002367	-0.001873257	
0.003526538	-0.004246378	-0.4841546	0.06425603	0.003672454	-0.001319776	-0.009507486	0.1897119	
-0.01680215	0.2535038	0.003672454	-0.001319776	-0.6086111	-0.102065	0.001902992	-0.004442797	
0.002002367	-0.001873257	-0.009507486	0.1897119	0.001902992	-0.004442797	-0.594303	-0.06886832	

3.566e+10	-0.5019008	0.009461728	0.001942822	-0.004779089	-0.008823959	0.2570586	0.001123183	-0.002018211	
0.001942822	-0.004779089	-0.4807543	0.05664579	0.002904268	-0.002312229	-0.0186586	0.1929298	
-0.008823959	0.2570586	0.002904268	-0.002312229	-0.6174339	-0.1026584	0.000245439	-0.004626094	
0.001123183	-0.002018211	-0.0186586	0.1929298	0.000245439	-0.004626094	-0.594738	-0.07829875	

3.568e+10	-0.5101154	0.01032912	0.0004089554	-0.00476147	-0.000117231	0.25834	0.0004238336	-0.001841249	
0.0004089554	-0.00476147	-0.4801541	0.04792575	0.001914801	-0.002935619	-0.02673298	0.1987401	
-0.000117231	0.25834	0.001914801	-0.002935619	-0.6253767	-0.101625	-0.001244052	-0.004191788	
0.0004238336	-0.001841249	-0.02673298	0.1987401	-0.001244052	-0.004191788	-0.5982161	-0.08769686	

3.57e+10	-0.5179383	0.01211545	-0.0009105997	-0.004302494	0.008514859	0.2572191	-3.20677e-05	-0.001504558	
-0.0009105997	-0.004302494	-0.4826661	0.03925835	0.0008505568	-0.003183432	-0.03288779	0.206781	
0.008514859	0.2572191	0.0008505568	-0.003183432	-0.6322669	-0.09957572	-0.002375656	-0.003328089	
-3.20677e-05	-0.001504558	-0.03288779	0.206781	-0.002375656	-0.003328089	-0.6046126	-0.09608577	

3.572e+10	-0.5254299	0.01486014	-0.001919693	-0.003531225	0.01633161	0.2539253	-0.0002592794	-0.001126651	
-0.001919693	-0.003531225	-0.4882602	0.03157437	-0.0001730548	-0.003074133	-0.0364332	0.2162321	
0.01633161	0.2539253	-0.0001730548	-0.003074133	-0.6381591	-0.09674035	-0.003078203	-0.002222521	
-0.0002592794	-0.001126651	-0.0364332	0.2162321	-0.003078203	-0.002222521	-0.6134561	-0.1024372	

3.574e+10	-0.5327085	0.0185095	-0.0025687	-0.002581284	0.02278121	0.2488795	-0.0002874166	-0.00079182	
-0.0025687	-0.002581284	-0.4963788	0.02601411	-0.001042138	-0.002648332	-0.03723024	0.2260648	
0.02278121	0.2488795	-0.001042138	-0.002648332	-0.6432477	-0.09372504	-0.003327722	-0.001042845	
-0.0002874166	-0.00079182	-0.03723024	0.2260648	-0.003327722	-0.001042845	-0.6240269	-0.1064427	

3.576e+10	-0.5398901	0.02300569	-0.00284894	-0.001592871	0.02752397	0.2425533	-0.0001680756	-0.0005846087	
-0.00284894	-0.001592871	-0.5060604	0.02315709	-0.001651224	-0.001999537	-0.0356279	0.2354396	
0.02752397	0.2425533	-0.001651224	-0.001999537	-0.6479404	-0.09071614	-0.003153033	3.246932e-05	
-0.0001680756	-0.0005846087	-0.0356279	0.2354396	-0.003153033	3.246932e-05	-0.6356045	-0.1077327	

3.578e+10	-0.5468945	0.02875724	-0.002810127	-0.0006954362	0.03029948	0.2354484	-7.956133e-06	-0.000555203	
-0.002810127	-0.0006954362	-0.5162961	0.02326428	-0.001957207	-0.001265689	-0.03208225	0.2439192	
0.03029948	0.2354484	-0.001957207	-0.001265689	-0.6526734	-0.08778097	-0.002676739	0.0008501402	
-7.956133e-06	-0.000555203	-0.03208225	0.2439192	-0.002676739	0.0008501402	-0.6474303	-0.1063689	

3.58e+10	-0.5534913	0.0359867	-0.002545241	2.84318e-05	0.03097511	0.2281671	7.86581e-05	-0.0006700892	
-0.002545241	2.84318e-05	-0.5263128	0.02610932	-0.001996136	-0.0005742685	-0.02697679	0.251266	
0.03097511	0.2281671	-0.001996136	-0.0005742685	-0.6577204	-0.08437261	-0.002077959	0.001363926	
7.86581e-05	-0.0006700892	-0.02697679	0.251266	-0.002077959	0.001363926	-0.6588854	-0.1022364	

3.582e+10	-0.5592485	0.04479959	-0.002153928	0.0005490294	0.02962701	0.2213662	4.098304e-05	-0.0008385591	
-0.002153928	0.0005490294	-0.5355587	0.03125527	-0.001844994	4.508181e-06	-0.02063937	0.2572534	
0.02962701	0.2213662	-0.001844994	4.508181e-06	-0.6629674	-0.08011047	-0.00149084	0.001636689	
4.098304e-05	-0.0008385591	-0.02063937	0.2572534	-0.00149084	0.001636689	-0.6694436	-0.09563358	

3.584e+10	-0.5636467	0.05516673	-0.001718635	0.0008779565	0.02657791	0.2155577	-0.0001024063	-0.0009859158	
-0.001718635	0.0008779565	-0.5435824	0.03858305	-0.00157376	0.0004509712	-0.01347713	0.2617032	
0.02657791	0.2155577	-0.00157376	0.0004509712	-0.6680804	-0.07493722	-0.0009551536	0.001754789	
-0.0001024063	-0.0009859158	-0.01347713	0.2617032	-0.0009551536	0.001754789	-0.6786337	-0.08717577	

3.586e+10	-0.5662943	0.06662449	-0.001300171	0.001042006	0.02230247	0.2110951	-0.0003153994	-0.001085612	
-0.001300171	0.001042006	-0.5499811	0.04763353	-0.001229922	0.0007602088	-0.005917582	0.2646338	
0.02230247	0.2110951	-0.001229922	0.0007602088	-0.6727264	-0.06845168	-0.0004651674	0.001758103	
-0.0003153994	-0.001085612	-0.005917582	0.2646338	-0.0004651674	0.001758103	-0.6861838	-0.07672532	

3.588e+10	-0.5668807	0.07886289	-0.0009411417	0.001080753	0.01726493	0.208085	-0.0005838103	-0.00112966	
-0.0009411417	0.001080753	-0.5544762	0.05808212	-0.0008575594	0.0009290029	0.001723743	0.2662044	
0.01726493	0.208085	-0.0008575594	0.0009290029	-0.6765883	-0.06086004	-2.99487e-05	0.001654529	
-0.0005838103	-0.00112966	0.001723743	0.2662044	-2.99487e-05	0.001654529	-0.6918103	-0.06502988	

3.59e+10	-0.5652107	0.09144293	-0.0006655033	0.001041419	0.01180638	0.2064527	-0.0009005565	-0.001095965	
-0.0006655033	0.001041419	-0.5569485	0.06927289	-0.0005056876	0.0009672912	0.009280132	0.2665485	
0.01180638	0.2064527	-0.0005056876	0.0009672912	-0.6793519	-0.05227328	0.0003228996	0.001464731	
-0.0009005565	-0.001095965	0.009280132	0.2665485	0.0003228996	0.001464731	-0.6953472	-0.05228342	

3.592e+10	-0.5611503	0.1038005	-0.0004755168	0.0009697937	0.006115658	0.2061793	-0.001239821	-0.0009561701	
-0.0004755168	0.0009697937	-0.5574112	0.08082078	-0.0002146844	0.0009074713	0.01668864	0.2657766	
0.006115658	0.2061793	-0.0002146844	0.0009074713	-0.6806193	-0.04305946	0.0005818921	0.001230113	
-0.001239821	-0.0009561701	0.01668864	0.2657766	0.0005818921	0.001230113	-0.696682	-0.03895057	

3.594e+10	-0.5546771	0.115575	-0.000356891	0.0009023239	0.0003581712	0.2072897	-0.001559272	-0.000698803	
-0.000356891	0.0009023239	-0.5557712	0.09270509	1.591913e-06	0.0007931284	0.0238427	0.263875	
0.0003581712	0.2072897	1.591913e-06	0.0007931284	-0.6801112	-0.03338198	0.0007630154	0.0009835317	
-0.001559272	-0.000698803	0.0238427	0.263875	0.0007630154	0.0009835317	-0.6956713	-0.02526595	

3.596e+10	-0.5460395	0.1259628	-0.0002887282	0.0008629176	-0.005216707	0.2098552	-0.001818722	-0.000333798	
-0.0002887282	0.0008629176	-0.5519758	0.1044965	0.0001515975	0.000657007	0.0305649	0.2608152	
-0.005216707	0.2098552	0.0001515975	0.000657007	-0.6778201	-0.0241438	0.0008866872	0.0007310585	
-0.001818722	-0.000333798	0.0305649	0.2608152	0.0008866872	0.0007310585	-0.6922028	-0.01159906	

3.598e+10	-0.5355592	0.1346226	-0.0002451895	0.000867059	-0.01030763	0.2138918	-0.001990295	0.0001231264	
-0.0002451895	0.000867059	-0.5458664	0.1158283	0.0002479718	0.000512224	0.03666279	0.2566748	
-0.01030763	0.2138918	0.0002479718	0.000512224	-0.6740411	-0.01553154	0.0009528969	0.0004665925	
-0.001990295	0.0001231264	0.03666279	0.2566748	0.0009528969	0.0004665925	-0.686138	0.001676555	

3.6e+10	-0.523697	0.1412062	-0.0001962562	0.0009201534	-0.01458798	0.2192853	-0.002047327	0.0006561424	
-0.0001962562	0.0009201534	-0.5374228	0.1261503	0.0002923246	0.0003656648	0.04196752	0.2515431	
-0.01458798	0.2192853	0.0002923246	0.0003656648	-0.6690543	-0.00782408	0.000944231	0.000199566	
-0.002047327	0.0006561424	0.04196752	0.2515431	0.000944231	0.000199566	-0.6774163	0.01395328	

3.602e+10	-0.5108193	0.1455107	-0.0001097154	0.001013076	-0.01783008	0.2259476	-0.001954427	0.001245587	
-0.0001097154	0.001013076	-0.5267185	0.1349444	0.0002819256	0.0002341173	0.0463331	0.2455163	
-0.01783008	0.2259476	0.0002819256	0.0002341173	-0.663049	-0.00115724	0.0008525633	-3.663336e-05	
-0.001954427	0.001245587	0.0463331	0.2455163	0.0008525633	-3.663336e-05	-0.6660381	0.02453891	

3.604e+10	-0.4974008	0.147148	3.933391e-05	0.00112021	-0.01973535	0.2337985	-0.001670678	0.001847679	
3.933391e-05	0.00112021	-0.5139785	0.1415733	0.0002270652	0.0001431456	0.04958789	0.2386118	
-0.01973535	0.2337985	0.0002270652	0.0001431456	-0.6561548	0.004466373	0.0006968698	-0.0002036602	
-0.001670678	0.001847679	0.04958789	0.2386118	0.0006968698	-0.0002036602	-0.6521637	0.03303719	

3.606e+10	-0.4839761	0.1462132	0.0002604592	0.001206609	-0.01984614	0.2426899	-0.001173553	0.00238813	
0.0002604592	0.001206609	-0.4995105	0.1454995	0.0001569535	0.0001099613	0.05141457	0.2309051	
-0.01984614	0.2426899	0.0001569535	0.0001099613	-0.6486914	0.008718312	0.0005176896	-0.0002804628	
-0.001173553	0.00238813	0.05141457	0.2309051	0.0005176896	-0.0002804628	-0.6361316	0.03857316	

3.608e+10	-0.4711678	0.1427925	0.0005465996	0.001236909	-0.01767265	0.2521615	-0.0004776603	0.002778947	
0.0005465996	0.001236909	-0.4838452	0.1459893	0.0001081773	0.0001289938	0.05140786	0.222601	
-0.01767265	0.2521615	0.0001081773	0.0001289938	-0.6409744	0.01163588	0.0003595271	-0.0002710117	
-0.0004776603	0.002778947	0.05140786	0.222601	0.0003595271	-0.0002710117	-0.6184981	0.03999648	

3.61e+10	-0.4595013	0.1370706	0.0008788018	0.00117939	-0.01292874	0.2615406	0.0003604532	0.002941598	
0.0008788018	0.00117939	-0.4678647	0.1424158	0.0001035848	0.000173524	0.04919674	0.2142543	
-0.01292874	0.2615406	0.0001035848	0.000173524	-0.6332664	0.01348619	0.0002577137	-0.0001970584	
0.0003604532	0.002941598	0.04919674	0.2142543	0.0002577137	-0.0001970584	-0.6003153	0.0369272	

3.612e+10	-0.4491936	0.1293983	0.001224459	0.001007071	-0.005623764	0.2700514	0.001257287	0.002824178	
0.001224459	0.001007071	-0.4530477	0.1342848	0.000145852	0.0002130354	0.04462708	0.2065131	
-0.005623764	0.2700514	0.000145852	0.0002130354	-0.6254615	0.01452137	0.0002379283	-9.047554e-05	
0.001257287	0.002824178	0.04462708	0.2065131	0.0002379283	-9.047554e-05	-0.5830281	0.02861683	

3.614e+10	-0.4405284	0.1197715	0.001533785	0.0007055921	0.004042134	0.2770105	0.002111754	0.002405198	
0.001533785	0.0007055921	-0.4410871	0.1217441	0.0002242063	0.0002239013	0.03774465	0.2001216	
0.004042134	0.2770105	0.0002242063	0.0002239013	-0.6172861	0.01465495	0.0003167005	2.459385e-06	
0.002111754	0.002405198	0.03774465	0.2001216	0.0003167005	2.459385e-06	-0.5683493	0.01547835	

3.616e+10	-0.4337736	0.1086345	0.001747706	0.0002905909	0.01580636	0.281747	0.002811654	0.001700318	
0.001747706	0.0002905909	-0.4334349	0.1063014	0.0003221424	0.0001879056	0.02885068	0.1958969	
0.01580636	0.281747	0.0003221424	0.0001879056	-0.6086828	0.01338779	0.0004860987	1.739967e-05	
0.002811654	0.001700318	0.02885068	0.1958969	0.0004860987	1.739967e-05	-0.5581063	-0.002045575	

3.618e+10	-0.4293503	0.09612854	0.001823681	-0.0001923814	0.02917507	0.2834827	0.003248996	0.0007730612	
0.001823681	-0.0001923814	-0.4310619	0.08942555	0.0004127866	9.220823e-05	0.01858636	0.1946647	
0.02917507	0.2834827	0.0004127866	9.220823e-05	-0.5997968	0.01057421	0.0006916469	-0.0001070355	
0.003248996	0.0007730612	0.01858636	0.1946647	0.0006916469	-0.0001070355	-0.5536428	-0.02175269	

3.62e+10	-0.427683	0.0825136	0.001749146	-0.0006872091	0.04323667	0.2814685	0.003347392	-0.0002641686	
0.001749146	-0.0006872091	-0.4340994	0.07303281	0.0004576163	-6.066565e-05	0.008071363	0.1970147	
0.04323667	0.2814685	0.0004576163	-6.066565e-05	-0.5909138	0.005569396	0.0008369979	-0.0003917044	
0.003347392	-0.0002641686	0.008071363	0.1970147	0.0008369979	-0.0003917044	-0.5555372	-0.04196607	

3.622e+10	-0.4291524	0.06827822	0.001531779	-0.001147794	0.05663276	0.2753565	0.003086623	-0.001272403	
0.001531779	-0.001147794	-0.441874	0.05895858	0.0004203381	-0.0002394165	-0.001215068	0.2029664	
0.05663276	0.2753565	0.0004203381	-0.0002394165	-0.5826068	-0.001932004	0.0008228275	-0.0007887325	
0.003086623	-0.001272403	-0.001215068	0.2029664	0.0008228275	-0.0007887325	-0.5634709	-0.06031713	

3.624e+10	-0.4341854	0.05415761	0.001184818	-0.001534524	0.06785963	0.2653916	0.002506208	-0.002120461	
0.001184818	-0.001534524	-0.453073	0.0485795	0.0002912653	-0.0003915463	-0.00798097	0.2116996	
0.06785963	0.2653916	0.0002912653	-0.0003915463	-0.5757395	-0.01226108	0.0005935625	-0.001198243	
0.002506208	-0.002120461	-0.00798097	0.2116996	0.0005935625	-0.001198243	-0.5761578	-0.07493209	

3.626e+10	-0.4431572	0.04111045	0.0007350891	-0.001804521	0.07556313	0.2525375	0.001695321	-0.002703517	
0.0007350891	-0.001804521	-0.4660067	0.04249194	9.652456e-05	-0.0004663454	-0.01154852	0.2219898	
0.07556313	0.2525375	9.652456e-05	-0.0004663454	-0.5716289	-0.02555764	0.0001548895	-0.00150294	
0.001695321	-0.002703517	-0.01154852	0.2219898	0.0001548895	-0.00150294	-0.591906	-0.08487319	

3.628e+10	-0.4558942	0.03060015	0.0002306294	-0.00192725	0.07885138	0.2381875	0.0007763277	-0.002963399	
0.0002306294	-0.00192725	-0.4792064	0.04032431	-0.0001139312	-0.0004399059	-0.01188865	0.2325964	
0.07885138	0.2381875	-0.0001139312	-0.0004399059	-0.5717615	-0.04058318	-0.0004282269	-0.001600399	
0.0007763277	-0.002963399	-0.01188865	0.2325964	-0.0004282269	-0.001600399	-0.608893	-0.08980491	

3.63e+10	-0.4715811	0.02397179	-0.0002709376	-0.00190109	0.07748233	0.2240718	-0.0001156607	-0.002899894	
-0.0002709376	-0.00190109	-0.4916579	0.04154492	-0.0002887727	-0.0003184719	-0.009357514	0.2425896	
0.07748233	0.2240718	-0.0002887727	-0.0003184719	-0.5770617	-0.05586969	-0.001042375	-0.001428405	
-0.0001156607	-0.002899894	-0.009357514	0.2425896	-0.001042375	-0.001428405	-0.6256991	-0.09049907	

3.632e+10	-0.4886442	0.02201828	-0.0007244976	-0.001751686	0.07202081	0.2119477	-0.000860932	-0.002576043	
-0.0007244976	-0.001751686	-0.5027463	0.0454881	-0.0003893624	-0.0001299011	-0.004465792	0.2513203	
0.07202081	0.2119477	-0.0003893624	-0.0001299011	-0.5873313	-0.06899557	-0.001548089	-0.0009965285	
-0.000860932	-0.002576043	-0.004465792	0.2513203	-0.001548089	-0.0009965285	-0.6413334	-0.08716764	

3.634e+10	-0.5054228	0.02498458	-0.001110503	-0.001512873	0.06375392	0.2030043	-0.001396366	-0.002099313	
-0.001110503	-0.001512873	-0.5122486	0.05149042	-0.0003934418	8.7296e-05	0.002191376	0.2583407	
0.06375392	0.2030043	-0.0003934418	8.7296e-05	-0.6013778	-0.07842556	-0.001835051	-0.0003883787	
-0.001396366	-0.002099313	0.002191376	0.2583407	-0.001835051	-0.0003883787	-0.6551829	-0.08091069	

3.636e+10	-0.5204718	0.0319246	-0.001426835	-0.001210901	0.05424822	0.1976609	-0.001725811	-0.001576987	
-0.001426835	-0.001210901	-0.5199674	0.05887512	-0.0002943137	0.000287811	0.009991438	0.2634406	
0.05424822	0.1976609	-0.0002943137	0.000287811	-0.6175008	-0.08326991	-0.001859484	0.0002742531	
-0.001725811	-0.001576987	0.009991438	0.2634406	-0.001859484	0.0002742531	-0.6669189	-0.07233281	

3.638e+10	-0.5328875	0.04212633	-0.001677217	-0.0008590143	0.04489978	0.1955721	-0.001896862	-0.001078443	
-0.001677217	-0.0008590143	-0.5258312	0.06745381	-0.0001073248	0.0004238325	0.01837253	0.2666177	
0.04489978	0.1955721	-0.0001073248	0.0004238325	-0.634029	-0.0834715	-0.001643444	0.0008767802	
-0.001896862	-0.001078443	0.01837253	0.2666177	-0.001643444	0.0008767802	-0.6763407	-0.06214698	

3.64e+10	-0.5421973	0.05440522	-0.001861399	-0.000461684	0.03659888	0.1959616	-0.001964631	-0.0006281274	
-0.001861399	-0.000461684	-0.5298302	0.0765385	0.0001283579	0.0004596026	0.02689878	0.2680236	
0.03659888	0.1959616	0.0001283579	0.0004596026	-0.6496453	-0.07965132	-0.001248295	0.001346621	
-0.001964631	-0.0006281274	0.02689878	0.2680236	-0.001248295	0.001346621	-0.6834177	-0.05102659	

3.642e+10	-0.5484773	0.0675389	-0.001972316	-1.824492e-05	0.02964377	0.1979729	-0.00196766	-0.0002207085	
-0.001972316	-1.824492e-05	-0.5321462	0.08580767	0.0003612174	0.0003849132	0.03530448	0.2678029	
0.02964377	0.1979729	0.0003612174	0.0003849132	-0.6633843	-0.07218375	-0.0007427029	0.001648739	
-0.00196766	-0.0002207085	0.03530448	0.2678029	-0.0007427029	0.001648739	-0.6882744	-0.03920357	

3.644e+10	-0.5518729	0.08109985	-0.001992179	0.0004705641	0.02400231	0.2009315	-0.001924534	0.0001578874	
-0.001992179	0.0004705641	-0.5328981	0.09511554	0.0005461825	0.0002146296	0.04338852	0.266035	
0.02400231	0.2009315	0.0005461825	0.0002146296	-0.6746452	-0.06234743	-0.0001863549	0.00177424	
-0.001924534	0.0001578874	0.04338852	0.266035	-0.0001863549	0.00177424	-0.6910521	-0.02727231	

3.646e+10	-0.5528516	0.09420275	-0.001894292	0.0009936824	0.01949117	0.204443	-0.001839824	0.0005185373	
-0.001894292	0.0009936824	-0.5321914	0.1042189	0.0006530792	-2.42692e-05	0.05090796	0.2628047	
0.01949117	0.204443	0.0006530792	-2.42692e-05	-0.6831662	-0.05076802	0.0003681021	0.001726597	
-0.001839824	0.0005185373	0.05090796	0.2628047	0.0003681021	0.001726597	-0.69188	-0.0153385	

3.648e+10	-0.55176	0.1069515	-0.001646921	0.001523464	0.01594357	0.2082506	-0.001709281	0.0008705463	
-0.001646921	0.001523464	-0.5300576	0.1130541	0.0006618555	-0.0003020715	0.05760863	0.2581706	
0.01594357	0.2082506	0.0006618555	-0.0003020715	-0.6891238	-0.038528	0.0008765295	0.00151801	
-0.001709281	0.0008705463	0.05760863	0.2581706	0.0008765295	0.00151801	-0.6908892	-0.003858693	

3.65e+10	-0.5490024	0.1188991	-0.001226637	0.002007977	0.01319186	0.2121603	-0.001521787	0.001213523	
-0.001226637	0.002007977	-0.5266051	0.1211892	0.0005572576	-0.0005837892	0.06321456	0.2523013	
0.01319186	0.2121603	0.0005572576	-0.0005837892	-0.692721	-0.02576413	0.001296346	0.001170065	
-0.001521787	0.001213523	0.06321456	0.2523013	0.001296346	0.001170065	-0.6882335	0.007087296	

3.652e+10	-0.5447837	0.1300873	-0.0006324212	0.002375145	0.01096587	0.2160218	-0.001262577	0.001538181	
-0.0006324212	0.002375145	-0.5220146	0.1285089	0.0003342926	-0.0008220695	0.06747166	0.2453725	
0.01096587	0.2160218	0.0003342926	-0.0008220695	-0.6940744	-0.01320573	0.001593584	0.0007134457	
-0.001262577	0.001538181	0.06747166	0.2453725	0.001593584	0.0007134457	-0.6840998	0.01695798	

3.654e+10	-0.5390469	0.1407126	9.767499e-05	0.002546027	0.00898311	0.2199266	-0.0009241884	0.001821675	
9.767499e-05	0.002546027	-0.5164733	0.13482	1.206799e-05	-0.0009629644	0.07013108	0.2375958	
0.00898311	0.2199266	1.206799e-05	-0.0009629644	-0.6932795	-0.0008470011	0.001742721	0.0001858278	
-0.0009241884	0.001821675	0.07013108	0.2375958	0.001742721	0.0001858278	-0.6787439	0.02595607	

3.656e+10	-0.5318677	0.1502027	0.0008799477	0.002462608	0.007088909	0.2240779	-0.0005140043	0.002038805	
0.0008799477	0.002462608	-0.5102787	0.1399794	-0.0003602019	-0.0009644298	0.07088904	0.2292604	
0.007088909	0.2240779	-0.0003602019	-0.0009644298	-0.6904129	0.0109664	0.001727741	-0.0003694495	
-0.0005140043	0.002038805	0.07088904	0.2292604	0.001727741	-0.0003694495	-0.6724496	0.0338295	

3.658e+10	-0.5232688	0.158682	0.001609645	0.002113803	0.005323072	0.2287581	-4.546578e-05	0.002172324	
0.001609645	0.002113803	-0.5036384	0.1440355	-0.0007173714	-0.000814271	0.06943782	0.2208198	
0.005323072	0.2287581	-0.0007173714	-0.000814271	-0.6858114	0.02155249	0.001541814	-0.0009067846	
-4.546578e-05	0.002172324	0.06943782	0.2208198	0.001541814	-0.0009067846	-0.6653837	0.04058005	

3.66e+10	-0.513443	0.1656397	0.00219039	0.001537434	0.003850309	0.2341683	0.0004718255	0.002208768	
0.00219039	0.001537434	-0.4967295	0.1469494	-0.0009986976	-0.0005312405	0.06559395	0.2129255	
0.003850309	0.2341683	-0.0009986976	-0.0005312405	-0.6797949	0.03075041	0.001186132	-0.001375117	
0.0004718255	0.002208768	0.06559395	0.2129255	0.001186132	-0.001375117	-0.6575781	0.04621301	

3.662e+10	-0.5025979	0.1709025	0.002553712	0.0008020472	0.002907841	0.2404024	0.001026906	0.002125867	
0.002553712	0.0008020472	-0.4897587	0.1486133	-0.001158839	-0.0001537987	0.05948794	0.2063982	
0.002907841	0.2404024	-0.001158839	-0.0001537987	-0.6726995	0.03866981	0.0006805759	-0.001714565	
0.001026906	0.002125867	0.05948794	0.2063982	0.0006805759	-0.001714565	-0.6489921	0.05096282	

3.664e+10	-0.4910345	0.1741738	0.002658186	-8.671087e-06	0.002752698	0.2475847	0.001595103	0.001892033	
0.002658186	-8.671087e-06	-0.4829141	0.1492098	-0.001165884	0.0002693799	0.05155603	0.2019531	
0.002752698	0.2475847	-0.001165884	0.0002693799	-0.6647607	0.04496917	6.984602e-05	-0.001868295	
0.001595103	0.001892033	0.05155603	0.2019531	6.984602e-05	-0.001868295	-0.6395817	0.0542693	

3.666e+10	-0.4791565	0.1752516	0.002491908	-0.0008007358	0.003807825	0.2557517	0.002126061	0.001481452	
0.002491908	-0.0008007358	-0.4764597	0.1485832	-0.001004044	0.0006724029	0.04247671	0.2000604	
0.003807825	0.2557517	-0.001004044	0.0006724029	-0.6563413	0.04969616	-0.0005720808	-0.001797982	
0.002126061	0.001481452	0.04247671	0.2000604	-0.0005720808	-0.001797982	-0.6294876	0.0559588	

3.668e+10	-0.4676242	0.1740937	0.002081376	-0.001472007	0.006669317	0.264756	0.002549756	0.0008926621	
0.002081376	-0.001472007	-0.4705624	0.1471046	-0.0006907851	0.0009774383	0.03299211	0.2010307	
0.006669317	0.264756	-0.0006907851	0.0009774383	-0.6478797	0.05258242	-0.001155868	-0.00149876	
0.002549756	0.0008926621	0.03299211	0.2010307	-0.001155868	-0.00149876	-0.6189106	0.05545407	

3.67e+10	-0.4569538	0.1709389	0.001499949	-0.00194337	0.01186044	0.2740635	0.002793623	0.0001599737	
0.001499949	-0.00194337	-0.4654931	0.1447176	-0.00028909	0.001122677	0.0239092	0.2049803	
0.01186044	0.2740635	-0.00028909	0.001122677	-0.6398398	0.05406624	-0.001593396	-0.001007693	
0.002793623	0.0001599737	0.0239092	0.2049803	-0.001593396	-0.001007693	-0.6084108	0.05248012	

3.672e+10	-0.4473553	0.16637	0.0008481554	-0.002182381	0.01969051	0.2829357	0.00280126	-0.0006500701	
0.0008481554	-0.002182381	-0.4613765	0.1418498	0.0001128777	0.001091177	0.01614292	0.2118258	
0.01969051	0.2829357	0.0001128777	0.001091177	-0.6323419	0.05454437	-0.001819971	-0.0003971507	
0.00280126	-0.0006500701	0.01614292	0.2118258	-0.001819971	-0.0003971507	-0.5987931	0.04681058	

3.674e+10	-0.4390261	0.1604001	0.0002199412	-0.00220938	0.03007744	0.2905574	0.002550835	-0.001445839	
0.0002199412	-0.00220938	-0.4583591	0.1386487	0.0004376846	0.0009176661	0.01065565	0.2211134	
0.03007744	0.2905574	0.0004376846	0.0009176661	-0.6252607	0.0544833	-0.001810346	0.0002370509	
0.002550835	-0.001445839	0.01065565	0.2211134	-0.001810346	0.0002370509	-0.5910817	0.03874154	

3.676e+10	-0.4317986	0.1535867	-0.0003258171	-0.002077304	0.04285659	0.2961956	0.002058805	-0.002136726	
-0.0003258171	-0.002077304	-0.4562614	0.1357574	0.0006451356	0.000662389	0.008198041	0.2319752	
0.04285659	0.2961956	0.0006451356	0.000662389	-0.6183264	0.05377034	-0.001584125	0.0008022826	
0.002058805	-0.002136726	0.008198041	0.2319752	-0.001584125	0.0008022826	-0.5861494	0.02866749	

3.678e+10	-0.4258301	0.1457112	-0.0007637495	-0.001846589	0.0576388	0.2991172	0.001379429	-0.002647939	
-0.0007637495	-0.001846589	-0.4547916	0.1332489	0.00072877	0.0003866133	0.009101489	0.2433399	
0.0576388	0.2991172	0.00072877	0.0003866133	-0.6113467	0.05230342	-0.001198186	0.001229114	
0.001379429	-0.002647939	0.009101489	0.2433399	-0.001198186	0.001229114	-0.5843942	0.01795695	

3.68e+10	-0.42108	0.1369797	-0.001100017	-0.001571571	0.07387814	0.298483	0.0005816314	-0.00293584	
-0.001100017	-0.001571571	-0.4534849	0.1314063	0.0007057118	0.000140234	0.01330567	0.2541419	
0.07387814	0.298483	0.0007057118	0.000140234	-0.6041853	0.04999158	-0.0007243167	0.001484412	
0.0005816314	-0.00293584	0.01330567	0.2541419	-0.0007243167	0.001484412	-0.5857798	0.007668278	

3.682e+10	-0.4176944	0.1272238	-0.001363002	-0.001287576	0.09053505	0.2936504	-0.0002601636	-0.00298388	
-0.001363002	-0.001287576	-0.4520299	0.1297029	0.0006088184	-4.028826e-05	0.02041938	0.2634499	
0.09053505	0.2936504	0.0006088184	-4.028826e-05	-0.5968795	0.04613697	-0.0002345522	0.001568864	
-0.0002601636	-0.00298388	0.02041938	0.2634499	-0.0002345522	0.001568864	-0.5899277	-0.001647393	

3.684e+10	-0.416036	0.1163159	-0.001591817	-0.0009993193	0.1063265	0.2842015	-0.001081838	-0.00279493	
-0.001591817	-0.0009993193	-0.4501397	0.1280558	0.0004817032	-0.0001391185	0.02987869	0.2704646	
0.1063265	0.2842015	0.0004817032	-0.0001391185	-0.5897142	0.04030608	0.0002178998	0.001508948	
-0.001081838	-0.00279493	0.02987869	0.2704646	0.0002178998	0.001508948	-0.596338	-0.009263921	

3.686e+10	-0.4168646	0.1043225	-0.001811656	-0.0006795138	0.1196318	0.2702446	-0.001823506	-0.002383322	
-0.001811656	-0.0006795138	-0.4478662	0.1258052	0.0003674197	-0.0001620284	0.0408004	0.2745752	
0.1196318	0.2702446	0.0003674197	-0.0001620284	-0.5835637	0.03180898	0.00060059	0.001345217	
-0.001823506	-0.002383322	0.0408004	0.2745752	0.00060059	0.001345217	-0.6043047	-0.01455782	

3.688e+10	-0.4211102	0.09189386	-0.002014453	-0.0002841886	0.1288562	0.2525239	-0.00242934	-0.001769558	
-0.002014453	-0.0002841886	-0.4454335	0.1226092	0.0002987996	-0.0001334593	0.0521501	0.2755485	
0.1288562	0.2525239	0.0002987996	-0.0001334593	-0.5797914	0.02095601	0.0009073762	0.001117124	
-0.00242934	-0.001769558	0.0521501	0.2755485	0.0009073762	0.001117124	-0.6130549	-0.01733834	

3.69e+10	-0.4294486	0.08029155	-0.002151269	0.0002181386	0.1326046	0.2324805	-0.002838951	-0.0009875164	
-0.002151269	0.0002181386	-0.4435305	0.1178486	0.0002923566	-8.736091e-05	0.06286238	0.27355	
0.1326046	0.2324805	0.0002923566	-8.736091e-05	-0.579932	0.008199142	0.001150308	0.0008485141	
-0.002838951	-0.0009875164	0.06286238	0.27355	0.001150308	0.0008485141	-0.6219889	-0.01802559	

3.692e+10	-0.4417092	0.07138306	-0.002147903	0.0008227828	0.1301414	0.2122716	-0.002988924	-9.393073e-05	
-0.002147903	0.0008227828	-0.443008	0.1117692	0.0003502294	-6.069658e-05	0.07206403	0.2691909	
0.1301414	0.2122716	0.0003502294	-6.069658e-05	-0.5849228	-0.004491973	0.001343084	0.0005435411	
-0.002988924	-9.393073e-05	0.07206403	0.2691909	0.001343084	0.0005435411	-0.6306109	-0.01662327	

3.694e+10	-0.4567121	0.06678992	-0.001933692	0.001471479	0.1218478	0.1942345	-0.00283357	0.0008151898	
-0.001933692	0.001471479	-0.4448635	0.1047515	0.0004580895	-9.2625e-05	0.07929128	0.2632896	
0.1218478	0.1942345	0.0004580895	-9.2625e-05	-0.5945174	-0.01473734	0.001483641	0.0001879641	
-0.00283357	0.0008151898	0.07929128	0.2632896	0.001483641	0.0001879641	-0.6384823	-0.01326281	

3.696e+10	-0.4725878	0.0672592	-0.001472024	0.002063701	0.1092234	0.1802499	-0.002369945	0.001616061	
-0.001472024	0.002063701	-0.4496461	0.09803871	0.0005800635	-0.0002179276	0.08450438	0.2567195	
0.1092234	0.1802499	0.0005800635	-0.0002179276	-0.6071782	-0.02067264	0.00154816	-0.0002275937	
-0.002369945	0.001616061	0.08450438	0.2567195	0.00154816	-0.0002275937	-0.6451576	-0.008220336	

3.698e+10	-0.4872118	0.07272736	-0.0007916483	0.002479068	0.09431209	0.1711212	-0.001664226	0.002184609	
-0.0007916483	0.002479068	-0.4570304	0.09306697	0.0006555612	-0.0004510097	0.08801578	0.2501155	
0.09431209	0.1711212	0.0006555612	-0.0004510097	-0.6207378	-0.02178511	0.00149551	-0.0006933047	
-0.001664226	0.002184609	0.08801578	0.2501155	0.00149551	-0.0006933047	-0.6502064	-0.002156174	

3.7e+10	-0.4991581	0.08200866	1.603939e-05	0.002625651	0.07890468	0.1665328	-0.0008364196	0.002442982	
1.603939e-05	0.002625651	-0.4661529	0.09077982	0.0006147613	-0.0007685563	0.09028109	0.2437477	
0.07890468	0.1665328	0.0006147613	-0.0007685563	-0.6331942	-0.01835033	0.001285486	-0.001173399	
-0.0008364196	0.002442982	0.09028109	0.2437477	0.001285486	-0.001173399	-0.6535249	0.004448471	

3.702e+10	-0.507471	0.09387097	0.0008199043	0.002472501	0.06414648	0.1656539	-3.074278e-05	0.002383402	
0.0008199043	0.002472501	-0.4758008	0.09145255	0.0004026379	-0.001103541	0.09165441	0.2376267	
0.06414648	0.1656539	0.0004026379	-0.001103541	-0.6430861	-0.01156193	0.0008898966	-0.001603633	
-3.074278e-05	0.002383402	0.09165441	0.2376267	0.0008898966	-0.001603633	-0.6552618	0.01075125	

3.704e+10	-0.5120124	0.106592	0.0014967	0.002060107	0.05049251	0.167641	0.0006313971	0.00206482	
0.0014967	0.002060107	-0.4850113	0.09480385	6.065795e-06	-0.001357586	0.09230552	0.2316357	
0.05049251	0.167641	6.065795e-06	-0.001357586	-0.6496933	-0.002948235	0.0003098739	-0.001892701	
0.0006313971	0.00206482	0.09230552	0.2316357	0.0003098739	-0.001892701	-0.6558328	0.01648635	

3.706e+10	-0.5130153	0.1191936	0.001970091	0.001475211	0.0379388	0.1719545	0.001078709	0.001585426	
0.001970091	0.001475211	-0.4931415	0.10051	-0.0005288182	-0.001427284	0.09219793	0.2255864	
0.0379388	0.1719545	-0.0005288182	-0.001427284	-0.6529799	0.00626835	-0.0003964736	-0.001934898	
0.001078709	0.001585426	0.09219793	0.2255864	-0.0003964736	-0.001934898	-0.6557568	0.02152454	

3.708e+10	-0.5110128	0.1307306	0.002214923	0.0008164254	0.02654371	0.1783961	0.001289621	0.001053139	
0.002214923	0.0008164254	-0.499743	0.1080483	-0.00109401	-0.001243972	0.09115543	0.2194509	
0.02654371	0.1783961	-0.00109401	-0.001243972	-0.6534194	0.01448586	-0.001092357	-0.001659797	
0.001289621	0.001053139	0.09115543	0.2194509	-0.001092357	-0.001659797	-0.6555287	0.02564121	

3.71e+10	-0.5068126	0.1403611	0.002247965	0.0001661927	0.01654338	0.1869495	0.00128745	0.000565821	
0.002247965	0.0001661927	-0.5046626	0.1167889	-0.001551264	-0.0008123609	0.08894196	0.2133858	
0.01654338	0.1869495	-0.001551264	-0.0008123609	-0.6518664	0.02116906	-0.001599656	-0.001099002	
0.00128745	0.000565821	0.08894196	0.2133858	-0.001599656	-0.001099002	-0.6555051	0.02930776	

3.712e+10	-0.501196	0.1478903	0.002106181	-0.000419748	0.008260743	0.1975073	0.001130543	0.0001977039	
0.002106181	-0.000419748	-0.5076587	0.1265735	-0.001790485	-0.0002179409	0.08535482	0.2076519	
0.008260743	0.1975073	-0.001790485	-0.0002179409	-0.6492956	0.02585139	-0.001794624	-0.0003955588	
0.001130543	0.0001977039	0.08535482	0.2076519	-0.001794624	-0.0003955588	-0.6558805	0.03299595	

3.714e+10	-0.4949698	0.1533134	0.001832914	-0.0009064399	0.00217166	0.2098188	0.0009025949	-1.37765e-05	
0.001832914	-0.0009064399	-0.5086828	0.1369674	-0.001771493	0.0004125653	0.08037894	0.2026729	
0.00217166	0.2098188	-0.001771493	0.0004125653	-0.6465591	0.02856857	-0.001671076	0.0002652704	
0.0009025949	-1.37765e-05	0.08037894	0.2026729	-0.001671076	0.0002652704	-0.6566017	0.03693965	

3.716e+10	-0.48896	0.1565173	0.001470244	-0.001276398	-0.001271942	0.2235464	0.0006862564	-7.813323e-05	
0.001470244	-0.001276398	-0.5077618	0.1474223	-0.001524263	0.0009650894	0.07416836	0.1988483	
-0.001271942	0.2235464	-0.001524263	0.0009650894	-0.6444356	0.02948907	-0.001322287	0.000749638	
0.0006862564	-7.813323e-05	0.07416836	0.1988483	-0.001322287	0.000749638	-0.6573685	0.04170369	

3.718e+10	-0.483822	0.1581374	0.001057496	-0.001523806	-0.001616256	0.2380545	0.0005408994	-3.781958e-05	
0.001057496	-0.001523806	-0.504826	0.1577192	-0.001122201	0.001368136	0.06697822	0.1964774	
-0.001616256	0.2380545	-0.001122201	0.001368136	-0.6435968	0.02922556	-0.0008781178	0.001008736	
0.0005408994	-3.781958e-05	0.06697822	0.1964774	-0.0008781178	0.001008736	-0.6576361	0.04737069	

3.72e+10	-0.4800303	0.1588478	0.0006283085	-0.001653338	0.001375236	0.2525463	0.0004957096	5.07431e-05	
0.0006283085	-0.001653338	-0.4997927	0.1675193	-0.0006461757	0.001598538	0.05905233	0.1957883	
0.001375236	0.2525463	-0.0006461757	0.001598538	-0.6445361	0.0285919	-0.0004496148	0.001063352	
0.0004957096	5.07431e-05	0.05905233	0.1957883	-0.0004496148	0.001063352	-0.656784	0.05399748	

3.722e+10	-0.4776676	0.159362	0.0002106258	-0.001676924	0.007575573	0.2660522	0.0005539861	0.0001292326	
0.0002106258	-0.001676924	-0.4927048	0.1762199	-0.0001633357	0.001668826	0.05068632	0.1970247	
0.007575573	0.2660522	-0.0001633357	0.001668826	-0.6472584	0.0283731	-0.0001102606	0.0009736366	
0.0005539861	0.0001292326	0.05068632	0.1970247	-0.0001102606	0.0009736366	-0.6543299	0.06081553	

3.724e+10	-0.4763773	0.1604112	-0.0001768812	-0.001610415	0.01647954	0.2777916	0.0006927535	0.0001444336	
-0.0001768812	-0.001610415	-0.4838242	0.183208	0.0002840701	0.001609727	0.04229134	0.2004267	
0.01647954	0.2777916	0.0002840701	0.001609727	-0.6513291	0.02934886	0.0001123146	0.0008152598	
0.0006927535	0.0001444336	0.04229134	0.2004267	0.0001123146	0.0008152598	-0.6500681	0.06717801	

3.726e+10	-0.4756822	0.1623061	-0.0005220756	-0.001466969	0.02741513	0.2873451	0.0008663017	6.203497e-05	
-0.0005220756	-0.001466969	-0.4737016	0.1879344	0.0006759026	0.00145166	0.03441159	0.2061882	
0.02741513	0.2873451	0.0006759026	0.00145166	-0.6560514	0.03197149	0.0002322098	0.000653203	
0.0008663017	6.203497e-05	0.03441159	0.2061882	0.0002322098	0.000653203	-0.6441676	0.07236882	

3.728e+10	-0.474993	0.1654101	-0.0008139513	-0.001257215	0.03977823	0.2945159	0.001019674	-0.0001232822	
-0.0008139513	-0.001257215	-0.4629625	0.1902524	0.001002967	0.001217605	0.02768045	0.2142694	
0.03977823	0.2945159	0.001002967	0.001217605	-0.6608037	0.03648191	0.0002882608	0.0005230463	
0.001019674	-0.0001232822	0.02768045	0.2142694	0.0002882608	0.0005230463	-0.6371727	0.07575268	

3.73e+10	-0.4739699	0.1693326	-0.001038976	-0.0009946032	0.05301891	0.2992495	0.001108671	-0.0003904028	
-0.001038976	-0.0009946032	-0.4524062	0.1899882	0.001258309	0.0009264859	0.02276607	0.2244785	
0.05301891	0.2992495	0.001258309	0.0009264859	-0.6650109	0.04253814	0.0003178339	0.0004293241	
0.001108671	-0.0003904028	0.02276607	0.2244785	0.0003178339	0.0004293241	-0.6297911	0.07699391	

3.732e+10	-0.4721073	0.1741696	-0.00118548	-0.0006985797	0.06670865	0.3016007	0.001107221	-0.0007083149	
-0.00118548	-0.0006985797	-0.4428314	0.1872415	0.001437374	0.0005948508	0.02036537	0.2364847	
0.06670865	0.3016007	0.001437374	0.0005948508	-0.6681938	0.05024175	0.0003434248	0.0003606568	
0.001107221	-0.0007083149	0.02036537	0.2364847	0.0003434248	0.0003606568	-0.622823	0.07614204	

3.734e+10	-0.4689603	0.1796414	-0.00124885	-0.0003942403	0.08044804	0.3016467	0.001002129	-0.001044645	
-0.00124885	-0.0003942403	-0.4349016	0.1825479	0.001538425	0.0002397833	0.02111645	0.2495883	
0.08044804	0.3016467	0.001538425	0.0002397833	-0.6698995	0.05919773	0.0003738494	0.0003040793	
0.001002129	-0.001044645	0.02111645	0.2495883	0.0003738494	0.0003040793	-0.6171111	0.07347681	

3.736e+10	-0.4643628	0.185168	-0.001234914	-0.0001065209	0.09395929	0.2995496	0.0007870586	-0.001367246	
-0.001234914	-0.0001065209	-0.4291744	0.1766301	0.001562132	-0.0001246792	0.02546404	0.2628193	
0.09395929	0.2995496	0.001562132	-0.0001246792	-0.6698292	0.06886567	0.0004130478	0.0002495303	
0.0007870586	-0.001367246	0.02546404	0.2628193	0.0004130478	0.0002495303	-0.6132492	0.06954567	

3.738e+10	-0.4581321	0.1904206	-0.001159145	0.0001419144	0.1070538	0.2954106	0.0004636165	-0.001640134	
-0.001159145	0.0001419144	-0.4256772	0.1705173	0.001511247	-0.0004854412	0.03339432	0.27503	
0.1070538	0.2954106	0.001511247	-0.0004854412	-0.6677492	0.07903332	0.0004617712	0.0001843775	
0.0004636165	-0.001640134	0.03339432	0.27503	0.0004617712	0.0001843775	-0.6113672	0.06544423	

3.74e+10	-0.4502596	0.1948447	-0.001045234	0.0003392139	0.1195956	0.2892289	4.656806e-05	-0.001827107	
-0.001045234	0.0003392139	-0.4240449	0.1649021	0.001388698	-0.0008324686	0.0444289	0.2851495	
0.1195956	0.2892289	0.001388698	-0.0008324686	-0.6635965	0.08901424	0.0005127197	9.51288e-05	
4.656806e-05	-0.001827107	0.0444289	0.2851495	0.0005127197	9.51288e-05	-0.6111362	0.06196919	

3.742e+10	-0.4408147	0.197925	-0.000918568	0.0004853309	0.1313798	0.280938	-0.0004370813	-0.001899255	
-0.000918568	0.0004853309	-0.4236908	0.1601839	0.001196513	-0.001157115	0.05780061	0.2925038	
0.1313798	0.280938	0.001196513	-0.001157115	-0.6573348	0.09847394	0.00054834	-2.691136e-05	
-0.0004370813	-0.001899255	0.05780061	0.2925038	0.00054834	-2.691136e-05	-0.6119776	0.05946579	

3.744e+10	-0.4300024	0.1990534	-0.0008000397	0.0005922143	0.1420807	0.2703372	-0.0009553676	-0.001838376	
-0.0008000397	0.0005922143	-0.4240531	0.1564414	0.0009335781	-0.001451131	0.07273102	0.296644	
0.1420807	0.2703372	0.0009335781	-0.001451131	-0.6490015	0.1068597	0.0005457372	-0.0001771523	
-0.0009553676	-0.001838376	0.07273102	0.296644	0.0005457372	-0.0001771523	-0.6132459	0.05818479	

3.746e+10	-0.4182524	0.1975284	-0.0007021336	0.0006804148	0.1511791	0.2573388	-0.001476246	-0.001632648	
-0.0007021336	0.0006804148	-0.4246877	0.1535672	0.0005964554	-0.001701591	0.08843242	0.2973798	
0.1511791	0.2573388	0.0005964554	-0.001701591	-0.6387261	0.1136594	0.0004862567	-0.0003372277	
-0.001476246	-0.001632648	0.08843242	0.2973798	0.0004862567	-0.0003372277	-0.6144215	0.05775536	

3.748e+10	-0.4062479	0.1929007	-0.0006238327	0.0007764462	0.1579601	0.2419041	-0.001964291	-0.001270757	
-0.0006238327	0.0007764462	-0.4252787	0.1512677	0.0001819087	-0.001888158	0.1041165	0.2945713	
0.1579601	0.2419041	0.0001819087	-0.001888158	-0.6267704	0.1183162	0.0003624718	-0.0004793779	
-0.001964291	-0.001270757	0.1041165	0.2945713	0.0003624718	-0.0004793779	-0.6151282	0.0579301	

3.75e+10	-0.3952117	0.1846263	-0.0005459727	0.0009054265	0.1615082	0.2242665	-0.002370463	-0.0007424036	
-0.0005459727	0.0009054265	-0.4257509	0.1491793	-0.0003066329	-0.001981414	0.1189917	0.2883099	
0.1615082	0.2242665	-0.0003066329	-0.001981414	-0.6137116	0.1202942	0.0001808616	-0.0005725743	
-0.002370463	-0.0007424036	0.1189917	0.2883099	0.0001808616	-0.0005725743	-0.6151673	0.05836709	

3.752e+10	-0.3864701	0.1730384	-0.000430702	0.001079016	0.1607554	0.2050337	-0.002625665	-5.77507e-05	
-0.000430702	0.001079016	-0.4260832	0.1471282	-0.0008521599	-0.001945886	0.1322915	0.2788062	
0.1607554	0.2050337	-0.0008521599	-0.001945886	-0.6003215	0.1191935	-3.709863e-05	-0.0005886822	
-0.002625665	-5.77507e-05	0.1322915	0.2788062	-3.709863e-05	-0.0005886822	-0.6146394	0.05842525	

3.754e+10	-0.3815166	0.1587319	-0.0002278234	0.001280288	0.1546709	0.185418	-0.002651461	0.0007378076	
-0.0002278234	0.001280288	-0.4267246	0.1446044	-0.001418401	-0.001745964	0.1432907	0.2663981	
0.1546709	0.185418	-0.001418401	-0.001745964	-0.5873934	0.1149226	-0.0002561632	-0.0005079978	
-0.002651461	0.0007378076	0.1432907	0.2663981	-0.0002561632	-0.0005079978	-0.6139238	0.05760048	

3.756e+10	-0.3813226	0.1433297	0.0001016326	0.00145305	0.1426553	0.1673352	-0.002388431	0.001546328	
0.0001016326	0.00145305	-0.4281035	0.1417475	-0.001947278	-0.001357934	0.1512442	0.2515535	
0.1426553	0.1673352	-0.001947278	-0.001357934	-0.5757544	0.1077495	-0.0004267029	-0.0003281311	
-0.002388431	0.001546328	0.1512442	0.2515535	-0.0004267029	-0.0003281311	-0.6136243	0.05595218	

3.758e+10	-0.3860613	0.1287998	0.0005555487	0.001511647	0.1250555	0.1531093	-0.001833256	0.002235021	
0.0005555487	0.001511647	-0.430626	0.1389224	-0.002364104	-0.0007845999	0.1554783	0.2349911	
0.1250555	0.1531093	-0.002364104	-0.0007845999	-0.5659006	0.09815492	-0.0004965042	-7.562111e-05	
-0.001833256	0.002235021	0.1554783	0.2349911	-0.0004965042	-7.562111e-05	-0.6144019	0.0535371	

3.76e+10	-0.3948707	0.116966	0.001071571	0.001374314	0.1034546	0.144947	-0.001061158	0.002676085	
0.001071571	0.001374314	-0.4345136	0.1366682	-0.002592781	-6.517742e-05	0.1554411	0.2177515	
0.1034546	0.144947	-0.002592781	-6.517742e-05	-0.5583443	0.08633649	-0.000429041	0.0001913804	
-0.001061158	0.002676085	0.1554411	0.2177515	-0.000429041	0.0001913804	-0.6167424	0.05103058	

3.762e+10	-0.4062008	0.1088412	0.001537828	0.001006825	0.08031659	0.1440755	-0.0002085501	0.002801749	
0.001537828	0.001006825	-0.4395993	0.1357425	-0.002574957	0.0007276687	0.1509401	0.2010699	
0.08031659	0.1440755	-0.002574957	0.0007276687	-0.5534245	0.07285972	-0.0002243467	0.0003971782	
-0.0002085501	0.002801749	0.1509401	0.2010699	-0.0002243467	0.0003971782	-0.6207747	0.04918309	

3.764e+10	-0.4183659	0.104543	0.001833307	0.0004503035	0.05848184	0.150518	0.0005756408	0.00263086	
0.001833307	0.0004503035	-0.4453183	0.1367426	-0.002287837	0.001494839	0.1422989	0.1863146	
0.05848184	0.150518	-0.002287837	0.001494839	-0.5517709	0.05789609	7.398649e-05	0.0004711765	
0.0005756408	0.00263086	0.1422989	0.1863146	7.398649e-05	0.0004711765	-0.6261781	0.04884145	

3.766e+10	-0.4302279	0.1034474	0.001881332	-0.000190976	0.04033839	0.1630853	0.001189582	0.002254621	
0.001881332	-0.000190976	-0.4508607	0.1399097	-0.001754679	0.002133143	0.1302966	0.1745518	
0.04033839	0.1630853	-0.001754679	0.002133143	-0.5539921	0.04223834	0.0003872948	0.0003733536	
0.001189582	0.002254621	0.1302966	0.1745518	0.0003872948	0.0003733536	-0.6321372	0.05086055	

3.768e+10	-0.4412466	0.1047943	0.001675138	-0.0007912262	0.02751725	0.1798471	0.001605925	0.001787572	
0.001675138	-0.0007912262	-0.4552895	0.1451263	-0.001043754	0.002558918	0.1159926	0.1664634	
0.02751725	0.1798471	-0.001043754	0.002558918	-0.5605443	0.02712099	0.0006228158	0.0001102003	
0.001605925	0.001787572	0.1159926	0.1664634	0.0006228158	0.0001102003	-0.6375835	0.05533283	

3.77e+10	-0.4513421	0.1079412	0.001272477	-0.001248671	0.0206352	0.1985305	0.001861215	0.0013164	
0.001272477	-0.001248671	-0.4577281	0.1518224	-0.0002496562	0.002731113	0.1004469	0.1623015	
0.0206352	0.1985305	-0.0002496562	0.002731113	-0.5713418	0.01386352	0.0006994296	-0.0002623969	
0.001861215	0.0013164	0.1004469	0.1623015	0.0006994296	-0.0002623969	-0.6413835	0.06175821	

3.772e+10	-0.4605716	0.1127011	0.0007608994	-0.001511368	0.01942377	0.2170827	0.002015255	0.0008747106	
0.0007608994	-0.001511368	-0.4576998	0.1591193	0.0005344897	0.002653403	0.08456761	0.1621073	
0.01942377	0.2170827	0.0005344897	0.002653403	-0.5856678	0.00378213	0.0005750167	-0.0006514028	
0.002015255	0.0008747106	0.08456761	0.1621073	0.0005750167	-0.0006514028	-0.6426976	0.06936535	

3.774e+10	-0.4688198	0.1188909	0.0002273916	-0.001572545	0.02288184	0.2339135	0.002112665	0.0004506796	
0.0002273916	-0.001572545	-0.4552811	0.1657088	0.001237104	0.002359337	0.06918143	0.165806	
0.02288184	0.2339135	0.001237104	0.002359337	-0.6022563	-0.00210228	0.0002620134	-0.0009520123	
0.002112665	0.0004506796	0.06918143	0.165806	0.0002620134	-0.0009520123	-0.6413064	0.07681174	

3.776e+10	-0.4759485	0.1263733	-0.0002580094	-0.001455814	0.02975177	0.2481428	0.002162941	1.595023e-05	
-0.0002580094	-0.001455814	-0.4509801	0.1707711	0.001809709	0.00189276	0.05511903	0.1732535	
0.02975177	0.2481428	0.001809709	0.00189276	-0.6196203	-0.003460649	-0.0001745953	-0.001081092	
0.002162941	1.595023e-05	0.05511903	0.1732535	-0.0001745953	-0.001081092	-0.6375065	0.08302394	

3.778e+10	-0.4817344	0.1351373	-0.0006447156	-0.001200879	0.03882909	0.2594708	0.002145183	-0.0004467065	
-0.0006447156	-0.001200879	-0.4457421	0.173698	0.002218231	0.001299607	0.04327199	0.1841441	
0.03882909	0.2594708	0.002218231	0.001299607	-0.6364797	-0.0006665202	-0.0006377344	-0.001000657	
0.002145183	-0.0004467065	0.04327199	0.1841441	-0.0006377344	-0.001000657	-0.6322399	0.08694337	

3.78e+10	-0.4861022	0.1447286	-0.0008994541	-0.0008589365	0.04915906	0.2679783	0.002028076	-0.0009274984	
-0.0008994541	-0.0008589365	-0.440654	0.1742894	0.002438163	0.0006322318	0.03455439	0.1978857	
0.04915906	0.2679783	0.002438163	0.0006322318	-0.6519562	0.005575739	-0.001029112	-0.0007259589	
0.002028076	-0.0009274984	0.03455439	0.1978857	-0.001029112	-0.0007259589	-0.6266703	0.08829584	

3.782e+10	-0.4889567	0.1550123	-0.001011268	-0.0004862559	0.06003014	0.2738988	0.001789271	-0.001394164	
-0.001011268	-0.0004862559	-0.4366463	0.1730569	0.002458847	-5.21581e-05	0.02967955	0.2135878	
0.06003014	0.2738988	0.002458847	-5.21581e-05	-0.665529	0.01463811	-0.00127488	-0.0003140845	
0.001789271	-0.001394164	0.02967955	0.2135878	-0.00127488	-0.0003140845	-0.6220178	0.0871975	

3.784e+10	-0.4902681	0.1656605	-0.0009911441	-0.0001357699	0.07095902	0.2775735	0.001428387	-0.001802823	
-0.0009911441	-0.0001357699	-0.4344792	0.1706206	0.002289201	-0.0006916301	0.02913681	0.2300925	
0.07095902	0.2775735	0.002289201	-0.0006916301	-0.6768543	0.0256472	-0.001339708	0.0001554834	
0.001428387	-0.001802823	0.02913681	0.2300925	-0.001339708	0.0001554834	-0.6192467	0.08438587	

3.786e+10	-0.4899747	0.1766916	-0.0008676874	0.0001515918	0.08160503	0.2793027	0.0009641301	-0.002114026	
-0.0008676874	0.0001515918	-0.4343366	0.1682065	0.001959111	-0.001233145	0.03294267	0.2460747	
0.08160503	0.2793027	0.001959111	-0.001233145	-0.6858489	0.03834491	-0.001226515	0.000605649	
0.0009641301	-0.002114026	0.03294267	0.2460747	-0.001226515	0.000605649	-0.6187891	0.0812454	

3.788e+10	-0.4880663	0.1877421	-0.0006805099	0.0003525922	0.09177616	0.2794346	0.0004300732	-0.00229963	
-0.0006805099	0.0003525922	-0.4360109	0.1665836	0.001516156	-0.001638561	0.04062362	0.2602789	
0.09177616	0.2794346	0.001516156	-0.001638561	-0.6924761	0.05218909	-0.0009688063	0.0009738922	
0.0004300732	-0.00229963	0.04062362	0.2602789	-0.0009688063	0.0009738922	-0.6205106	0.07860878	

3.79e+10	-0.4845948	0.198648	-0.0004699019	0.0004629012	0.1013659	0.2781982	-0.0001349766	-0.002346621	
-0.0004699019	0.0004629012	-0.4388663	0.1664468	0.001014161	-0.001893624	0.05126444	0.2717773	
0.1013659	0.2781982	0.001014161	-0.001893624	-0.6968439	0.06660747	-0.000615848	0.001222882	
-0.0001349766	-0.002346621	0.05126444	0.2717773	-0.000615848	0.001222882	-0.6237239	0.07757838	

3.792e+10	-0.4795324	0.2093032	-0.0002688699	0.0004949908	0.1103352	0.2757878	-0.0006945348	-0.002256219	
-0.0002688699	0.0004949908	-0.4420765	0.1681057	0.0005004186	-0.002006025	0.06383756	0.2801897	
0.1103352	0.2757878	0.0005004186	-0.002006025	-0.6990252	0.08149821	-0.0002194669	0.001340351	
-0.0006945348	-0.002256219	0.06383756	0.2801897	-0.0002194669	0.001340351	-0.627547	0.07827634	

3.794e+10	-0.4728783	0.2195028	-9.827682e-05	0.0004687894	0.1186386	0.2723299	-0.001217776	-0.002037983	
-9.827682e-05	0.0004687894	-0.4449594	0.1714279	1.02394e-05	-0.001995474	0.07737781	0.2854276	
0.1186386	0.2723299	1.02394e-05	-0.001995474	-0.6990869	0.09638458	0.0001753835	0.001332709	
-0.001217776	-0.002037983	0.07737781	0.2854276	0.0001753835	0.001332709	-0.6311028	0.08084613	

3.796e+10	-0.4646021	0.2290156	3.369829e-05	0.0004068368	0.1262208	0.2679051	-0.00168164	-0.001705881	
3.369829e-05	0.0004068368	-0.4470377	0.1760928	-0.0004364478	-0.001885957	0.09116081	0.2876714	
0.1262208	0.2679051	-0.0004364478	-0.001885957	-0.6970247	0.1113957	0.0005365028	0.00121699	
-0.00168164	-0.001705881	0.09116081	0.2876714	0.0005365028	0.00121699	-0.6338081	0.08468065	

3.798e+10	-0.4546224	0.2376709	0.0001292407	0.0003271251	0.1330273	0.2626087	-0.002068607	-0.001271621	
0.0001292407	0.0003271251	-0.448003	0.181733	-0.0008312882	-0.001698371	0.1046268	0.2871636	
0.1330273	0.2626087	-0.0008312882	-0.001698371	-0.692901	0.1259215	0.0008418203	0.001013222	
-0.002068607	-0.001271621	0.1046268	0.2871636	0.0008418203	0.001013222	-0.635332	0.08917701	

3.8e+10	-0.4428006	0.2452464	0.0001955178	0.000240413	0.138973	0.2564899	-0.002359408	-0.0007425605	
0.0001955178	0.000240413	-0.4476107	0.1881582	-0.001172362	-0.00144723	0.1172975	0.2841626	
0.138973	0.2564899	-0.001172362	-0.00144723	-0.6865845	0.1401864	0.001075629	0.0007408912	
-0.002359408	-0.0007425605	0.1172975	0.2841626	0.001075629	0.0007408912	-0.6355252	0.09407289	

3.802e+10	-0.429287	0.2511567	0.0002399813	0.0001502949	0.1439817	0.2496452	-0.002525472	-0.0001297026	
0.0002399813	0.0001502949	-0.445838	0.1947818	-0.001457131	-0.001142126	0.128785	0.2790231	
0.1439817	0.2496452	-0.001457131	-0.001142126	-0.6780458	0.1537994	0.001225397	0.0004203836	
-0.002525472	-0.0001297026	0.128785	0.2790231	0.001225397	0.0004203836	-0.634569	0.09857672	

3.804e+10	-0.4140102	0.2549997	0.0002669093	5.4216e-05	0.1479327	0.2421246	-0.002531291	0.0005435861	
0.0002669093	5.4216e-05	-0.4426015	0.2014253	-0.001683376	-0.0007849712	0.1387858	0.2720772	
0.1479327	0.2421246	-0.001683376	-0.0007849712	-0.6672627	0.1663673	0.001280617	7.481095e-05	
-0.002531291	0.0005435861	0.1387858	0.2720772	0.001280617	7.481095e-05	-0.6328315	0.102383	

3.806e+10	-0.3971513	0.256241	0.0002735616	-5.242716e-05	0.1506526	0.2340091	-0.002342916	0.001232668	
0.0002735616	-5.242716e-05	-0.43791	0.2078413	-0.001840786	-0.0003775242	0.1470745	0.2637098	
0.1506526	0.2340091	-0.001840786	-0.0003775242	-0.6540806	0.1775872	0.001237181	-0.0002671715	
-0.002342916	0.001232668	0.1470745	0.2637098	0.001237181	-0.0002671715	-0.6308355	0.1053393	

3.808e+10	-0.379156	0.2540146	0.0002500708	-0.000172332	0.1519625	0.2254465	-0.001943172	0.001872571	
0.0002500708	-0.000172332	-0.4318795	0.2136358	-0.001912771	7.649045e-05	0.1535102	0.2542861	
0.1519625	0.2254465	-0.001912771	7.649045e-05	-0.6385259	0.186839	0.001102831	-0.0005753702	
-0.001943172	0.001872571	0.1535102	0.2542861	0.001102831	-0.0005753702	-0.629076	0.1075299	

3.81e+10	-0.3606272	0.2475743	0.0001796655	-0.000297929	0.1516428	0.216689	-0.001339219	0.002387436	
0.0001796655	-0.000297929	-0.4243493	0.2187417	-0.001876071	0.0005649904	0.1580323	0.2441592	
0.1516428	0.216689	-0.001876071	0.0005649904	-0.6205887	0.1936484	0.0008955325	-0.0008258528	
-0.001339219	0.002387436	0.1580323	0.2441592	0.0008955325	-0.0008258528	-0.6277806	0.1095653	

3.812e+10	-0.3428201	0.2362309	4.800805e-05	-0.0004078744	0.1495462	0.2080619	-0.0005711281	0.002698524	
4.800805e-05	-0.0004078744	-0.4154889	0.2225965	-0.001707939	0.001061445	0.1605859	0.2336452	
0.1495462	0.2080619	-0.001707939	0.001061445	-0.6005105	0.1969734	0.0006389057	-0.001005009	
-0.0005711281	0.002698524	0.1605859	0.2336452	0.0006389057	-0.001005009	-0.6269613	0.1117917	

3.814e+10	-0.3274324	0.2196109	-0.0001475033	-0.000466118	0.1456219	0.2000273	0.0002854788	0.002740069	
-0.0001475033	-0.000466118	-0.4052423	0.2249069	-0.001390638	0.001526684	0.1611887	0.2230667	
0.1456219	0.2000273	-0.001390638	0.001526684	-0.5788818	0.1960533	0.000356619	-0.001107815	
0.0002854788	0.002740069	0.1611887	0.2230667	0.000356619	-0.001107815	-0.6263394	0.1146158	

3.816e+10	-0.3165223	0.1981693	-0.0003842061	-0.0004319819	0.1399276	0.1930398	0.001120973	0.002477721	
-0.0003842061	-0.0004319819	-0.3939717	0.224991	-0.0009208209	0.001907358	0.1598249	0.2126812	
0.1399276	0.1930398	-0.0009208209	0.001907358	-0.5566724	0.1898321	6.813894e-05	-0.001135858	
0.001120973	0.002477721	0.1598249	0.2126812	6.813894e-05	-0.001135858	-0.6254723	0.1181842	

3.818e+10	-0.3120578	0.1734039	-0.0006098228	-0.0002761147	0.1326548	0.187584	0.001810079	0.00193179	
-0.0006098228	-0.0002761147	-0.3820571	0.2224518	-0.0003168563	0.002140576	0.156459	0.2027632	
0.1326548	0.187584	-0.0003168563	0.002140576	-0.5354351	0.1775967	-0.0002088963	-0.001094035	
0.001810079	0.00193179	0.156459	0.2027632	-0.0002088963	-0.001094035	-0.6239076	0.1222927	

3.82e+10	-0.3155169	0.1477318	-0.0007538444	-8.289286e-06	0.1242127	0.1841667	0.00224308	0.001187449	
-0.0007538444	-8.289286e-06	-0.370294	0.216816	0.0003710734	0.002164726	0.1510643	0.1937225	
0.1242127	0.1841667	0.0003710734	0.002164726	-0.51721	0.1593122	-0.0004607533	-0.0009912487	
0.00224308	0.001187449	0.1510643	0.1937225	-0.0004607533	-0.0009912487	-0.6211421	0.1269374	

3.822e+10	-0.3270704	0.1241771	-0.0007579388	0.000317519	0.11516	0.1831189	0.002368695	0.0003705295	
-0.0007579388	0.000317519	-0.3597383	0.207695	0.001059353	0.001937275	0.1436237	0.1860286	
0.11516	0.1831189	0.001059353	0.001937275	-0.504327	0.1356058	-0.0006797225	-0.0008366967	
0.002368695	0.0003705295	0.1436237	0.1860286	-0.0006797225	-0.0008366967	-0.6169076	0.1314654	

3.824e+10	-0.3451822	0.1059282	-0.0006080341	0.000616799	0.1061837	0.1845995	0.00220113	-0.0003881979	
-0.0006080341	0.000616799	-0.3515685	0.1954395	0.001637777	0.001456747	0.1343373	0.1803455	
0.1061837	0.1845995	0.001637777	0.001456747	-0.4988569	0.1083125	-0.0008597973	-0.0006332026	
0.00220113	-0.0003881979	0.1343373	0.1803455	-0.0008597973	-0.0006332026	-0.6110816	0.1352498	

3.826e+10	-0.3673467	0.09459201	-0.0003424475	0.0008146505	0.09803604	0.1885343	0.001806723	-0.000991079	
-0.0003424475	0.0008146505	-0.3471464	0.180482	0.001994632	0.0007793997	0.1237287	0.1773807	
0.09803604	0.1885343	0.001994632	0.0007793997	-0.501956	0.08031047	-0.0009864789	-0.0003818379	
0.001806723	-0.000991079	0.1237287	0.1773807	-0.0009864789	-0.0003818379	-0.6038381	0.1375212	

3.828e+10	-0.3905279	0.09073499	-3.380916e-05	0.0008745067	0.09142369	0.1945937	0.001275351	-0.001384797	
-3.380916e-05	0.0008745067	-0.3474523	0.1644626	0.002053796	2.068391e-05	0.1126571	0.177615	
0.09142369	0.1945937	0.002053796	2.068391e-05	-0.513327	0.05485883	-0.001034636	-9.179278e-05	
0.001275351	-0.001384797	0.1126571	0.177615	-0.001034636	-9.179278e-05	-0.5955655	0.1379351	

3.83e+10	-0.4122999	0.0933696	0.0002455196	0.0008089631	0.08694581	0.2021772	0.0006981487	-0.001557812	
0.0002455196	0.0008089631	-0.3528953	0.1489962	0.001810196	-0.0006728464	0.1022854	0.1811354	
0.08694581	0.2021772	0.001810196	-0.0006728464	-0.5313082	0.0345444	-0.0009810209	0.0002029811	
0.0006981487	-0.001557812	0.1022854	0.1811354	-0.0009810209	0.0002029811	-0.5871122	0.1356535	

3.832e+10	-0.4311671	0.1010499	0.0004514052	0.0006618842	0.08486276	0.2104974	0.0001508965	-0.001530982	
0.0004514052	0.0006618842	-0.3629355	0.1360572	0.001337091	-0.00117665	0.09364952	0.187504	
0.08486276	0.2104974	0.001337091	-0.00117665	-0.5534565	0.02087471	-0.0008250084	0.0004529898	
0.0001508965	-0.001530982	0.09364952	0.187504	-0.0008250084	0.0004529898	-0.5793959	0.1306788	

3.834e+10	-0.4464224	0.1121336	0.0005738876	0.0004850928	0.08516232	0.2187685	-0.0003094937	-0.001344847	
0.0005738876	0.0004850928	-0.3763651	0.1269534	0.0007564876	-0.001426528	0.08758669	0.1959126	
0.08516232	0.2187685	0.0007564876	-0.001426528	-0.5771976	0.01410641	-0.0006002521	0.0006125294	
-0.0003094937	-0.001344847	0.08758669	0.1959126	-0.0006002521	0.0006125294	-0.5734347	0.1232478	

3.836e+10	-0.4579789	0.1253748	0.0006302536	0.0003150711	0.0874915	0.2263278	-0.0006507377	-0.001049532	
0.0006302536	0.0003150711	-0.3915531	0.1224052	0.0001895517	-0.001431101	0.08439274	0.2053011	
0.0874915	0.2263278	0.0001895517	-0.001431101	-0.600423	0.01373035	-0.0003606654	0.0006650932	
-0.0006507377	-0.001049532	0.08439274	0.2053011	-0.0003606654	0.0006650932	-0.5700402	0.1142157	

3.838e+10	-0.4661304	0.1395798	0.000646576	0.000167541	0.09140361	0.2327561	-0.0008599154	-0.0006941121	
0.000646576	0.000167541	-0.40697	0.1224066	-0.0002759798	-0.001246924	0.08402847	0.2147132	
0.09140361	0.2327561	-0.0002759798	-0.001246924	-0.6216131	0.01855763	-0.0001572928	0.0006275993	
-0.0008599154	-0.0006941121	0.08402847	0.2147132	-0.0001572928	0.0006275993	-0.5697211	0.1043578	

3.84e+10	-0.4711375	0.1542645	0.0006432365	4.017597e-05	0.09638856	0.2378407	-0.0009382219	-0.0003208593	
0.0006432365	4.017597e-05	-0.4212158	0.1265311	-0.0005970764	-0.0009488756	0.08604531	0.2233165	
0.09638856	0.2378407	-0.0005970764	-0.0009488756	-0.6400539	0.02716194	-1.886336e-05	0.0005372189	
-0.0009382219	-0.0003208593	0.08604531	0.2233165	-1.886336e-05	0.0005372189	-0.5725737	0.09468629	

3.842e+10	-0.4735428	0.1687142	0.0006292142	-7.676846e-05	0.1020147	0.2415731	-0.0008941442	3.372442e-05	
0.0006292142	-7.676846e-05	-0.4335978	0.1337235	-0.0007677935	-0.0006076734	0.08985843	0.2306653	
0.1020147	0.2415731	-0.0007677935	-0.0006076734	-0.6553113	0.03881789	5.026914e-05	0.0004346628	
-0.0008941442	3.372442e-05	0.08985843	0.2306653	5.026914e-05	0.0004346628	-0.5781688	0.0864079	

3.844e+10	-0.4736099	0.1828458	0.0006039407	-0.000190955	0.1079215	0.2439984	-0.0007420678	0.000337398	
0.0006039407	-0.000190955	-0.4435322	0.1433425	-0.0008059714	-0.0002784626	0.09488508	0.2365708	
0.1079215	0.2439984	-0.0008059714	-0.0002784626	-0.6674636	0.05217889	6.409659e-05	0.0003513412	
-0.0007420678	0.000337398	0.09488508	0.2365708	6.409659e-05	0.0003513412	-0.5859702	0.07995539	

3.846e+10	-0.4715811	0.1964934	0.0005618239	-0.0003046774	0.1138482	0.2452536	-0.0005042377	0.0005606027	
0.0005618239	-0.0003046774	-0.4508882	0.1545494	-0.0007420971	2.072331e-06	0.1006472	0.2410302	
0.1138482	0.2452536	-0.0007420971	2.072331e-06	-0.6766319	0.06658281	4.578867e-05	0.0003056493	
-0.0005042377	0.0005606027	0.1006472	0.2410302	4.578867e-05	0.0003056493	-0.5952393	0.07582958	

3.848e+10	-0.4678275	0.2092694	0.0004976927	-0.0004146178	0.1195944	0.2454658	-0.0002125571	0.0006807681	
0.0004976927	-0.0004146178	-0.4557921	0.1665257	-0.000610274	0.000214672	0.106779	0.2441403	
0.1195944	0.2454658	-0.000610274	0.000214672	-0.6830579	0.08181249	2.121599e-05	0.0003024167	
-0.0002125571	0.0006807681	0.106779	0.2441403	2.121599e-05	0.0003024167	-0.6053073	0.07421516	

3.85e+10	-0.4623451	0.2214194	0.0004083436	-0.0005142419	0.125006	0.2447887	9.488515e-05	0.0006878565	
0.0004083436	-0.0005142419	-0.4583045	0.1790541	-0.0004420052	0.0003542396	0.1130216	0.2460319	
0.125006	0.2447887	-0.0004420052	0.0003542396	-0.6869932	0.09716202	1.258967e-05	0.0003344131	
9.488515e-05	0.0006878565	0.1130216	0.2460319	1.258967e-05	0.0003344131	-0.6155734	0.07503768	

3.852e+10	-0.4553055	0.2326909	0.0002945427	-0.0005943941	0.1299546	0.2433322	0.0003789156	0.000585804	
0.0002945427	-0.0005943941	-0.4586237	0.1916584	-0.0002629395	0.0004245741	0.1191934	0.2468162	
0.1299546	0.2433322	-0.0002629395	0.0004245741	-0.6886374	0.1122751	3.381339e-05	0.0003866443	
0.0003789156	0.000585804	0.1191934	0.2468162	3.381339e-05	0.0003866443	-0.6255264	0.07791343	

3.854e+10	-0.4467705	0.2429806	0.0001615751	-0.0006460724	0.134366	0.2412792	0.0006061751	0.0003905783	
0.0001615751	-0.0006460724	-0.4568709	0.2040812	-9.243645e-05	0.0004345064	0.1251346	0.2466645	
0.134366	0.2412792	-9.243645e-05	0.0004345064	-0.6880942	0.1274065	9.019832e-05	0.0004427456	
0.0006061751	0.0003905783	0.1251346	0.2466645	9.019832e-05	0.0004427456	-0.6347263	0.08299986	

3.856e+10	-0.4368153	0.2520938	1.922832e-05	-0.0006626911	0.1382026	0.2387673	0.0007503327	0.0001276893	
1.922832e-05	-0.0006626911	-0.4532364	0.2159885	5.513147e-05	0.0003956877	0.130753	0.245683	
0.1382026	0.2387673	5.513147e-05	0.0003956877	-0.6855735	0.1419754	0.000180622	0.000488049	
0.0007503327	0.0001276893	0.130753	0.245683	0.000180622	0.000488049	-0.6428459	0.08988849	

3.858e+10	-0.4254188	0.2599826	-0.0001205725	-0.000642413	0.1413947	0.2358888	0.0007952076	-0.0001723949	
-0.0001205725	-0.000642413	-0.4477635	0.22736	0.0001706467	0.000321102	0.1359831	0.2439727	
0.1413947	0.2358888	0.0001706467	0.000321102	-0.6812078	0.1557672	0.0003011949	0.000510268	
0.0007952076	-0.0001723949	0.1359831	0.2439727	0.0003011949	0.000510268	-0.6497191	0.09814478	

3.86e+10	-0.4126797	0.2662599	-0.000245486	-0.0005891625	0.1439086	0.2327897	0.0007348758	-0.0004751396	
-0.000245486	-0.0005891625	-0.4405407	0.2380008	0.0002490473	0.0002243534	0.1407691	0.2416133	
0.1439086	0.2327897	0.0002490473	0.0002243534	-0.6749648	0.1690386	0.0004449366	0.0004979842	
0.0007348758	-0.0004751396	0.1407691	0.2416133	0.0004449366	0.0004979842	-0.6551271	0.1076334	

3.862e+10	-0.3985843	0.2707759	-0.0003467193	-0.0005111408	0.1457221	0.2296479	0.0005747329	-0.0007474656	
-0.0003467193	-0.0005111408	-0.4316707	0.2476205	0.0002894177	0.0001182683	0.1450465	0.2386722	
0.1457221	0.2296479	0.0002894177	0.0001182683	-0.6669299	0.1813258	0.00060167	0.0004417927	
0.0005747329	-0.0007474656	0.1450465	0.2386722	0.00060167	0.0004417927	-0.6589425	0.1180876	

3.864e+10	-0.3833065	0.2731072	-0.0004197033	-0.0004183869	0.1468549	0.2266646	0.0003291706	-0.0009608815	
-0.0004197033	-0.0004183869	-0.4210563	0.2562076	0.0002939228	1.408213e-05	0.1487226	0.2352286	
0.1468549	0.2266646	0.0002939228	1.408213e-05	-0.6571643	0.1922928	0.0007582619	0.0003345124	
0.0003291706	-0.0009608815	0.1487226	0.2352286	0.0007582619	0.0003345124	-0.6610891	0.1292213	

3.866e+10	-0.3672402	0.2726372	-0.0004630556	-0.0003212331	0.1473847	0.2240138	1.869743e-05	-0.00109304	
-0.0004630556	-0.0003212331	-0.4088718	0.263197	0.0002665521	-7.824839e-05	0.1517084	0.2313673	
0.1473847	0.2240138	0.0002665521	-7.824839e-05	-0.6456781	0.201972	0.0008996426	0.0001733416	
1.869743e-05	-0.00109304	0.1517084	0.2313673	0.0008996426	0.0001733416	-0.6614525	0.1408374	

3.868e+10	-0.3507964	0.2690783	-0.0004785211	-0.0002301938	0.147496	0.2218901	-0.0003321447	-0.001127078	
-0.0004785211	-0.0002301938	-0.3950853	0.2683989	0.0002135805	-0.0001493175	0.1539037	0.2272124	
0.147496	0.2218901	0.0002135805	-0.0001493175	-0.6327679	0.2096356	0.001009541	-4.165395e-05	
-0.0003321447	-0.001127078	0.1539037	0.2272124	0.001009541	-4.165395e-05	-0.6599824	0.1524903	

3.87e+10	-0.3346997	0.2619668	-0.0004715334	-0.0001560361	0.147436	0.2204036	-0.0006956062	-0.001050946	
-0.0004715334	-0.0001560361	-0.3798561	0.271349	0.000145025	-0.0001912019	0.1552578	0.2229463	
0.147436	0.2204036	0.000145025	-0.0001912019	-0.618491	0.2153813	0.001069817	-0.0003088272	
-0.0006956062	-0.001050946	0.1552578	0.2229463	0.001069817	-0.0003088272	-0.656553	0.1643058	

3.872e+10	-0.3198397	0.2511472	-0.0004531997	-0.0001083854	0.147487	0.2195749	-0.001038117	-0.00085911	
-0.0004531997	-0.0001083854	-0.3635048	0.2714419	7.541697e-05	-0.000199501	0.1557166	0.2187586	
0.147487	0.2195749	7.541697e-05	-0.000199501	-0.6031932	0.2187102	0.001057787	-0.0006202032	
-0.001038117	-0.00085911	0.1557166	0.2187586	0.001057787	-0.0006202032	-0.6511727	0.1756999	

3.874e+10	-0.3074197	0.2365741	-0.000441278	-9.162527e-05	0.1479993	0.2193023	-0.001322009	-0.0005576229	
-0.000441278	-9.162527e-05	-0.346409	0.2682185	2.2379e-05	-0.0001777467	0.1552615	0.2148641	
0.1479993	0.2193023	2.2379e-05	-0.0001777467	-0.5873154	0.219121	0.0009481313	-0.0009570762	
-0.001322009	-0.0005576229	0.1552615	0.2148641	0.0009481313	-0.0009570762	-0.6437843	0.1863058	

3.876e+10	-0.2987733	0.2188292	-0.0004578533	-9.982817e-05	0.149316	0.2192917	-0.001511434	-0.0001657959	
-0.0004578533	-9.982817e-05	-0.329501	0.260972	1.716616e-06	-0.0001402995	0.1539992	0.2116043	
0.149316	0.2192917	1.716616e-06	-0.0001402995	-0.5713481	0.2166925	0.0007202739	-0.001286721	
-0.001511434	-0.0001657959	0.1539992	0.2116043	0.0007202739	-0.001286721	-0.6343598	0.1960032	

3.878e+10	-0.2949451	0.1990179	-0.0005230355	-0.0001114609	0.1515781	0.2189637	-0.001578106	0.0002853681	
-0.0005230355	-0.0001114609	-0.3138156	0.249352	1.942875e-05	-0.0001117131	0.1521236	0.2092342	
0.1515781	0.2189637	1.942875e-05	-0.0001117131	-0.5559304	0.2109561	0.0003645755	-0.001563456	
-0.001578106	0.0002853681	0.1521236	0.2092342	0.0003645755	-0.001563456	-0.6229944	0.2039871	

3.88e+10	-0.2966672	0.1786788	-0.0006431852	-9.234067e-05	0.1545827	0.217712	-0.001506212	0.0007555706	
-0.0006431852	-9.234067e-05	-0.3008673	0.2333766	6.436669e-05	-0.0001193722	0.1500247	0.2079761	
0.1545827	0.217712	6.436669e-05	-0.0001193722	-0.5417626	0.2021257	-0.0001073844	-0.001733377	
-0.001506212	0.0007555706	0.1500247	0.2079761	-0.0001073844	-0.001733377	-0.6098039	0.2100914	

3.882e+10	-0.3040455	0.1595597	-0.000804026	-2.525931e-06	0.1577457	0.2150593	-0.001292402	0.001203077	
-0.000804026	-2.525931e-06	-0.2923576	0.2136602	0.0001070303	-0.0001816652	0.148239	0.207854	
0.1577457	0.2150593	0.0001070303	-0.0001816652	-0.5294675	0.1903069	-0.0006610008	-0.001744682	
-0.001292402	0.001203077	0.148239	0.207854	-0.0006610008	-0.001744682	-0.5952272	0.2134739	

3.884e+10	-0.3165218	0.1434474	-0.0009664003	0.000189425	0.1602638	0.2109332	-0.000945087	0.001586657	
-0.0009664003	0.000189425	-0.2897588	0.1917144	0.0001069018	-0.0002956677	0.1472554	0.208601	
0.1602638	0.2109332	0.0001069018	-0.0002956677	-0.519843	0.1757549	-0.001236744	-0.001556473	
-0.000945087	0.001586657	0.1472554	0.208601	-0.001236744	-0.001556473	-0.5797086	0.2139808	

3.886e+10	-0.3328002	0.1319665	-0.00107105	0.000493081	0.1613568	0.2056676	-0.0004818789	0.001868668	
-0.00107105	0.000493081	-0.2938041	0.1696963	2.725846e-05	-0.0004300269	0.1474104	0.209666	
0.1613568	0.2056676	2.725846e-05	-0.0004300269	-0.5137373	0.1588318	-0.001753558	-0.001151434	
-0.0004818789	0.001868668	0.1474104	0.209666	-0.001753558	-0.001151434	-0.5639429	0.2109618	

3.888e+10	-0.3512658	0.1259097	-0.001054008	0.0008815999	0.1604386	0.1999882	7.104304e-05	0.002014248	
-0.001054008	0.0008815999	-0.3042813	0.1499889	-0.000142901	-0.0005299825	0.1487083	0.2103784	
0.1604386	0.1999882	-0.000142901	-0.0005299825	-0.5119366	0.1406264	-0.002117348	-0.0005519225	
7.104304e-05	0.002014248	0.1487083	0.2103784	-0.002117348	-0.0005519225	-0.5486529	0.2043693	

3.89e+10	-0.3699875	0.1255218	-0.0008689182	0.001291625	0.1573791	0.1949028	0.0006774493	0.001990792	
-0.0008689182	0.001291625	-0.3199727	0.1347013	-0.0003753097	-0.000540201	0.1507293	0.2101178	
0.1573791	0.1949028	-0.0003753097	-0.000540201	-0.5150263	0.1222217	-0.002246858	0.0001728863	
0.0006774493	0.001990792	0.1507293	0.2101178	-0.002246858	0.0001728863	-0.5348416	0.1940324	

3.892e+10	-0.387188	0.1303784	-0.0005113793	0.001637822	0.1525935	0.1913834	0.00128587	0.001771019	
-0.0005113793	0.001637822	-0.3389342	0.1251739	-0.0006101386	-0.0004347258	0.1527835	0.2085917	
0.1525935	0.1913834	-0.0006101386	-0.0004347258	-0.5229795	0.1050713	-0.002098975	0.0009178923	
0.00128587	0.001771019	0.1527835	0.2085917	-0.002098975	0.0009178923	-0.5235901	0.1799799	

3.894e+10	-0.4016303	0.139234	-2.388624e-05	0.001844345	0.1469365	0.1900656	0.001825193	0.001342749	
-2.388624e-05	0.001844345	-0.3590829	0.1216826	-0.000785281	-0.000230674	0.1540844	0.2059614	
0.1469365	0.1900656	-0.000785281	-0.000230674	-0.5351452	0.09089737	-0.001682057	0.001566897	
0.001825193	0.001342749	0.1540844	0.2059614	-0.001682057	0.001566897	-0.5160091	0.1629941	

3.896e+10	-0.4124238	0.1510073	0.0005185583	0.001871383	0.1414294	0.1910472	0.002210832	0.0007257304	
0.0005185583	0.001871383	-0.3783873	0.1240416	-0.0008666877	2.436016e-05	0.1540501	0.2028065	
0.1414294	0.1910472	-0.0008666877	2.436016e-05	-0.550479	0.08040432	-0.001056121	0.002017599	
0.002210832	0.0007257304	0.1540501	0.2028065	-0.001056121	0.002017599	-0.5132693	0.1437903	

3.898e+10	-0.4194049	0.1641941	0.001039799	0.001724239	0.1369243	0.1939588	0.002363231	-1.804843e-05	
0.001039799	0.001724239	-0.3954219	0.1312328	-0.000855065	0.0002816273	0.152517	0.1999393	
0.1369243	0.1939588	-0.000855065	0.0002816273	-0.5676183	0.07452681	-0.0003165949	0.002202462	
0.002363231	-1.804843e-05	0.152517	0.1999393	-0.0003165949	0.002202462	-0.5160787	0.1241854	

3.9e+10	-0.4227941	0.1777263	0.001487496	0.001437663	0.1339687	0.1981762	0.002234959	-0.0007858698	
0.001487496	0.001437663	-0.4093059	0.1419749	-0.0007732805	0.0005106595	0.1498411	0.1981542	
0.1339687	0.1981762	-0.0007732805	0.0005106595	-0.5852221	0.07310073	0.0004151047	0.002102208	
0.002234959	-0.0007858698	0.1498411	0.1981542	0.0004151047	0.002102208	-0.524738	0.1057104	

3.902e+10	-0.4229669	0.1907991	0.001837016	0.001054582	0.1327351	0.2029952	0.001832641	-0.001456287	
0.001837016	0.001054582	-0.4194437	0.1552402	-0.000645601	0.0007030703	0.1466741	0.1978646	
0.1327351	0.2029952	-0.000645601	0.0007030703	-0.6020384	0.07594839	0.001024672	0.001756118	
0.001832641	-0.001456287	0.1466741	0.1978646	0.001024672	0.001756118	-0.5385672	0.09051181	

3.904e+10	-0.4205978	0.2026913	0.002083493	0.0006108746	0.1331771	0.2078194	0.00122317	-0.001924362	
0.002083493	0.0006108746	-0.4258645	0.1696443	-0.0004868357	0.000862234	0.1437942	0.1991045	
0.1331771	0.2078194	-0.0004868357	0.000862234	-0.6172091	0.082134	0.001434658	0.001251179	
0.00122317	-0.001924362	0.1437942	0.1991045	0.001434658	0.001251179	-0.5561553	0.0801432	

3.906e+10	-0.4162158	0.2131718	0.002231564	0.0001291831	0.1350477	0.212154	0.0005112242	-0.00213186	
0.002231564	0.0001291831	-0.4287263	0.1843727	-0.0003003326	0.0009928704	0.1417961	0.2015236	
0.1350477	0.212154	-0.0003003326	0.0009928704	-0.6302538	0.09093325	0.00162321	0.0006895467	
0.0005112242	-0.00213186	0.1417961	0.2015236	0.00162321	0.0006895467	-0.5756624	0.07517419	

3.908e+10	-0.4104229	0.2220074	0.002285839	-0.0003781067	0.1380529	0.215693	-0.0001910887	-0.002076024	
0.002285839	-0.0003781067	-0.4285265	0.1985519	-8.377897e-05	0.001093796	0.1409978	0.2046019	
0.1380529	0.215693	-8.377897e-05	0.001093796	-0.6408676	0.1018475	0.00161468	0.0001570491	
-0.0001910887	-0.002076024	0.1409978	0.2046019	0.00161468	0.0001570491	-0.595117	0.07591955	

3.91e+10	-0.4035447	0.2293385	0.002245289	-0.000906563	0.1418071	0.2182219	-0.0007934325	-0.001797253	
0.002245289	-0.000906563	-0.4256714	0.211861	0.0001651761	0.001156969	0.1414376	0.2077913	
0.1418071	0.2182219	0.0001651761	0.001156969	-0.6490976	0.1139862	0.001456231	-0.0002919088	
-0.0007934325	-0.001797253	0.1414376	0.2077913	0.001456231	-0.0002919088	-0.6131479	0.08126686	

3.912e+10	-0.3960506	0.2348773	0.00209991	-0.0014502	0.1459685	0.2196753	-0.001235537	-0.001361174	
0.00209991	-0.0014502	-0.4206641	0.2238594	0.0004439702	0.001170852	0.1429724	0.2106779	
0.1459685	0.2196753	0.0004439702	0.001170852	-0.6548461	0.1271706	0.001201302	-0.0006306977	
-0.001235537	-0.001361174	0.1429724	0.2106779	0.001201302	-0.0006306977	-0.6287316	0.09048959	

3.914e+10	-0.3881423	0.2389735	0.001830235	-0.001997771	0.1502035	0.2200663	-0.001488936	-0.0008382876	
0.001830235	-0.001997771	-0.4138472	0.234525	0.0007451518	0.001121162	0.1453255	0.2129593	
0.1502035	0.2200663	0.0007451518	0.001121162	-0.6582834	0.1406431	0.0008962139	-0.0008539303	
-0.001488936	-0.0008382876	0.1453255	0.2129593	0.0008962139	-0.0008539303	-0.6414283	0.1023957	

3.916e+10	-0.380336	0.2413685	0.001414727	-0.002523489	0.1542605	0.2195068	-0.001549687	-0.0002975812	
0.001414727	-0.002523489	-0.4056284	0.2436298	0.001054755	0.0009960033	0.1481772	0.2144826	
0.1542605	0.2195068	0.001054755	0.0009960033	-0.6594664	0.1543122	0.0005799313	-0.0009703009	
-0.001549687	-0.0002975812	0.1481772	0.2144826	0.0005799313	-0.0009703009	-0.6509622	0.1161885	

3.918e+10	-0.372796	0.2424667	0.0008358865	-0.002987567	0.1579115	0.2181061	-0.001433133	0.0001991186	
0.0008358865	-0.002987567	-0.3962327	0.2510691	0.001354597	0.0007865596	0.1512193	0.2152272	
0.1579115	0.2181061	0.001354597	0.0007865596	-0.6586016	0.1676306	0.0002793602	-0.0009967933	
-0.001433133	0.0001991186	0.1512193	0.2152272	0.0002793602	-0.0009967933	-0.6573812	0.1311191	

3.92e+10	-0.3658829	0.2423563	9.006032e-05	-0.003336885	0.1609701	0.2160208	-0.001171493	0.0005984516	
9.006032e-05	-0.003336885	-0.38586	0.2568504	0.001623017	0.0004890597	0.154235	0.2152823	
0.1609701	0.2160208	0.001623017	0.0004890597	-0.6557391	0.1806206	9.541465e-06	-0.0009523822	
-0.001171493	0.0005984516	0.154235	0.2152823	9.541465e-06	-0.0009523822	-0.6607767	0.1464907	

3.922e+10	-0.3598302	0.2413403	-0.0008120943	-0.003503615	0.1632587	0.2134409	-0.0008084068	0.0008647895	
-0.0008120943	-0.003503615	-0.374792	0.2607784	0.001836679	0.0001018406	0.157031	0.2147523	
0.1632587	0.2134409	0.001836679	0.0001018406	-0.6510578	0.1928521	-0.0002222215	-0.0008537325	
-0.0008084068	0.0008647895	0.157031	0.2147523	-0.0002222215	-0.0008537325	-0.6614345	0.1617296	

3.924e+10	-0.3547848	0.2397561	-0.00183613	-0.003415774	0.1646339	0.2106459	-0.000399833	0.0009748935	
-0.00183613	-0.003415774	-0.3633522	0.2627333	0.001968016	-0.000371647	0.1594799	0.213764	
0.1646339	0.2106459	0.001968016	-0.000371647	-0.6444783	0.2043168	-0.000412924	-0.0007111865	
-0.000399833	0.0009748935	0.1594799	0.213764	-0.000412924	-0.0007111865	-0.6594974	0.1765884	

3.926e+10	-0.3506993	0.2380667	-0.002902336	-0.002998117	0.1650755	0.2079303	-4.508721e-06	0.000925909	
-0.002902336	-0.002998117	-0.3518524	0.262645	0.001983245	-0.0009215594	0.1615098	0.2124732	
0.1650755	0.2079303	0.001983245	-0.0009215594	-0.6361256	0.2146981	-0.0005578277	-0.0005319552	
-4.508721e-06	0.000925909	0.1615098	0.2124732	-0.0005578277	-0.0005319552	-0.655147	0.1907099	

3.928e+10	-0.3473496	0.2366794	-0.003891519	-0.002199923	0.1646449	0.2056134	0.0003213251	0.0007361144	
-0.003891519	-0.002199923	-0.3406609	0.2604549	0.001843223	-0.001526256	0.1630574	0.2110478	
0.1646449	0.2056134	0.001843223	-0.001526256	-0.6262477	0.2233663	-0.0006491426	-0.0003230849	
0.0003213251	0.0007361144	0.1630574	0.2110478	-0.0006491426	-0.0003230849	-0.6485505	0.2037408	

3.93e+10	-0.3444024	0.2358172	-0.004644224	-0.001028749	0.1634847	0.2039674	0.0005290387	0.0004437746	
-0.004644224	-0.001028749	-0.3302611	0.2561768	0.001508321	-0.002143259	0.1641102	0.209659	
0.1634847	0.2039674	0.001508321	-0.002143259	-0.6149519	0.2304106	-0.0006765143	-9.555956e-05	
0.0005290387	0.0004437746	0.1641102	0.209659	-0.0006765143	-9.555956e-05	-0.6398764	0.2153422	

3.932e+10	-0.3414204	0.2354423	-0.005000476	0.0004366055	0.1617905	0.2032601	0.0005866562	0.000105461	
-0.005000476	0.0004366055	-0.3212009	0.249958	0.0009460636	-0.002706833	0.1647521	0.2084926	
0.1617905	0.2032601	0.0009460636	-0.002706833	-0.6025414	0.2352846	-0.0006307212	0.0001327988	
0.0005866562	0.000105461	0.1647521	0.2084926	-0.0006307212	0.0001327988	-0.6293952	0.2251083	

3.934e+10	-0.3379604	0.2354138	-0.00483441	0.002037165	0.1598898	0.2037172	0.0004894218	-0.0002104746	
-0.00483441	0.002037165	-0.3140451	0.2421968	0.0001508357	-0.00312316	0.165105	0.207677	
0.1598898	0.2037172	0.0001508357	-0.00312316	-0.5894563	0.2376773	-0.0005076332	0.0003370154	
0.0004894218	-0.0002104746	0.165105	0.207677	-0.0005076332	0.0003370154	-0.6175341	0.232608	

3.936e+10	-0.3338287	0.2353157	-0.004094073	0.003558923	0.1582293	0.2055021	0.0002623187	-0.0004410582	
-0.004094073	0.003558923	-0.3090576	0.2335689	-0.0008424856	-0.003283644	0.1653214	0.2072874	
0.1582293	0.2055021	-0.0008424856	-0.003283644	-0.5761401	0.2374678	-0.0003117931	0.0004877248	
0.0002623187	-0.0004410582	0.1653214	0.2072874	-0.0003117931	0.0004877248	-0.6045754	0.2379048	

3.938e+10	-0.3290492	0.2347085	-0.002827512	0.004771554	0.1573212	0.2085829	-4.488083e-05	-0.0005383023	
-0.002827512	0.004771554	-0.306472	0.2246324	-0.001940671	-0.003084121	0.1655221	0.2073831	
0.1573212	0.2085829	-0.001940671	-0.003084121	-0.563484	0.2342097	-6.257395e-05	0.0005525482	
-4.488083e-05	-0.0005383023	0.1655221	0.2073831	-6.257395e-05	0.0005525482	-0.5911989	0.2403014	

3.94e+10	-0.3238422	0.2332189	-0.001189107	0.005476696	0.1577498	0.2127203	-0.000366965	-0.0004792764	
-0.001189107	0.005476696	-0.3060333	0.2162029	-0.002988381	-0.002464307	0.1659085	0.2080087	
0.1577498	0.2127203	-0.002988381	-0.002464307	-0.5521931	0.2283872	0.0002026695	0.0005049454	
-0.000366965	-0.0004792764	0.1659085	0.2080087	0.0002026695	0.0005049454	-0.5778807	0.2399571	

3.942e+10	-0.3185167	0.2306524	0.0005944792	0.00556544	0.1599518	0.2174218	-0.0006327238	-0.0002690968	
0.0005944792	0.00556544	-0.3074326	0.2087741	-0.003798721	-0.001444516	0.1667169	0.2091419	
0.1599518	0.2174218	-0.003798721	-0.001444516	-0.5430106	0.2204938	0.0004284886	0.0003375265	
-0.0006327238	-0.0002690968	0.1667169	0.2091419	0.0004284886	0.0003375265	-0.5654059	0.2369783	

3.944e+10	-0.3135095	0.2268597	0.002268629	0.005043455	0.1642102	0.222047	-0.0007757047	5.397047e-05	
0.002268629	0.005043455	-0.3101357	0.2027153	-0.004202413	-0.0001386741	0.168216	0.2106451	
0.1642102	0.222047	-0.004202413	-0.0001386741	-0.5364036	0.2110787	0.000555407	7.656822e-05	
-0.0007757047	5.397047e-05	0.168216	0.2106451	0.000555407	7.656822e-05	-0.5545022	0.2316122	

3.946e+10	-0.3091871	0.2219281	0.003621365	0.004026312	0.1705799	0.2258255	-0.0007534525	0.0004207453	
0.003621365	0.004026312	-0.3136275	0.1981139	-0.004100849	0.001258453	0.1706094	0.2122256	
0.1705799	0.2258255	-0.004100849	0.001258453	-0.5324922	0.201212	0.0005459079	-0.0002186571	
-0.0007534525	0.0004207453	0.1706094	0.2122256	0.0005459079	-0.0002186571	-0.5457015	0.2245877	

3.948e+10	-0.3057619	0.2161712	0.004531781	0.002691523	0.1788168	0.2279142	-0.0005620219	0.0007482708	
0.004531781	0.002691523	-0.3173363	0.1949213	-0.003495667	0.002534162	0.1739442	0.2135277	
0.1788168	0.2279142	-0.003495667	0.002534162	-0.5312349	0.1913611	0.0004030516	-0.0004768121	
-0.0005620219	0.0007482708	0.1739442	0.2135277	0.0004030516	-0.0004768121	-0.5392234	0.2164385	

3.95e+10	-0.3034803	0.2097482	0.004966955	0.001225058	0.188338	0.227613	-0.0002400615	0.0009628342	
0.004966955	0.001225058	-0.3209326	0.192912	-0.002486096	0.003500864	0.1781482	0.2142379	
0.188338	0.227613	-0.002486096	0.003500864	-0.5321378	0.182399	0.0001652405	-0.0006438026	
-0.0002400615	0.0009628342	0.1781482	0.2142379	0.0001652405	-0.0006438026	-0.5348607	0.2079959	

3.952e+10	-0.3025218	0.2027502	0.004961802	-0.0002271712	0.1982662	0.2243988	0.00014617	0.001021293	
0.004961802	-0.0002271712	-0.324318	0.1917248	-0.001232974	0.004042971	0.1830844	0.2139858	
0.1982662	0.2243988	-0.001232974	0.004042971	-0.5346481	0.1746466	-0.000114861	-0.000695854	
0.00014617	0.001021293	0.1830844	0.2139858	-0.000114861	-0.000695854	-0.5324579	0.1997136	

3.954e+10	-0.3029472	0.1954607	0.004576626	-0.001560328	0.2075807	0.2181641	0.000523246	0.000915639	
0.004576626	-0.001560328	-0.3273725	0.1912244	8.521722e-05	0.004123219	0.1884608	0.212485	
0.2075807	0.2181641	8.521722e-05	0.004123219	-0.5382533	0.1680596	-0.0003877538	-0.0006347443	
0.000523246	0.000915639	0.1884608	0.212485	-0.0003877538	-0.0006347443	-0.5315944	0.1920148	

3.956e+10	-0.3050353	0.1880261	0.003875722	-0.00270354	0.2152758	0.209142	0.0008255537	0.0006693317	
0.003875722	-0.00270354	-0.3300788	0.1911861	0.001300626	0.00377344	0.1938488	0.2095063	
0.2152758	0.209142	0.001300626	0.00377344	-0.54272	0.1624109	-0.000613229	-0.0004799694	
0.0008255537	0.0006693317	0.1938488	0.2095063	-0.000613229	-0.0004799694	-0.5319264	0.1848201	

3.958e+10	-0.3090873	0.1808332	0.002916145	-0.003606799	0.2204345	0.197861	0.001006136	0.0003265445	
0.002916145	-0.003606799	-0.3324687	0.1914869	0.00228243	0.003078231	0.1987185	0.2050186	
0.2204345	0.197861	0.00228243	0.003078231	-0.5480881	0.1575759	-0.0007665105	-0.0002616881	
0.001006136	0.0003265445	0.1987185	0.2050186	-0.0007665105	-0.0002616881	-0.5331271	0.1780715	

3.96e+10	-0.3152911	0.1744811	0.001754546	-0.00421793	0.2223077	0.1851475	0.001039652	-5.675324e-05	
0.001754546	-0.00421793	-0.334743	0.1918643	0.002942662	0.002158439	0.2025719	0.199192	
0.2223077	0.1851475	0.002942662	0.002158439	-0.5545115	0.1537797	-0.0008393019	-1.215917e-05	
0.001039652	-5.675324e-05	0.2025719	0.199192	-0.0008393019	-1.215917e-05	-0.5351567	0.171614	

3.962e+10	-0.323514	0.1698486	0.0004602717	-0.004483034	0.2204554	0.1721705	0.0009223777	-0.0004200018	
0.0004602717	-0.004483034	-0.3369295	0.192493	0.003249479	0.001155171	0.2049948	0.1923683	
0.2204554	0.1721705	0.003249479	0.001155171	-0.562088	0.1512421	-0.0008360413	0.0002428924	
0.0009223777	-0.0004200018	0.2049948	0.1923683	-0.0008360413	0.0002428924	-0.538265	0.1652835	

3.964e+10	-0.3334826	0.1675784	-0.0008729813	-0.004353027	0.2148695	0.1602055	0.0006723809	-0.0007046152	
-0.0008729813	-0.004353027	-0.3393279	0.1933138	0.003232724	0.0001966628	0.2056617	0.1849318	
0.2148695	0.1602055	0.003232724	0.0001966628	-0.5705681	0.1506441	-0.0007635463	0.0004886838	
0.0006723809	-0.0007046152	0.2056617	0.1849318	-0.0007635463	0.0004886838	-0.5427281	0.1593219	

3.966e+10	-0.3442165	0.1685554	-0.002110487	-0.003808987	0.2060855	0.1504676	0.0003329952	-0.000860517	
-0.002110487	-0.003808987	-0.3419583	0.1945753	0.002966741	-0.0006251905	0.2043586	0.1774209	
0.2060855	0.1504676	0.002966741	-0.0006251905	-0.5794128	0.1524385	-0.0006227698	0.0007131403	
0.0003329952	-0.000860517	0.2043586	0.1774209	-0.0006227698	0.0007131403	-0.54874	0.1540372	

3.968e+10	-0.354562	0.1730081	-0.003102534	-0.002891136	0.195141	0.1438651	-3.101093e-05	-0.0008600611	
-0.003102534	-0.002891136	-0.3446899	0.1965279	0.002542043	-0.001268358	0.2010576	0.1705032	
0.195141	0.1438651	0.002542043	-0.001268358	-0.5877662	0.156832	-0.0004162619	0.0008963499	
-3.101093e-05	-0.0008600611	0.2010576	0.1705032	-0.0004162619	0.0008963499	-0.5562184	0.1500793	

3.97e+10	-0.3632238	0.1807011	-0.003720614	-0.001711291	0.1831904	0.1407041	-0.0003479882	-0.0007100187	
-0.003720614	-0.001711291	-0.3472968	0.199382	0.002037958	-0.001736586	0.1959837	0.1648408	
0.1831904	0.1407041	0.002037958	-0.001736586	-0.5946826	0.1636912	-0.000154264	0.001015348	
-0.0003479882	-0.0007100187	0.1959837	0.1648408	-0.000154264	0.001015348	-0.5649812	0.1479039	

3.972e+10	-0.3692161	0.1907299	-0.003897297	-0.0004268235	0.1712276	0.1408733	-0.0005575596	-0.0004508588	
-0.003897297	-0.0004268235	-0.3495423	0.2031119	0.001502496	-0.002059228	0.1896367	0.1609488	
0.1712276	0.1408733	0.001502496	-0.002059228	-0.5992926	0.1724105	0.0001396632	0.001051768	
-0.0005575596	-0.0004508588	0.1896367	0.1609488	0.0001396632	0.001051768	-0.5745831	0.1478486	

3.974e+10	-0.3719152	0.2021016	-0.003638191	0.0007905937	0.1600918	0.1440057	-0.000628085	-0.000147316	
-0.003638191	0.0007905937	-0.3511121	0.2077298	0.0009547944	-0.002266824	0.1826944	0.1590995	
0.1600918	0.1440057	0.0009547944	-0.002266824	-0.6009932	0.1819085	0.0004360297	0.0009993159	
-0.000628085	-0.000147316	0.1826944	0.1590995	0.0004360297	0.0009993159	-0.5842317	0.15044	

3.976e+10	-0.3713378	0.2134425	-0.00301415	0.00179822	0.1502348	0.1496486	-0.0005649244	0.0001334384	
-0.00301415	0.00179822	-0.3516544	0.2130534	0.0003882774	-0.002373146	0.1757708	0.1592451	
0.1502348	0.1496486	0.0003882774	-0.002373146	-0.5996719	0.1911491	0.0007079893	0.0008629331	
-0.0005649244	0.0001334384	0.1757708	0.1592451	0.0007079893	0.0008629331	-0.5931364	0.1554958	

3.978e+10	-0.3678348	0.223823	-0.002138679	0.002497003	0.1420651	0.1574253	-0.0004046206	0.0003392764	
-0.002138679	0.002497003	-0.3508759	0.2188261	-0.0002026289	-0.002364534	0.1693854	0.1612133	
0.1420651	0.1574253	-0.0002026289	-0.002364534	-0.595838	0.1989022	0.0009333515	0.0006554352	
-0.0004046206	0.0003392764	0.1693854	0.1612133	0.0009333515	0.0006554352	-0.600585	0.1626127	

3.98e+10	-0.3621021	0.2324654	-0.001141838	0.00283898	0.1358579	0.1669587	-0.0001994773	0.0004492989	
-0.001141838	0.00283898	-0.3487594	0.2245017	-0.0008012399	-0.00220738	0.1639056	0.1647143	
0.1358579	0.1669587	-0.0008012399	-0.00220738	-0.5903547	0.2043133	0.001097339	0.0003927313	
-0.0001994773	0.0004492989	0.1639056	0.1647143	0.001097339	0.0003927313	-0.6060647	0.1712706	

3.982e+10	-0.3549204	0.2390365	-0.000152469	0.002824388	0.1319236	0.177953	5.302886e-06	0.0004732403	
-0.000152469	0.002824388	-0.3454406	0.229684	-0.001356866	-0.001874436	0.1596025	0.1694371	
0.1319236	0.177953	-0.001356866	-0.001874436	-0.5842712	0.2071308	0.001188805	8.990629e-05	
5.302886e-06	0.0004732403	0.1596025	0.1694371	0.001188805	8.990629e-05	-0.609471	0.1806492	

3.984e+10	-0.3472437	0.2433234	0.000708881	0.002495156	0.1306234	0.1899516	0.0001851052	0.0004361016	
0.000708881	0.002495156	-0.3410393	0.2342146	-0.001794344	-0.00137188	0.1566518	0.1749841	
0.1306234	0.1899516	-0.001794344	-0.00137188	-0.5786684	0.2074212	0.001198162	-0.0002350484	
0.0001851052	0.0004361016	0.1566518	0.1749841	0.001198162	-0.0002350484	-0.6107987	0.1902426	

3.986e+10	-0.3398139	0.2456229	0.001349589	0.001933225	0.1323058	0.2024156	0.0003371282	0.0003606035	
0.001349589	0.001933225	-0.3359148	0.2377529	-0.002043563	-0.0007478379	0.1550585	0.1810313	
0.1323058	0.2024156	-0.002043563	-0.0007478379	-0.5746248	0.2056323	0.001116975	-0.0005622438	
0.0003371282	0.0003606035	0.1550585	0.1810313	0.001116975	-0.0005622438	-0.61019	0.1996766	

3.988e+10	-0.3331854	0.2464543	0.001718049	0.001245809	0.137154	0.2145112	0.0004671236	0.0002563682	
0.001718049	0.001245809	-0.3302268	0.2402762	-0.002063019	-8.574473e-05	0.1547862	0.1873239	
0.137154	0.2145112	-0.002063019	-8.574473e-05	-0.5728952	0.2026478	0.0009420742	-0.000864917	
0.0004671236	0.0002563682	0.1547862	0.1873239	0.0009420742	-0.000864917	-0.6079291	0.2083777	

3.99e+10	-0.3276207	0.2465215	0.001810521	0.0005464905	0.1450348	0.2253521	0.0005790993	0.0001214127	
0.001810521	0.0005464905	-0.3243123	0.2416469	-0.001854587	0.0005188569	0.1557969	0.1937376	
0.1450348	0.2253521	-0.001854587	0.0005188569	-0.5736803	0.1997766	0.0006778287	-0.001113869	
0.0005790993	0.0001214127	0.1557969	0.1937376	0.0006778287	-0.001113869	-0.6043867	0.2160448	

3.992e+10	-0.3229971	0.2464144	0.001666831	-6.756751e-05	0.1554514	0.2340972	0.0006675331	-5.141192e-05	
0.001666831	-6.756751e-05	-0.3184296	0.2419641	-0.001466967	0.0009798254	0.1581329	0.200073	
0.1554514	0.2340972	-0.001466967	0.0009798254	-0.5766084	0.1979795	0.0003423051	-0.001278571	
0.0006675331	-5.141192e-05	0.1581329	0.200073	0.0003423051	-0.001278571	-0.5998754	0.2226151	

3.994e+10	-0.3189659	0.2465249	0.001356063	-0.0005306709	0.1676479	0.2402372	0.0007182682	-0.0002678924	
0.001356063	-0.0005306709	-0.3129891	0.2412081	-0.000978187	0.001247528	0.1618336	0.2061197	
0.1676479	0.2402372	-0.000978187	0.001247528	-0.5808488	0.1981897	-3.621212e-05	-0.001334809	
0.0007182682	-0.0002678924	0.1618336	0.2061197	-3.621212e-05	-0.001334809	-0.5948569	0.2279869	

3.996e+10	-0.3150457	0.2471162	0.000959616	-0.0008132954	0.1808351	0.2435568	0.0007074049	-0.0005255952	
0.000959616	-0.0008132954	-0.307985	0.2398461	-0.0004790847	0.001312709	0.1668407	0.2115833	
0.1808351	0.2435568	-0.0004790847	0.001312709	-0.5855417	0.2004757	-0.0004173009	-0.001271471	
0.0007074049	-0.0005255952	0.1668407	0.2115833	-0.0004173009	-0.001271471	-0.5895558	0.2323511	

3.998e+10	-0.3109718	0.2479791	0.0005544799	-0.0009213155	0.1943331	0.2441002	0.000608107	-0.0008075423	
0.0005544799	-0.0009213155	-0.3036769	0.2378564	-4.493362e-05	0.001207564	0.173054	0.2162386	
0.1943331	0.2441002	-4.493362e-05	0.001207564	-0.5898665	0.2048362	-0.0007594233	-0.001095521	
0.000608107	-0.0008075423	0.173054	0.2162386	-0.0007594233	-0.001095521	-0.5842122	0.2356813	

4e+10	-0.3063164	0.2490254	0.0001999998	-0.0008880473	0.2075754	0.2420285	0.0003998575	-0.001079739	
0.0001999998	-0.0008880473	-0.300047	0.2354361	0.0002784159	0.0009864632	0.1803449	0.2198682	
0.2075754	0.2420285	0.0002784159	0.0009864632	-0.5931656	0.2111001	-0.001030975	-0.0008286289	
0.0003998575	-0.001079739	0.1803449	0.2198682	-0.001030975	-0.0008286289	-0.5788999	0.2382508	

4.002e+10	-0.3008865	0.2499782	-7.382219e-05	-0.0007613795	0.2200646	0.2376066	7.545374e-05	-0.001300313	
-7.382219e-05	-0.0007613795	-0.2970522	0.2329187	0.0004668606	0.0006929056	0.1885922	0.2222466	
0.2200646	0.2376066	0.0004668606	0.0006929056	-0.5950822	0.218476	-0.001218345	-0.0005131463	
7.545374e-05	-0.001300313	0.1885922	0.2222466	-0.001218345	-0.0005131463	-0.5738371	0.2400413	

4.004e+10	-0.2945723	0.2504349	-0.0002541991	-0.0005854559	0.2315287	0.2311169	-0.0003466789	-0.001417831	
-0.0002541991	-0.0005854559	-0.2946987	0.2304095	0.0005202634	0.0003947154	0.1975687	0.2231067	
0.2315287	0.2311169	0.0005202634	0.0003947154	-0.5952468	0.2268266	-0.00131756	-0.0001596756	
-0.0003466789	-0.001417831	0.1975687	0.2231067	-0.00131756	-0.0001596756	-0.5690996	0.2412169	

4.006e+10	-0.2874781	0.249989	-0.0003473784	-0.0003976466	0.2417501	0.2228151	-0.000830623	-0.00139283	
-0.0003473784	-0.0003976466	-0.2928445	0.2280554	0.0004580305	0.0001377295	0.2069415	0.2222128	
0.2417501	0.2228151	0.0004580305	0.0001377295	-0.5935724	0.2354914	-0.001323616	0.0002127198	
-0.000830623	-0.00139283	0.2069415	0.2222128	-0.001323616	0.0002127198	-0.5645734	0.2420931	

4.008e+10	-0.2797348	0.2482729	-0.0003674861	-0.000226079	0.2505499	0.2129182	-0.001326814	-0.00119929	
-0.0003674861	-0.000226079	-0.2912906	0.2259482	0.0003104267	-4.299519e-05	0.216281	0.219483	
0.2505499	0.2129182	0.0003104267	-4.299519e-05	-0.5900989	0.244065	-0.001230771	0.0005849396	
-0.001326814	-0.00119929	0.216281	0.219483	-0.001230771	0.0005849396	-0.5602561	0.2425605	

4.01e+10	-0.2715915	0.2449716	-0.0003342941	-9.07004e-05	0.2577361	0.2015249	-0.001776248	-0.0008252608	
-0.0003342941	-9.07004e-05	-0.2899434	0.2240129	0.000115993	-0.000125318	0.225191	0.2149342	
0.2577361	0.2015249	0.000115993	-0.000125318	-0.5848541	0.2522411	-0.001034003	0.0009346211	
-0.001776248	-0.0008252608	0.225191	0.2149342	-0.001034003	0.0009346211	-0.556097	0.2427217	

4.012e+10	-0.2635206	0.2397013	-0.0002716741	-2.939911e-06	0.2630698	0.1887704	-0.002109506	-0.0002822176	
-0.0002716741	-2.939911e-06	-0.2887412	0.2222804	-8.080824e-05	-0.0001023944	0.2332901	0.2086587	
0.2630698	0.1887704	-8.080824e-05	-0.0001023944	-0.5779646	0.2596264	-0.0007322207	0.0012332	
-0.002109506	-0.0002822176	0.2332901	0.2086587	-0.0007322207	0.0012332	-0.5521903	0.2423946	

4.014e+10	-0.2560334	0.2322383	-0.0002052121	3.721936e-05	0.2661887	0.1748334	-0.002259812	0.0003887128	
-0.0002052121	3.721936e-05	-0.2876767	0.2206623	-0.0002373138	1.472261e-05	0.2401882	0.2008357	
0.2661887	0.1748334	-0.0002373138	1.472261e-05	-0.5694742	0.2660343	-0.0003325817	0.001447483	
-0.002259812	0.0003887128	0.2401882	0.2008357	-0.0003325817	0.001447483	-0.5485514	0.2418256	

4.016e+10	-0.2499416	0.2224552	-0.000156825	4.01783e-05	0.2666904	0.1599525	-0.002177452	0.001119539	
-0.000156825	4.01783e-05	-0.2865801	0.2192655	-0.0003197226	0.0001997849	0.2455425	0.1917285	
0.2666904	0.1599525	-0.0003197226	0.0001997849	-0.5596224	0.2708936	0.0001502695	0.001539483	
-0.002177452	0.001119539	0.2455425	0.1917285	0.0001502695	0.001539483	-0.5453455	0.2408672	

4.018e+10	-0.2461942	0.2105671	-0.0001407817	2.497566e-05	0.26409	0.1445671	-0.001842104	0.001821642	
-0.0001407817	2.497566e-05	-0.2854884	0.2178778	-0.0003081488	0.0004181156	0.2490877	0.1817045	
0.26409	0.1445671	-0.0003081488	0.0004181156	-0.54849	0.2740649	0.0006820448	0.001467663	
-0.001842104	0.001821642	0.2490877	0.1817045	0.0006820448	0.001467663	-0.5424665	0.2399351	

4.02e+10	-0.2457416	0.1972285	-0.0001608566	1.61974e-05	0.2579002	0.1293495	-0.00127048	0.002401546	
-0.0001608566	1.61974e-05	-0.2842008	0.2165814	-0.0001943039	0.0006331671	0.2506898	0.1711821	
0.2579002	0.1293495	-0.0001943039	0.0006331671	-0.5364338	0.275098	0.001204053	0.001196846	
-0.00127048	0.002401546	0.2506898	0.1711821	0.001204053	0.001196846	-0.5399556	0.2389372	

4.022e+10	-0.2495001	0.1835444	-0.0002061189	3.842519e-05	0.247839	0.1153323	-0.0005165532	0.002776254	
-0.0002061189	3.842519e-05	-0.2828058	0.2151285	2.03682e-05	0.0008063328	0.2503354	0.1605583	
0.247839	0.1153323	2.03682e-05	0.0008063328	-0.5238118	0.2737258	0.001631889	0.000716859	
-0.0005165532	0.002776254	0.2503354	0.1605583	0.001631889	0.000716859	-0.537701	0.2380518	

4.024e+10	-0.2576127	0.1712871	-0.000250333	0.0001076551	0.2338814	0.1037983	0.0003369474	0.002889621	
-0.000250333	0.0001076551	-0.2813505	0.2133246	0.0003244009	0.0008952687	0.2480653	0.1501153	
0.2338814	0.1037983	0.0003244009	0.0008952687	-0.5110638	0.2695674	0.001869202	5.794198e-05	
0.0003369474	0.002889621	0.2480653	0.1501153	0.001869202	5.794198e-05	-0.5354554	0.237393	

4.026e+10	-0.2694976	0.1622508	-0.000260072	0.0002200114	0.2166318	0.0961971	0.001190613	0.002724946	
-0.000260072	0.0002200114	-0.2798303	0.2111737	0.000686146	0.0008552871	0.2438512	0.1400961	
0.2166318	0.0961971	0.000686146	0.0008552871	-0.4987806	0.26231	0.001831577	-0.0006986422	
0.001190613	0.002724946	0.2438512	0.1400961	0.001831577	-0.0006986422	-0.5330413	0.2367681	

4.028e+10	-0.283699	0.1577752	-0.0002101711	0.0003508924	0.1973846	0.09382646	0.001952248	0.002306251	
-0.0002101711	0.0003508924	-0.2786348	0.2083697	0.001047683	0.0006518206	0.2376202	0.1308381	
0.1973846	0.09382646	0.001047683	0.0006518206	-0.4878415	0.2516859	0.001471762	-0.001429328	
0.001952248	0.002306251	0.2376202	0.1308381	0.001471762	-0.001429328	-0.5302218	0.2360699	

4.03e+10	-0.2980689	0.1582859	-9.50614e-05	0.0004659927	0.1780189	0.09735347	0.002553482	0.001686398	
-9.50614e-05	0.0004659927	-0.2780541	0.2049243	0.001327499	0.0002804498	0.2293197	0.1227798	
0.1780189	0.09735347	0.001327499	0.0002804498	-0.4794557	0.2376911	0.000803109	-0.001986068	
0.002553482	0.001686398	0.2293197	0.1227798	0.000803109	-0.001986068	-0.5270155	0.2348629	

4.032e+10	-0.3107093	0.1631952	7.36617e-05	0.0005355882	0.1605642	0.1066382	0.002955677	0.0009231946	
7.36617e-05	0.0005355882	-0.2784601	0.2011274	0.001439804	-0.00021857	0.2189677	0.1165203	
0.1605642	0.1066382	0.001439804	-0.00021857	-0.4749646	0.2208744	-8.901818e-05	-0.002227022	
0.002955677	0.0009231946	0.2189677	0.1165203	-8.901818e-05	-0.002227022	-0.5235429	0.2328774	

4.034e+10	-0.3204061	0.1710809	0.0002752922	0.0005392439	0.1468981	0.1207236	0.003132804	7.06228e-05	
0.0002752922	0.0005392439	-0.2801734	0.1973478	0.001322575	-0.0007549957	0.2068263	0.1128075	
0.1468981	0.1207236	0.001322575	-0.0007549957	-0.4755895	0.2025618	-0.001044293	-0.002053969	
0.003132804	7.06228e-05	0.2068263	0.1128075	-0.001044293	-0.002053969	-0.5201441	0.2297363	

4.036e+10	-0.3268949	0.1803813	0.0004831377	0.0004647876	0.1383855	0.1379515	0.003061655	-0.000813156	
0.0004831377	0.0004647876	-0.2832176	0.194141	0.0009712001	-0.001206463	0.1935394	0.1123985	
0.1383855	0.1379515	0.0009712001	-0.001206463	-0.4820152	0.1846423	-0.001854015	-0.001460538	
0.003061655	-0.000813156	0.1935394	0.1123985	-0.001854015	-0.001460538	-0.5171603	0.2255119	

4.038e+10	-0.330562	0.1899281	0.0006659921	0.000308776	0.1355543	0.1563227	0.002726314	-0.001654368	
0.0006659921	0.000308776	-0.2872473	0.1920776	0.0004541208	-0.001461157	0.1800819	0.1158726	
0.1355543	0.1563227	0.0004541208	-0.001461157	-0.4939583	0.1693124	-0.002323281	-0.0005603443	
0.002726314	-0.001654368	0.1800819	0.1158726	-0.002323281	-0.0005603443	-0.5151521	0.2199435	

4.04e+10	-0.3321034	0.1991536	0.0007896092	8.146028e-05	0.1380933	0.1739246	0.002140602	-0.002360424	
0.0007896092	8.146028e-05	-0.2918556	0.1914217	-0.000107711	-0.001464645	0.1678419	0.1234456	
0.1380933	0.1739246	-0.000107711	-0.001464645	-0.5101515	0.1583086	-0.002349112	0.0004434446	
0.002140602	-0.002360424	0.1678419	0.1234456	-0.002349112	0.0004434446	-0.5146096	0.2133688	

4.042e+10	-0.3320077	0.2078645	0.0008254579	-0.0001887822	0.1450154	0.1892475	0.001365331	-0.002842278	
0.0008254579	-0.0001887822	-0.2964701	0.1922358	-0.0005871152	-0.001239811	0.1582536	0.1346415	
0.1450154	0.1892475	-0.0005871152	-0.001239811	-0.5285695	0.1528636	-0.001954853	0.001330014	
0.001365331	-0.002842278	0.1582536	0.1346415	-0.001954853	0.001330014	-0.5161419	0.2061286	

4.044e+10	-0.3307524	0.2160263	0.0007611363	-0.0004642168	0.1550347	0.2014621	0.0004977913	-0.003049843	
0.0007611363	-0.0004642168	-0.3007697	0.1943533	-0.0009003566	-0.0008682503	0.1525209	0.1483668	
0.1550347	0.2014621	-0.0009003566	-0.0008682503	-0.5472979	0.1528083	-0.001268171	0.001940924	
0.0004977913	-0.003049843	0.1525209	0.1483668	-0.001268171	0.001940924	-0.5201824	0.1989505	

4.046e+10	-0.3284087	0.2237733	0.0006036415	-0.0007046041	0.1668745	0.2102943	-0.0003549426	-0.00298195	
0.0006036415	-0.0007046041	-0.3044561	0.197565	-0.001021526	-0.0004486314	0.1512324	0.1630933	
0.1668745	0.2102943	-0.001021526	-0.0004486314	-0.5646252	0.1576462	-0.0004534373	0.002214861	
-0.0003549426	-0.00298195	0.1512324	0.1630933	-0.0004534373	0.002214861	-0.5267661	0.192769	

4.048e+10	-0.32513	0.2310579	0.0003739051	-0.0008800536	0.1794979	0.2159378	-0.001108073	-0.002679092	
0.0003739051	-0.0008800536	-0.3074069	0.2016983	-0.0009722926	-6.389785e-05	0.1542516	0.1773024	
0.1794979	0.2159378	-0.0009722926	-6.389785e-05	-0.579612	0.1662011	0.0003441865	0.002171391	
-0.001108073	-0.002679092	0.1542516	0.1773024	0.0003441865	0.002171391	-0.5354769	0.1885712	

4.05e+10	-0.3209668	0.2378499	0.0001009148	-0.0009725484	0.1921623	0.2187414	-0.0017061	-0.00220187	
0.0001009148	-0.0009725484	-0.309523	0.2065823	-0.0007994259	0.0002307424	0.1609246	0.1897491	
0.1921623	0.2187414	-0.0007994259	0.0002307424	-0.5917546	0.1774223	0.001024642	0.001876131	
-0.0017061	-0.00220187	0.1609246	0.1897491	0.001024642	0.001876131	-0.5455001	0.1870856	

4.052e+10	-0.3158296	0.244189	-0.0001833968	-0.0009762022	0.2043829	0.2191432	-0.002120522	-0.00161716	
-0.0001833968	-0.0009762022	-0.3106999	0.2120246	-0.0005592413	0.0004085538	0.1702768	0.1996223	
0.2043829	0.2191432	-0.0005592413	0.0004085538	-0.6009149	0.1902752	0.001532285	0.001408515	
-0.002120522	-0.00161716	0.1702768	0.1996223	0.001532285	0.001408515	-0.5559796	0.1882969	

4.054e+10	-0.3098389	0.2499192	-0.0004513178	-0.0008969555	0.2158614	0.2175634	-0.00234667	-0.0009854856	
-0.0004513178	-0.0008969555	-0.3107682	0.2180066	-0.0003046711	0.0004678998	0.1812813	0.2066171	
0.2158614	0.2175634	-0.0003046711	0.0004678998	-0.6071287	0.2042034	0.001847307	0.0008440479	
-0.00234667	-0.0009854856	0.1812813	0.2066171	0.001847307	0.0008440479	-0.5660129	0.1922457	

4.056e+10	-0.3029902	0.2549608	-0.0006806176	-0.0007479889	0.2264556	0.2143731	-0.00239546	-0.0003622793	
-0.0006806176	-0.0007479889	-0.3097032	0.2241877	-7.980979e-05	0.0004244111	0.1930181	0.2107604	
0.2264556	0.2143731	-7.980979e-05	0.0004244111	-0.6106383	0.2185199	0.001971718	0.0002475756	
-0.00239546	-0.0003622793	0.1930181	0.2107604	0.001971718	0.0002475756	-0.5749575	0.1985352	

4.058e+10	-0.2953525	0.2591996	-0.0008558247	-0.0005477438	0.2360935	0.2098421	-0.002290706	0.0002076644	
-0.0008558247	-0.0005477438	-0.3073598	0.2304369	8.41192e-05	0.0003060813	0.2047844	0.2123124	
0.2360935	0.2098421	8.41192e-05	0.0003060813	-0.6117403	0.2327449	0.001921129	-0.0003284294	
-0.002290706	0.0002076644	0.2047844	0.2123124	0.001921129	-0.0003284294	-0.5823894	0.2066926	

4.06e+10	-0.2869711	0.2625002	-0.0009698071	-0.0003147352	0.2447555	0.2042123	-0.002065509	0.0006931144	
-0.0009698071	-0.0003147352	-0.3038308	0.2364406	0.0001708682	0.0001459868	0.216095	0.2116676	
0.2447555	0.2042123	0.0001708682	0.0001459868	-0.6106771	0.2466056	0.001719826	-0.0008422734	
-0.002065509	0.0006931144	0.216095	0.2116676	0.001719826	-0.0008422734	-0.5880693	0.2162509	

4.062e+10	-0.2778203	0.2648422	-0.001020516	-6.83193e-05	0.2524398	0.1976323	-0.001758537	0.001074258	
-0.001020516	-6.83193e-05	-0.2991147	0.2420455	0.0001765485	-2.244885e-05	0.2267028	0.209188	
0.2524398	0.1976323	0.0001765485	-2.244885e-05	-0.6077025	0.2599596	0.001398863	-0.0012614	
-0.001758537	0.001074258	0.2267028	0.209188	0.001398863	-0.0012614	-0.5920133	0.2266601	

4.064e+10	-0.268041	0.2659904	-0.001011966	0.0001762523	0.259134	0.1901927	-0.001408339	0.001347721	
-0.001011966	0.0001762523	-0.2932966	0.2470662	0.0001089314	-0.0001695413	0.23646	0.2051968	
0.259134	0.1901927	0.0001089314	-0.0001695413	-0.6029876	0.2726395	0.0009948686	-0.001564703	
-0.001408339	0.001347721	0.23646	0.2051968	0.0009948686	-0.001564703	-0.594143	0.2377605	

4.066e+10	-0.2577452	0.2656939	-0.0009513637	0.0004065763	0.264793	0.1819668	-0.001047782	0.001522254	
-0.0009513637	0.0004065763	-0.2864522	0.2513003	-1.597881e-05	-0.0002720011	0.2452638	0.1999182	
0.264793	0.1819668	-1.597881e-05	-0.0002720011	-0.5967037	0.2844852	0.0005480799	-0.001743273	
-0.001047782	0.001522254	0.2452638	0.1999182	0.0005480799	-0.001743273	-0.5946181	0.248978	

4.068e+10	-0.2470154	0.263874	-0.0008475775	0.0006146717	0.2693331	0.1730217	-0.0007006647	0.001616044	
-0.0008475775	0.0006146717	-0.2787077	0.2545843	-0.0001768816	-0.0003140425	0.2530622	0.1935436	
0.2693331	0.1730217	-0.0001768816	-0.0003140425	-0.5888559	0.2955201	9.415143e-05	-0.001803744	
-0.0007006647	0.001616044	0.2530622	0.1935436	9.415143e-05	-0.001803744	-0.5932398	0.2605376	

4.07e+10	-0.2360797	0.2601771	-0.0007079847	0.0007985446	0.2726248	0.1634147	-0.0003765444	0.001650697	
-0.0007079847	0.0007985446	-0.2701461	0.2567178	-0.0003509283	-0.0002888717	0.2598199	0.1862324	
0.2726248	0.1634147	-0.0003509283	-0.0002888717	-0.5794622	0.305645	-0.0003417537	-0.001761453	
-0.0003765444	0.001650697	0.2598199	0.1862324	-0.0003417537	-0.001761453	-0.590168	0.2719463	

4.072e+10	-0.2252272	0.2543941	-0.0005380392	0.0009575993	0.274527	0.1532394	-7.579698e-05	0.001643853	
-0.0005380392	0.0009575993	-0.2608276	0.2575704	-0.0005153105	-0.0001962628	0.2654669	0.1780906	
0.274527	0.1532394	-0.0005153105	-0.0001962628	-0.5685652	0.3146421	-0.0007450328	-0.001634069	
-7.579698e-05	0.001643853	0.2654669	0.1780906	-0.0007450328	-0.001634069	-0.5853829	0.2831112	

4.074e+10	-0.2149622	0.2462422	-0.0003377018	0.001092288	0.2748512	0.1426398	0.0002081033	0.001606477	
-0.0003377018	0.001092288	-0.2509704	0.2569097	-0.0006501946	-4.216015e-05	0.2699521	0.1692094	
0.2748512	0.1426398	-0.0006501946	-4.216015e-05	-0.5562059	0.3221619	-0.001111174	-0.001435102	
0.0002081033	0.001606477	0.2699521	0.1692094	-0.001111174	-0.001435102	-0.5789616	0.2935969	

4.076e+10	-0.2058803	0.2355067	-0.0001024545	0.001201239	0.2733508	0.1318311	0.0004844878	0.001541664	
-0.0001024545	0.001201239	-0.2408337	0.2544076	-0.000739677	0.000165473	0.2731505	0.1596802	
0.2733508	0.1318311	-0.000739677	0.000165473	-0.5423616	0.3280778	-0.001439488	-0.001169841	
0.0004844878	0.001541664	0.2731505	0.1596802	-0.001439488	-0.001169841	-0.5707462	0.3035989	

4.078e+10	-0.1987988	0.2222662	0.0001752582	0.001275112	0.2698018	0.1211406	0.0007601021	0.00144441	
0.0001752582	0.001275112	-0.2306421	0.2499445	-0.0007671887	0.0004172432	0.2749061	0.1496099	
0.2698018	0.1211406	-0.0007671887	0.0004172432	-0.5270696	0.3320419	-0.001726271	-0.0008345121	
0.0007601021	0.00144441	0.2749061	0.1496099	-0.001726271	-0.0008345121	-0.5607786	0.3126383	

4.08e+10	-0.1948634	0.2067117	0.0005013649	0.00129568	0.2640672	0.1110308	0.001037069	0.001304241	
0.0005013649	0.00129568	-0.2209128	0.2432061	-0.0007141169	0.0007010261	0.2750384	0.1391609	
0.2640672	0.1110308	-0.0007141169	0.0007010261	-0.5105752	0.333475	-0.001957718	-0.0004196983	
0.001037069	0.001304241	0.2750384	0.1391609	-0.001957718	-0.0004196983	-0.5490457	0.3204509	

4.082e+10	-0.1949908	0.1897528	0.0008750206	0.001233324	0.2560863	0.1020748	0.001309617	0.001107771	
0.0008750206	0.001233324	-0.2122167	0.2340424	-0.0005587593	0.000994477	0.2733413	0.1285722	
0.2560863	0.1020748	-0.0005587593	0.000994477	-0.4932686	0.3318378	-0.002104876	8.012535e-05	
0.001309617	0.001107771	0.2733413	0.1285722	-0.002104876	8.012535e-05	-0.5356605	0.3264555	

4.084e+10	-0.2000285	0.1727209	0.00127792	0.001049434	0.2459912	0.09494972	0.001563977	0.0008421502	
0.00127792	0.001049434	-0.2053652	0.2224743	-0.0002839306	0.001261953	0.2696371	0.1181829	
0.2459912	0.09494972	-0.0002839306	0.001261953	-0.4755778	0.3267334	-0.002124902	0.0006581734	
0.001563977	0.0008421502	0.2696371	0.1181829	-0.002124902	0.0006581734	-0.5204972	0.3305725	

4.086e+10	-0.2101542	0.1574444	0.001663876	0.0007045603	0.2341479	0.09036426	0.00177732	0.0004984778	
0.001663876	0.0007045603	-0.2011959	0.2088545	0.0001149103	0.001453264	0.2637679	0.1084427	
0.2341479	0.09036426	0.0001149103	0.001453264	-0.4582366	0.3176532	-0.001968249	0.001280639	
0.00177732	0.0004984778	0.2637679	0.1084427	-0.001968249	0.001280639	-0.5039211	0.3318963	

4.088e+10	-0.2246292	0.1459317	0.001952848	0.0001818822	0.2212255	0.08895451	0.001918447	7.466843e-05	
0.001952848	0.0001818822	-0.200739	0.1938514	0.0006213706	0.001507782	0.2557116	0.09991893	
0.2212255	0.08895451	0.0006213706	0.001507782	-0.4424522	0.3039753	-0.00159471	0.001882414	
0.001918447	7.466843e-05	0.2557116	0.09991893	-0.00159471	0.001882414	-0.4862065	0.3299296	

4.09e+10	-0.2418722	0.139645	0.00204439	-0.0004874571	0.208246	0.09112329	0.001948249	-0.0004137577	
0.00204439	-0.0004874571	-0.2046486	0.1787781	0.001186184	0.001364357	0.245671	0.09329712	
0.208246	0.09112329	0.001186184	0.001364357	-0.4296545	0.2858943	-0.0009979434	0.002368226	
0.001948249	-0.0004137577	0.245671	0.09329712	-0.0009979434	0.002368226	-0.468135	0.3239104	

4.092e+10	-0.2597335	0.1391512	0.00185348	-0.001205827	0.1962691	0.0969085	0.001829981	-0.000932784	
0.00185348	-0.001205827	-0.2131518	0.1651588	0.001721363	0.0009765991	0.2340292	0.08925006	
0.1962691	0.0969085	0.001721363	0.0009765991	-0.4215974	0.2639552	-0.0002187351	0.002635739	
0.001829981	-0.000932784	0.2340292	0.08925006	-0.0002187351	0.002635739	-0.4506659	0.3133376	

4.094e+10	-0.2759684	0.1440888	0.00136185	-0.001823606	0.18646	0.1059111	0.001540806	-0.001424057	
0.00136185	-0.001823606	-0.2255703	0.1548563	0.0021018	0.0003466808	0.2215056	0.0883359	
0.18646	0.1059111	0.0021018	0.0003466808	-0.4200425	0.2394909	0.0006434693	0.002601502	
0.001540806	-0.001424057	0.2215056	0.0883359	0.0006434693	0.002601502	-0.435499	0.2976345	

4.096e+10	-0.2890886	0.1530645	0.0006438134	-0.002195552	0.1796948	0.1173338	0.001087493	-0.001815629	
0.0006438134	-0.002195552	-0.2404591	0.1492072	0.002200058	-0.0004454479	0.2090163	0.09088289	
0.1796948	0.1173338	0.002200058	-0.0004454479	-0.4258348	0.2151047	0.001448394	0.002237762	
0.001087493	-0.001815629	0.2090163	0.09088289	0.001448394	0.002237762	-0.4243764	0.2773869	

4.098e+10	-0.2983745	0.1645078	-0.0001527214	-0.002242506	0.1766022	0.1300835	0.0005159722	-0.002038205	
-0.0001527214	-0.002242506	-0.2558341	0.1487795	0.001946201	-0.001242304	0.1976485	0.09689116	
0.1766022	0.1300835	0.001946201	-0.001242304	-0.4388639	0.1933791	0.002047055	0.001597954	
0.0005159722	-0.002038205	0.1976485	0.09689116	0.002047055	0.001597954	-0.4192412	0.2538015	

4.1e+10	-0.3038086	0.1769628	-0.000867539	-0.001981946	0.1772998	0.1429505	-9.604671e-05	-0.002052654	
-0.000867539	-0.001981946	-0.2697801	0.1530697	0.00137471	-0.001866111	0.1884794	0.1059558	
0.1772998	0.1429505	0.00137471	-0.001866111	-0.457664	0.1767814	0.002339491	0.0008071045	
-9.604671e-05	-0.002052654	0.1884794	0.1059558	0.002339491	0.0008071045	-0.4213872	0.2290803	

4.102e+10	-0.3059057	0.1893002	-0.001387437	-0.001507242	0.1814428	0.154808	-0.000660061	-0.001862921	
-0.001387437	-0.001507242	-0.2808222	0.1609586	0.0006128433	-0.002190382	0.1823729	0.1173017	
0.1814428	0.154808	0.0006128433	-0.002190382	-0.4798873	0.1668327	0.002307895	2.201872e-05	
-0.000660061	-0.001862921	0.1823729	0.1173017	0.002307895	2.201872e-05	-0.4310213	0.2059561	

4.104e+10	-0.3053658	0.2008168	-0.001672782	-0.0009379538	0.1884071	0.1647812	-0.001103184	-0.001514508	
-0.001672782	-0.0009379538	-0.2884446	0.1708575	-0.0001731784	-0.002181938	0.1799381	0.129785	
0.1884071	0.1647812	-0.0001731784	-0.002181938	-0.5030232	0.1637334	0.002017045	-0.0006217575	
-0.001103184	-0.001514508	0.1799381	0.129785	0.002017045	-0.0006217575	-0.447062	0.1870101	

4.106e+10	-0.3026771	0.2113076	-0.001744396	-0.0003761958	0.1973178	0.1723801	-0.001388164	-0.001074444	
-0.001744396	-0.0003761958	-0.2926775	0.1814678	-0.0008432464	-0.001893962	0.1811977	0.1421946	
0.1973178	0.1723801	-0.0008432464	-0.001893962	-0.5249296	0.1669209	0.001578677	-0.001057431	
-0.001388164	-0.001074444	0.1811977	0.1421946	0.001578677	-0.001057431	-0.4674158	0.174109	

4.108e+10	-0.2983883	0.2206346	-0.00165422	0.0001162546	0.2073415	0.1774371	-0.001511337	-0.0006100063	
-0.00165422	0.0001162546	-0.2940393	0.1918281	-0.001314702	-0.001426726	0.1857529	0.1534063	
0.2073415	0.1774371	-0.001314702	-0.001426726	-0.5441266	0.1750143	0.001102697	-0.001283589	
-0.001511337	-0.0006100063	0.1857529	0.1534063	0.001102697	-0.001283589	-0.4896456	0.1677386	

4.11e+10	-0.2928568	0.2287225	-0.001458009	0.0005120164	0.2177833	0.1800764	-0.001492145	-0.0001726471	
-0.001458009	0.0005120164	-0.2931005	0.2014424	-0.001566331	-0.0008869092	0.1928858	0.1626667	
0.2177833	0.1800764	-0.001566331	-0.0008869092	-0.559971	0.1864947	0.0006632776	-0.00134204	
-0.001492145	-0.0001726471	0.1928858	0.1626667	0.0006632776	-0.00134204	-0.5116218	0.1676192	

4.112e+10	-0.2863473	0.2356271	-0.001200529	0.0008097672	0.2281182	0.1805451	-0.001360858	0.000202896	
-0.001200529	0.0008097672	-0.2904899	0.2099707	-0.001621272	-0.0003597242	0.2017248	0.1695734	
0.2281182	0.1805451	-0.001621272	-0.0003597242	-0.572151	0.2003644	0.0002962617	-0.00128499	
-0.001360858	0.000202896	0.2017248	0.1695734	0.0002962617	-0.00128499	-0.5317849	0.1726848	

4.114e+10	-0.2790904	0.2413297	-0.0009129939	0.001017548	0.2380008	0.1791316	-0.001149976	0.000494782	
-0.0009129939	0.001017548	-0.2866355	0.2174105	-0.001524949	9.807952e-05	0.2115214	0.1740426	
0.2380008	0.1791316	-0.001524949	9.807952e-05	-0.5808813	0.215451	1.505999e-05	-0.001156602	
-0.001149976	0.000494782	0.2115214	0.1740426	1.505999e-05	-0.001156602	-0.5492901	0.1816603	

4.116e+10	-0.2711656	0.2459642	-0.0006150359	0.001146557	0.2471702	0.1761226	-0.0008925809	0.000694105	
-0.0006150359	0.001146557	-0.2818874	0.223822	-0.001327965	0.0004603683	0.2215919	0.1762053	
0.2471702	0.1761226	-0.001327965	0.0004603683	-0.5864205	0.2311154	-0.0001808475	-0.0009931689	
-0.0008925809	0.000694105	0.2215919	0.1762053	-0.0001808475	-0.0009931689	-0.5636306	0.1937435	

4.118e+10	-0.2627306	0.2494092	-0.0003201879	0.001206744	0.2554999	0.1717665	-0.0006200269	0.0008001987	
-0.0003201879	0.001206744	-0.2764976	0.2292269	-0.001076248	0.0007207576	0.231473	0.1763224	
0.2554999	0.1717665	-0.001076248	0.0007207576	-0.5891943	0.246707	-0.0002973019	-0.0008253358	
-0.0006200269	0.0008001987	0.231473	0.1763224	-0.0002973019	-0.0008253358	-0.5748022	0.2076217	

4.12e+10	-0.2537963	0.2517668	-3.812438e-05	0.001207098	0.2628667	0.1662738	-0.0003596107	0.0008215524	
-3.812438e-05	0.001207098	-0.2705639	0.2337918	-0.0008051036	0.0008882171	0.2408177	0.174714	
0.2628667	0.1662738	-0.0008051036	0.0008882171	-0.5894563	0.2620731	-0.000349948	-0.0006791747	
-0.0003596107	0.0008215524	0.2408177	0.174714	-0.000349948	-0.0006791747	-0.5828285	0.2227937	

4.122e+10	-0.2445877	0.252836	0.0002222686	0.001156943	0.2692025	0.1598408	-0.0001332783	0.0007732886	
0.0002222686	0.001156943	-0.2642956	0.2374722	-0.0005391015	0.0009765807	0.2494286	0.1716776	
0.2692025	0.1598408	-0.0005391015	0.0009765807	-0.5875796	0.2767445	-0.000362013	-0.0005713225	
-0.0001332783	0.0007732886	0.2494286	0.1716776	-0.000362013	-0.0005713225	-0.587873	0.2384715	

4.124e+10	-0.2351205	0.2526658	0.0004554063	0.001067737	0.2744379	0.1526185	4.381987e-05	0.0006757908	
0.0004554063	0.001067737	-0.2575959	0.2404643	-0.000292357	0.00100827	0.2572339	0.1674968	
0.2744379	0.1526185	-0.000292357	0.00100827	-0.5836135	0.290979	-0.0003610798	-0.0005054685	
4.381987e-05	0.0006757908	0.2572339	0.1674968	-0.0003610798	-0.0005054685	-0.5901508	0.2544033	

4.126e+10	-0.2255584	0.2511243	0.0006626359	0.0009508915	0.2784971	0.1447541	0.0001661027	0.000549431	
0.0006626359	0.0009508915	-0.2504968	0.2427483	-7.205188e-05	0.0009993058	0.2641885	0.1623583	
0.2784971	0.1447541	-7.205188e-05	0.0009993058	-0.5778881	0.3042992	-0.0003663385	-0.0004753569	
0.0001661027	0.000549431	0.2641885	0.1623583	-0.0003663385	-0.0004753569	-0.5899777	0.2699883	

4.128e+10	-0.216123	0.2480959	0.0008539218	0.0008205998	0.2812642	0.1363926	0.0002334026	0.0004139188	
0.0008539218	0.0008205998	-0.2430235	0.244214	0.0001311804	0.0009654083	0.2702582	0.1563987	
0.2812642	0.1363926	0.0001311804	0.0009654083	-0.5703781	0.3168168	-0.0003925059	-0.0004672732	
0.0002334026	0.0004139188	0.2702582	0.1563987	-0.0003925059	-0.0004672732	-0.5875377	0.2850396	

4.13e+10	-0.2069821	0.2435474	0.001049413	0.0006726771	0.2826498	0.1277282	0.0002516498	0.0002865579	
0.001049413	0.0006726771	-0.2350982	0.2448158	0.0003256161	0.0009118671	0.2754185	0.1497143	
0.2826498	0.1277282	0.0003256161	0.0009118671	-0.5611734	0.3283176	-0.0004454287	-0.0004664404	
0.0002516498	0.0002865579	0.2754185	0.1497143	-0.0004454287	-0.0004664404	-0.5830291	0.2995077	

4.132e+10	-0.1984423	0.2374186	0.001267757	0.0004837038	0.2825685	0.1189898	0.0002307174	0.0001792725	
0.001267757	0.0004837038	-0.2267682	0.2443735	0.0005213647	0.0008328047	0.2795985	0.1423949	
0.2825685	0.1189898	0.0005213647	0.0008328047	-0.5502502	0.3386486	-0.0005253421	-0.0004584466	
0.0002307174	0.0001792725	0.2795985	0.1423949	-0.0005253421	-0.0004584466	-0.5767062	0.3131259	

4.134e+10	-0.1908883	0.2296813	0.001508524	0.0002043358	0.2809629	0.110442	0.0001806497	9.950194e-05	
0.001508524	0.0002043358	-0.2181747	0.242648	0.000720435	0.0007151233	0.2826809	0.1345292	
0.2809629	0.110442	0.000720435	0.0007151233	-0.5375601	0.3476302	-0.000628987	-0.0004326141	
0.0001806497	9.950194e-05	0.2826809	0.1345292	-0.000628987	-0.0004326141	-0.5686679	0.325811	

4.136e+10	-0.1846156	0.2204849	0.001725802	-0.0002241671	0.2778083	0.1024008	0.0001103821	5.242743e-05	
0.001725802	-0.0002241671	-0.2095664	0.2394701	0.0009144135	0.0005426369	0.2845547	0.1262637	
0.2778083	0.1024008	0.0009144135	0.0005426369	-0.5232191	0.3547789	-0.0007523733	-0.0003798863	
0.0001103821	5.242743e-05	0.2845547	0.1262637	-0.0007523733	-0.0003798863	-0.5590075	0.3374811	

4.138e+10	-0.1800905	0.2099668	0.001819257	-0.0008318074	0.2731626	0.09521083	2.825585e-05	4.365683e-05	
0.001819257	-0.0008318074	-0.2012883	0.2346813	0.001083476	0.0003020839	0.2851054	0.1177915	
0.2731626	0.09521083	0.001083476	0.0003020839	-0.507256	0.3596892	-0.000890744	-0.0002897641	
2.825585e-05	4.365683e-05	0.2851054	0.1177915	-0.000890744	-0.0002897641	-0.5476331	0.3480751	

4.14e+10	-0.1776962	0.1984633	0.001655382	-0.001576839	0.2671723	0.08926498	-5.370575e-05	8.276283e-05	
0.001655382	-0.001576839	-0.1936359	0.2283276	0.001198656	-1.027514e-05	0.2842531	0.109348	
0.2671723	0.08926498	0.001198656	-1.027514e-05	-0.489913	0.3618554	-0.001036191	-0.0001500559	
-5.370575e-05	8.276283e-05	0.2842531	0.109348	-0.001036191	-0.0001500559	-0.5344645	0.3575227	

4.142e+10	-0.1779172	0.1864401	0.001124948	-0.002321274	0.2601193	0.0849196	-0.0001115255	0.0001783395	
0.001124948	-0.002321274	-0.1870833	0.220445	0.001226274	-0.000386031	0.2819811	0.1011971	
0.2601193	0.0849196	0.001226274	-0.000386031	-0.4716519	0.3606051	-0.001174271	5.373409e-05	
-0.0001115255	0.0001783395	0.2819811	0.1011971	-0.001174271	5.373409e-05	-0.5196151	0.3651916	

4.144e+10	-0.1810414	0.1746465	0.0002096075	-0.002850905	0.2524322	0.08252707	-0.0001068014	0.0003229376	
0.0002096075	-0.002850905	-0.1820025	0.2112243	0.001130133	-0.0008032325	0.2783109	0.09363492	
0.2524322	0.08252707	0.001130133	-0.0008032325	-0.4532264	0.3552472	-0.00127869	0.0003352195	
-0.0001068014	0.0003229376	0.2783109	0.09363492	-0.00127869	0.0003352195	-0.502962	0.3708156	

4.146e+10	-0.1869915	0.1640449	-0.000968583	-0.002949432	0.2446733	0.0822561	-3.343213e-07	0.0004788799	
-0.000968583	-0.002949432	-0.1786834	0.2009732	0.0008755911	-0.001219771	0.2733355	0.08694346	
0.2446733	0.0822561	0.0008755911	-0.001219771	-0.4356522	0.3455413	-0.001308837	0.0006970933	
-3.343213e-07	0.0004788799	0.2733355	0.08694346	-0.001308837	0.0006970933	-0.4844247	0.374001	

4.148e+10	-0.1954136	0.1554947	-0.002163846	-0.002492732	0.2374761	0.08407605	0.0002197884	0.0005751772	
-0.002163846	-0.002492732	-0.1774718	0.1899825	0.000441223	-0.001566342	0.2672124	0.08141464	
0.2374761	0.08407605	0.000441223	-0.001566342	-0.4205587	0.3313037	-0.001213978	0.001118659	
0.0002197884	0.0005751772	0.2672124	0.08141464	-0.001213978	0.001118659	-0.464615	0.3736936	

4.15e+10	-0.205544	0.1496656	-0.003082548	-0.001519476	0.2314198	0.08772792	0.0005097029	0.0005317176	
-0.003082548	-0.001519476	-0.1786618	0.1787241	-0.0001577503	-0.001750306	0.2601604	0.0772952	
0.2314198	0.08772792	-0.0001577503	-0.001750306	-0.4094502	0.3131616	-0.0009472376	0.001545751	
0.0005097029	0.0005317176	0.2601604	0.0772952	-0.0009472376	0.001545751	-0.4438648	0.3692896	

4.152e+10	-0.2163403	0.1469695	-0.003501786	-0.0002264503	0.2270076	0.09276488	0.0007699943	0.0003080537	
-0.003501786	-0.0002264503	-0.182493	0.1677522	-0.0008483005	-0.001682997	0.2524455	0.0748209	
0.2270076	0.09276488	-0.0008483005	-0.001682997	-0.4036956	0.2924417	-0.0004937371	0.001890076	
0.0007699943	0.0003080537	0.2524455	0.0748209	-0.0004937371	0.001890076	-0.4232116	0.360054	

4.154e+10	-0.2269034	0.1472402	-0.003343582	0.001107726	0.2245278	0.0986403	0.0008814881	-6.061937e-05	
-0.003343582	0.001107726	-0.1890707	0.1578635	-0.001507021	-0.001318368	0.244408	0.0742242	
0.2245278	0.0986403	-0.001507021	-0.001318368	-0.4040094	0.2711761	0.0001046799	0.002051531	
0.0008814881	-6.061937e-05	0.244408	0.0742242	0.0001046799	0.002051531	-0.4040363	0.3455677	

4.156e+10	-0.2363932	0.1501355	-0.002687627	0.002223399	0.2240896	0.1046709	0.0007685439	-0.0004608572	
-0.002687627	0.002223399	-0.1981849	0.1500492	-0.001992382	-0.0006833106	0.2365105	0.07563481	
0.2240896	0.1046709	-0.001992382	-0.0006833106	-0.4104903	0.2512532	0.0007448821	0.001964737	
0.0007685439	-0.0004608572	0.2365105	0.07563481	0.0007448821	0.001964737	-0.3882652	0.3256777	

4.158e+10	-0.2442978	0.1550361	-0.001709248	0.002964088	0.2254935	0.1102437	0.000442293	-0.000749428	
-0.001709248	0.002964088	-0.2091324	0.1451885	-0.002190795	0.0001274714	0.2292872	0.07910663	
0.2254935	0.1102437	-0.002190795	0.0001274714	-0.4220615	0.2347235	0.001297917	0.001635335	
0.000442293	-0.000749428	0.2292872	0.07910663	0.001297917	0.001635335	-0.3779093	0.3011414	

4.16e+10	-0.250433	0.1613312	-0.0006020359	0.003283463	0.2284083	0.1148774	2.026286e-06	-0.0008175875	
-0.0006020359	0.003283463	-0.2208059	0.1438866	-0.002045466	0.0009730092	0.223356	0.08448387	
0.2284083	0.1148774	-0.002045466	0.0009730092	-0.4370857	0.2228985	0.001660622	0.001146057	
2.026286e-06	-0.0008175875	0.223356	0.08448387	0.001660622	0.001146057	-0.3747096	0.2738445	

4.162e+10	-0.2547025	0.1684561	0.0004712451	0.003214946	0.2323013	0.1183021	-0.0004092251	-0.0006367001	
0.0004712451	0.003214946	-0.2317804	0.1461295	-0.001573239	0.001700729	0.2192799	0.09135825	
0.2323013	0.1183021	-0.001573239	0.001700729	-0.4537526	0.2161373	0.001802769	0.0006181399	
-0.0004092251	-0.0006367001	0.2192799	0.09135825	0.001802769	0.0006181399	-0.3796589	0.2464592	

4.164e+10	-0.2571796	0.1760946	0.001402792	0.002833353	0.236717	0.1204729	-0.000661711	-0.0002637282	
0.001402792	0.002833353	-0.2410316	0.1511988	-0.0008566774	0.002187107	0.2174972	0.09912377	
0.236717	0.1204729	-0.0008566774	0.002187107	-0.4705531	0.2141459	0.001768439	0.0001536361	
-0.000661711	-0.0002637282	0.2174972	0.09912377	0.001768439	0.0001536361	-0.3925722	0.221745	

4.166e+10	-0.2579276	0.1839101	0.0021243	0.002227151	0.2412875	0.1215186	-0.0006829139	0.0001865679	
0.0021243	0.002227151	-0.2478973	0.1581714	-2.393896e-05	0.002360679	0.218183	0.1070048	
0.2412875	0.1215186	-2.393896e-05	0.002360679	-0.4863844	0.2162472	0.001639586	-0.0002021437	
-0.0006829139	0.0001865679	0.218183	0.1070048	0.001639586	-0.0002021437	-0.411813	0.2023694	

4.168e+10	-0.2570987	0.1915657	0.002605131	0.001486302	0.2457666	0.1216363	-0.0004725744	0.0005875539	
0.002605131	0.001486302	-0.2523192	0.1660581	0.0007885669	0.002217247	0.2211587	0.1142365	
0.2457666	0.1216363	0.0007885669	0.002217247	-0.5004422	0.22187	0.001488962	-0.0004627055	
-0.0004725744	0.0005875539	0.2211587	0.1142365	0.001488962	-0.0004627055	-0.4350214	0.1899658	

4.17e+10	-0.2546883	0.1989127	0.00284517	0.0006944721	0.2500357	0.121012	-9.194461e-05	0.0008395402	
0.00284517	0.0006944721	-0.2545284	0.174214	0.001463759	0.001811661	0.2259913	0.1202022	
0.2500357	0.121012	0.001463759	0.001811661	-0.5121335	0.2302694	0.001352136	-0.0006703827	
-9.194461e-05	0.0008395402	0.2259913	0.1202022	0.001352136	-0.0006703827	-0.4596222	0.184767	

4.172e+10	-0.2507848	0.2056307	0.002868331	-7.832615e-05	0.2541053	0.1198005	0.0003664318	0.0008923438	
0.002868331	-7.832615e-05	-0.2548067	0.1821547	0.001930872	0.001237505	0.2321447	0.1245793	
0.2541053	0.1198005	0.001930872	0.001237505	-0.5211483	0.2405836	0.001226653	-0.0008654044	
0.0003664318	0.0008923438	0.2321447	0.1245793	0.001226653	-0.0008654044	-0.4833257	0.186306	

4.174e+10	-0.245541	0.211497	0.00271696	-0.0007875505	0.2579577	0.1180587	0.0008118903	0.0007452909	
0.00271696	-0.0007875505	-0.2534304	0.1896592	0.002174774	0.0005946245	0.2390533	0.1272461	
0.2579577	0.1180587	0.002174774	0.0005946245	-0.5273233	0.2520854	0.001089931	-0.001066333	
0.0008118903	0.0007452909	0.2390533	0.1272461	0.001089931	-0.001066333	-0.5045148	0.1933621	

4.176e+10	-0.2392649	0.2161925	0.002434093	-0.001412016	0.2615963	0.1157979	0.001173999	0.0004300875	
0.002434093	-0.001412016	-0.2505916	0.1964889	0.002222759	-3.891871e-05	0.246294	0.1282398	
0.2615963	0.1157979	0.002222759	-3.891871e-05	-0.5307925	0.2640653	0.0009206549	-0.001270247	
0.001173999	0.0004300875	0.246294	0.1282398	0.0009206549	-0.001270247	-0.5221733	0.2046375	

4.178e+10	-0.2321987	0.2195794	0.002052043	-0.00195509	0.2649342	0.1130095	0.00140767	-9.221908e-06	
0.002052043	-0.00195509	-0.2466036	0.2024184	0.00212022	-0.0006224469	0.253501	0.1276363	
0.2649342	0.1130095	0.00212022	-0.0006224469	-0.5318117	0.2759005	0.0007077196	-0.001464902	
0.00140767	-9.221908e-06	0.253501	0.1276363	0.0007077196	-0.001464902	-0.5360535	0.2185411	

4.18e+10	-0.2246269	0.2215896	0.001582466	-0.002424814	0.2678722	0.109715	0.001483734	-0.0005262632	
0.001582466	-0.002424814	-0.2417765	0.2073008	0.001904463	-0.001145267	0.260331	0.1255632	
0.2678722	0.109715	0.001904463	-0.001145267	-0.5306032	0.2872552	0.0004465583	-0.001638746	
0.001483734	-0.0005262632	0.260331	0.1255632	0.0004465583	-0.001638746	-0.5461635	0.2339731	

4.182e+10	-0.2168021	0.2221653	0.001015428	-0.002823244	0.2702987	0.1059997	0.001381848	-0.001072799	
0.001015428	-0.002823244	-0.2363006	0.2112029	0.001591868	-0.001610424	0.2665268	0.1222112	
0.2702987	0.1059997	0.001591868	-0.001610424	-0.5274517	0.2976891	0.0001328008	-0.001778649	
0.001381848	-0.001072799	0.2665268	0.1222112	0.0001328008	-0.001778649	-0.5527941	0.2501771	

4.184e+10	-0.2089769	0.2213736	0.0003354558	-0.003127058	0.2721018	0.1019675	0.001091476	-0.00159245	
0.0003354558	-0.003127058	-0.2304507	0.214148	0.001181177	-0.002012704	0.2718241	0.1178204	
0.2721018	0.1019675	0.001181177	-0.002012704	-0.5226969	0.3069098	-0.0002360727	-0.001867135	
0.001091476	-0.00159245	0.2718241	0.1178204	-0.0002360727	-0.001867135	-0.5563509	0.2664393	

4.186e+10	-0.2015195	0.2191508	-0.0004637743	-0.003291588	0.2732515	0.09775211	0.0006191382	-0.002021198	
-0.0004637743	-0.003291588	-0.2243656	0.2162138	0.0006683716	-0.002329201	0.2761072	0.1126941	
0.2732515	0.09775211	0.0006683716	-0.002329201	-0.5166523	0.3148711	-0.0006566081	-0.00187813	
0.0006191382	-0.002021198	0.2761072	0.1126941	-0.0006566081	-0.00187813	-0.5571867	0.2824324	

4.188e+10	-0.1947172	0.2156491	-0.001360533	-0.003255651	0.2736987	0.09347324	-3.403365e-06	-0.002294097	
-0.001360533	-0.003255651	-0.2180857	0.2174775	6.395731e-05	-0.002526691	0.2793068	0.1070816	
0.2736987	0.09347324	6.395731e-05	-0.002526691	-0.5098123	0.3212946	-0.001110613	-0.001783581	
-3.403365e-06	-0.002294097	0.2793068	0.1070816	-0.001110613	-0.001783581	-0.5555569	0.2980119	

4.19e+10	-0.1887118	0.2111368	-0.002302905	-0.002960343	0.2733824	0.0893076	-0.0007191345	-0.002359545	
-0.002302905	-0.002960343	-0.2116086	0.2179822	-0.0006059275	-0.00257127	0.281431	0.1012493	
0.2733824	0.0893076	-0.0006059275	-0.00257127	-0.5024392	0.3262878	-0.001564433	-0.001562251	
-0.0007191345	-0.002359545	0.281431	0.1012493	-0.001564433	-0.001562251	-0.5517938	0.3128259	

4.192e+10	-0.1838312	0.2057485	-0.003202691	-0.002366408	0.2723154	0.08545855	-0.001450542	-0.002190698	
-0.003202691	-0.002366408	-0.2049906	0.2176829	-0.001298991	-0.002439964	0.2825426	0.09538812	
0.2723154	0.08545855	-0.001298991	-0.002439964	-0.4948041	0.3298685	-0.00197312	-0.001205816	
-0.001450542	-0.002190698	0.2825426	0.09538812	-0.00197312	-0.001205816	-0.5459382	0.3268667	

4.194e+10	-0.1801624	0.19981	-0.003951437	-0.001467957	0.2705888	0.08216989	-0.002115879	-0.001793761	
-0.003951437	-0.001467957	-0.1982575	0.2165117	-0.001970702	-0.0021237	0.2826671	0.08967272	
0.2705888	0.08216989	-0.001970702	-0.0021237	-0.4871503	0.3321868	-0.002288675	-0.0007277695	
-0.002115879	-0.001793761	0.2826671	0.08967272	-0.002288675	-0.0007277695	-0.5380685	0.3400214	

4.196e+10	-0.1776939	0.1937151	-0.00443174	-0.0003075657	0.2683827	0.07964126	-0.002644018	-0.001206063	
-0.00443174	-0.0003075657	-0.1914825	0.2143874	-0.002573583	-0.001621299	0.2818569	0.08428774	
0.2683827	0.07964126	-0.002573583	-0.001621299	-0.4798981	0.3331653	-0.002469059	-0.0001609651	
-0.002644018	-0.001206063	0.2818569	0.08428774	-0.002469059	-0.0001609651	-0.5282839	0.351922	

4.198e+10	-0.1764513	0.1877045	-0.004542251	0.001021974	0.2659708	0.07799202	-0.002986311	-0.000488492	
-0.004542251	0.001021974	-0.1848178	0.21119	-0.003054535	-0.0009420326	0.2802114	0.07942389	
0.2659708	0.07799202	-0.003054535	-0.0009420326	-0.4731063	0.3332454	-0.002488022	0.0004449765	
-0.002986311	-0.000488492	0.2802114	0.07942389	-0.002488022	0.0004449765	-0.5165771	0.3623834	

4.2e+10	-0.1761854	0.182127	-0.004220877	0.002388057	0.2635881	0.07726837	-0.003127416	0.0002928745	
-0.004220877	0.002388057	-0.1784784	0.2068422	-0.003356692	-0.00011018	0.2778585	0.07525819	
0.2635881	0.07726837	-0.003356692	-0.00011018	-0.4669159	0.3325563	-0.002344861	0.001034696	
-0.003127416	0.0002928745	0.2778585	0.07525819	-0.002344861	0.001034696	-0.503123	0.3709343	

4.202e+10	-0.1766453	0.1770775	-0.00345898	0.003633557	0.2615523	0.07745545	-0.003077265	0.001080659	
-0.00345898	0.003633557	-0.1727649	0.2012837	-0.003423964	0.0008239174	0.2750008	0.07196046	
0.2615523	0.07745545	-0.003423964	0.0008239174	-0.4611498	0.3313697	-0.002059071	0.001559524	
-0.003077265	0.001080659	0.2750008	0.07196046	-0.002059071	0.001559524	-0.4880004	0.3773056	

4.204e+10	-0.177662	0.1725878	-0.002318149	0.004601121	0.2601708	0.07844615	-0.002861819	0.00184149	
-0.002318149	0.004601121	-0.1679814	0.1946083	-0.003221312	0.001785602	0.2718403	0.06964503	
0.2601708	0.07844615	-0.003221312	0.001785602	-0.4558616	0.3296251	-0.001666645	0.001985526	
-0.002861819	0.00184149	0.2718403	0.06964503	-0.001666645	0.001985526	-0.4716027	0.3809433	

4.206e+10	-0.1789517	0.1686945	-0.0009199737	0.005175166	0.2597321	0.07998841	-0.002500084	0.002567304	
-0.0009199737	0.005175166	-0.1643991	0.1869999	-0.002743187	0.00269196	0.2686908	0.06839854	
0.2597321	0.07998841	-0.002743187	0.00269196	-0.4510119	0.3274388	-0.001209247	0.002298401	
-0.002500084	0.002567304	0.2686908	0.06839854	-0.001209247	0.002298401	-0.454374	0.3814002	

4.208e+10	-0.1804252	0.1652134	0.0005791865	0.005306485	0.260407	0.08169148	-0.001991243	0.003260899	
0.0005791865	0.005306485	-0.1623919	0.1786542	-0.002014995	0.00346489	0.2658843	0.06819328	
0.260407	0.08169148	-0.002014995	0.00346489	-0.4467877	0.3247294	-0.0007300071	0.002502915	
-0.001991243	0.003260899	0.2658843	0.06819328	-0.0007300071	0.002502915	-0.4370607	0.3783269	

4.21e+10	-0.1820555	0.1620346	0.002037979	0.005016426	0.2622248	0.08314232	-0.001300885	0.003917452	
0.002037979	0.005016426	-0.162209	0.1700389	-0.001073957	0.00404475	0.2638087	0.06886945	
0.2622248	0.08314232	-0.001073957	0.00404475	-0.4430977	0.321693	-0.0002582345	0.002627541	
-0.001300885	0.003917452	0.2638087	0.06886945	-0.0002582345	0.002627541	-0.4207829	0.3713618	

4.212e+10	-0.1838817	0.1590588	0.003360924	0.00436551	0.2650193	0.08395708	-0.0003772814	0.004491984	
0.003360924	0.00436551	-0.1639725	0.1616988	3.462862e-05	0.004379763	0.2627463	0.07007346	
0.2650193	0.08395708	3.462862e-05	0.004379763	-0.4400285	0.3182935	0.0002051138	0.002713358	
-0.0003772814	0.004491984	0.2627463	0.07007346	0.0002051138	0.002713358	-0.4064956	0.3609036	

4.214e+10	-0.1860866	0.1562559	0.004497779	0.003410166	0.2685378	0.08383562	0.0008199623	0.004886279	
0.004497779	0.003410166	-0.1675384	0.1542755	0.001259757	0.004422996	0.2628008	0.07137184	
0.2685378	0.08383562	0.001259757	0.004422996	-0.4378085	0.3144815	0.0007001495	0.002791949	
0.0008199623	0.004886279	0.2628008	0.07137184	0.0007001495	0.002791949	-0.3953297	0.3474279	

4.216e+10	-0.1887103	0.1538536	0.005412082	0.002173997	0.2724315	0.08253734	0.002277523	0.004956475	
0.005412082	0.002173997	-0.1724743	0.1482465	0.002536551	0.004125363	0.2638617	0.07230817	
0.2724315	0.08253734	0.002536551	0.004125363	-0.4364961	0.3106605	0.001293326	0.002846895	
0.002277523	0.004956475	0.2638617	0.07230817	0.001293326	0.002846895	-0.3879414	0.3321538	

4.218e+10	-0.1918168	0.1520321	0.006032472	0.0006639451	0.2762628	0.07998994	0.003903295	0.00454361	
0.006032472	0.0006639451	-0.1782142	0.1439034	0.003775126	0.003442575	0.2656754	0.07257591	
0.2762628	0.07998994	0.003775126	0.003442575	-0.4362731	0.3069593	0.002038786	0.002799978	
0.003903295	0.00454361	0.2656754	0.07257591	0.002038786	0.002799978	-0.3847275	0.3161312	

4.22e+10	-0.1952371	0.1510053	0.006242831	-0.001079053	0.2796263	0.07630304	0.005505192	0.003523832	
0.006242831	-0.001079053	-0.1842113	0.1411971	0.004847981	0.002352694	0.2679329	0.07196785	
0.2796263	0.07630304	0.004847981	0.002352694	-0.4369013	0.3038806	0.002925144	0.002528661	
0.005505192	0.003523832	0.2679329	0.07196785	0.002925144	0.002528661	-0.3856444	0.3006486	

4.222e+10	-0.1986313	0.1509334	0.005923664	-0.002938599	0.2821888	0.07171925	0.006816135	0.001866602	
0.005923664	-0.002938599	-0.1901093	0.1399047	0.005600809	0.0008830833	0.2702595	0.07036711	
0.2821888	0.07171925	0.005600809	0.0008830833	-0.4382196	0.301518	0.003863246	0.001911097	
0.006816135	0.001866602	0.2702595	0.07036711	0.003863246	0.001911097	-0.3902788	0.2866883	

4.224e+10	-0.20174	0.1517462	0.004998966	-0.004729932	0.2838001	0.06651246	0.007554547	-0.000317118	
0.004998966	-0.004729932	-0.1955996	0.1398807	0.00587553	-0.0008652652	0.2722707	0.06781909	
0.2838001	0.06651246	0.00587553	-0.0008652652	-0.4399332	0.2999896	0.004684671	0.0008794207	
0.007554547	-0.000317118	0.2722707	0.06781909	0.004684671	0.0008794207	-0.3975724	0.2752922	

4.226e+10	-0.2043945	0.1532407	0.003476413	-0.00622541	0.2843772	0.06092366	0.007504922	-0.002790161	
0.003476413	-0.00622541	-0.2006923	0.1407875	0.005556248	-0.002719093	0.2735802	0.06454054	
0.2843772	0.06092366	0.005556248	-0.002719093	-0.441746	0.2994219	0.00518594	-0.0005440485	
0.007504922	-0.002790161	0.2735802	0.06454054	0.00518594	-0.0005440485	-0.406711	0.2666514	

4.228e+10	-0.206396	0.1553048	0.001461073	-0.00720199	0.2838198	0.0551587	0.006568653	-0.005232996	
0.001461073	-0.00720199	-0.2052627	0.1426613	0.004600381	-0.004452633	0.2739591	0.06087072	
0.2838198	0.0551587	0.004600381	-0.004452633	-0.4434727	0.2996895	0.005175597	-0.002225003	
0.006568653	-0.005232996	0.2739591	0.06087072	0.005175597	-0.002225003	-0.4168572	0.2607849	

4.23e+10	-0.2077038	0.1577701	-0.0008546798	-0.007480533	0.282035	0.04946549	0.004778552	-0.00730796	
-0.0008546798	-0.007480533	-0.2092953	0.1454098	0.003056408	-0.005828766	0.273315	0.05721797	
0.282035	0.04946549	0.003056408	-0.005828766	-0.4447763	0.3007967	0.004533169	-0.003945488	
0.004778552	-0.00730796	0.273315	0.05721797	0.004533169	-0.003945488	-0.42741	0.2576268	

4.232e+10	-0.2083685	0.1604074	-0.003204589	-0.006957677	0.2789724	0.04418589	0.002298453	-0.008700524	
-0.003204589	-0.006957677	-0.2125642	0.1490603	0.001068109	-0.006627684	0.2717496	0.05398533	
0.2789724	0.04418589	0.001068109	-0.006627684	-0.4454637	0.3025096	0.003241681	-0.005434736	
0.002298453	-0.008700524	0.2717496	0.05398533	0.003241681	-0.005434736	-0.4378344	0.2570814	

4.234e+10	-0.2083842	0.1631593	-0.005284906	-0.005643624	0.2747168	0.03969596	-0.0005832151	-0.009175383	
-0.005284906	-0.005643624	-0.2148008	0.1534989	-0.0011249	-0.006694143	0.269494	0.05149648	
0.2747168	0.03969596	-0.0011249	-0.006694143	-0.4454192	0.3045284	0.001420653	-0.006421939	
-0.0005832151	-0.009175383	0.269494	0.05149648	0.001420653	-0.006421939	-0.4477123	0.2587995	

4.236e+10	-0.2076803	0.1659672	-0.006804556	-0.00368228	0.2694604	0.03634149	-0.003500804	-0.008625759	
-0.006804556	-0.00368228	-0.2157067	0.1584523	-0.003226317	-0.005984413	0.2669144	0.04996131	
0.2694604	0.03634149	-0.003226317	-0.005984413	-0.4444813	0.3067416	-0.0007003983	-0.006714569	
-0.003500804	-0.008625759	0.2669144	0.04996131	-0.0007003983	-0.006714569	-0.456379	0.2627476	

4.238e+10	-0.2062331	0.1686797	-0.00756044	-0.001330389	0.2634914	0.03441939	-0.006067982	-0.007107205	
-0.00756044	-0.001330389	-0.2152178	0.1634184	-0.004943855	-0.004592505	0.2644401	0.04937399	
0.2634914	0.03441939	-0.004943855	-0.004592505	-0.4425657	0.3088529	-0.002827283	-0.006241395	
-0.006067982	-0.007107205	0.2644401	0.04937399	-0.002827283	-0.006241395	-0.4635885	0.2683006	

4.24e+10	-0.204065	0.1711095	-0.007477503	0.001101515	0.2571515	0.03415604	-0.007961032	-0.004819474	
-0.007477503	0.001101515	-0.2133136	0.1681025	-0.006059799	-0.00272084	0.2623735	0.04954279	
0.2571515	0.03415604	-0.006059799	-0.00272084	-0.4396004	0.3104488	-0.004670486	-0.005061357	
-0.007961032	-0.004819474	0.2623735	0.04954279	-0.004670486	-0.005061357	-0.4691186	0.2749001	

4.242e+10	-0.2012693	0.1729967	-0.006606507	0.003309735	0.250878	0.03573337	-0.00896402	-0.002064564	
-0.006606507	0.003309735	-0.2103657	0.1719985	-0.006464621	-0.0006315834	0.2608678	0.05017857	
0.250878	0.03573337	-0.006464621	-0.0006315834	-0.4357581	0.310938	-0.005993931	-0.003333439	
-0.00896402	-0.002064564	0.2608678	0.05017857	-0.005993931	-0.003333439	-0.4728151	0.2823019	

4.244e+10	-0.197941	0.174263	-0.005101209	0.005051592	0.2452108	0.03923559	-0.008990858	0.0008103218	
-0.005101209	0.005051592	-0.2066146	0.175036	-0.006155689	0.00141889	0.2599079	0.05102958	
0.2452108	0.03923559	-0.006155689	0.00141889	-0.4314707	0.3098148	-0.006655138	-0.001293628	
-0.008990858	0.0008103218	0.2599079	0.05102958	-0.006655138	-0.001293628	-0.4748894	0.28976	

4.246e+10	-0.1944262	0.1746939	-0.003172105	0.006159022	0.2407754	0.04453815	-0.008083166	0.00346111	
-0.003172105	0.006159022	-0.2024924	0.1770815	-0.005206958	0.003200837	0.2593944	0.05197338	
0.2407754	0.04453815	-0.005206958	0.003200837	-0.4274547	0.3068181	-0.006606968	0.0008088927	
-0.008083166	0.00346111	0.2593944	0.05197338	-0.006606968	0.0008088927	-0.4753639	0.2971557	

4.248e+10	-0.1909802	0.1743278	-0.001074235	0.006545637	0.2381655	0.05131049	-0.006398361	0.005583613	
-0.001074235	0.006545637	-0.1981624	0.178301	-0.003754999	0.004518103	0.2592471	0.05300363	
0.2381655	0.05131049	-0.003754999	0.004518103	-0.4246941	0.301926	-0.005889551	0.002732589	
-0.006398361	0.005583613	0.2592471	0.05300363	-0.005889551	0.002732589	-0.4747061	0.3039375	

4.25e+10	-0.1878295	0.173324	0.0009261767	0.006222449	0.2378775	0.05897889	-0.004202103	0.006954923	
0.0009261767	0.006222449	-0.1938594	0.178763	-0.001998175	0.005235444	0.2594718	0.05414032	
0.2378775	0.05897889	-0.001998175	0.005235444	-0.4239013	0.2958276	-0.004611932	0.004270696	
-0.004202103	0.006954923	0.2594718	0.05414032	-0.004611932	0.004270696	-0.4730664	0.310274	

4.252e+10	-0.1851443	0.1719263	0.002582061	0.005319671	0.2402084	0.06682342	-0.001837837	0.007471072	
0.002582061	0.005319671	-0.1896544	0.1785963	-0.0001641814	0.005321968	0.2601716	0.05528219	
0.2402084	0.06682342	-0.0001641814	0.005321968	-0.4259995	0.2890744	-0.002993017	0.005251575	
-0.001837837	0.007471072	0.2601716	0.05528219	-0.002993017	0.005251575	-0.4706775	0.3160437	

4.254e+10	-0.1829574	0.1703719	0.003746994	0.004045818	0.2452197	0.07392411	0.0003612201	0.007238092	
0.003746994	0.004045818	-0.1854303	0.1779455	0.001489927	0.00474131	0.2613406	0.05646086	
0.2452197	0.07392411	0.001489927	0.00474131	-0.4309019	0.283265	-0.001208923	0.00562475	
0.0003612201	0.007238092	0.2613406	0.05646086	-0.001208923	0.00562475	-0.4676751	0.3214242	

4.256e+10	-0.1812445	0.168895	0.00433802	0.002583209	0.2525235	0.07942656	0.002228433	0.006291505	
0.00433802	0.002583209	-0.1813726	0.1767471	0.002732735	0.003646948	0.2629535	0.05746777	
0.2525235	0.07942656	0.002732735	0.003646948	-0.4384202	0.2793045	0.000520433	0.005389129	
0.002228433	0.006291505	0.2629535	0.05746777	0.000520433	0.005389129	-0.4640869	0.3260447	

4.258e+10	-0.1796936	0.1677429	0.004445889	0.001183043	0.2614481	0.08268016	0.003614806	0.005049852	
0.004445889	0.001183043	-0.177444	0.1749836	0.003417353	0.002277971	0.2650998	0.05832477	
0.2614481	0.08268016	0.003417353	0.002277971	-0.4474057	0.2783772	0.00197769	0.004653049	
0.003614806	0.005049852	0.2650998	0.05832477	0.00197769	0.004653049	-0.4599259	0.3301253	

4.26e+10	-0.1781088	0.1668462	0.004164191	8.555039e-06	0.2711599	0.08341451	0.004437865	0.003606941	
0.004164191	8.554312e-06	-0.1737243	0.1727567	0.003518339	0.0009222315	0.2677305	0.05883988	
0.2711599	0.08341451	0.003518339	0.0009222315	-0.4568473	0.280505	0.002985701	0.003567188	
0.004437865	0.003606941	0.2677305	0.05883988	0.002985701	0.003567188	-0.4553983	0.3334232	

4.262e+10	-0.1762811	0.1661189	0.0036502	-0.0008766724	0.2808852	0.08167911	0.004764647	0.002176197	
0.0036502	-0.0008766724	-0.1704084	0.1699925	0.003155611	-0.0002302552	0.2707702	0.05888895	
0.2808852	0.08167911	0.00315561	-0.0002302607	-0.4654458	0.2857846	0.003526894	0.002350723	
0.004764647	0.002176197	0.2707702	0.05888895	0.003526894	0.002350723	-0.4507102	0.335949	

4.264e+10	-0.1740615	0.1654093	0.003046316	-0.001477701	0.2900275	0.07771807	0.004702988	0.000900376	
0.003046316	-0.001477701	-0.1674586	0.1668751	0.002477338	-0.001054937	0.2740778	0.05839704	
0.2900275	0.07771807	0.002477338	-0.001054937	-0.4726078	0.2933719	0.00364462	0.001172897	
0.004702988	0.000900376	0.2740778	0.05839704	0.00364462	0.001172897	-0.4460746	0.3376084	

4.266e+10	-0.17144	0.16452	0.002455021	-0.001846634	0.2981448	0.071892	0.00437949	-0.0001540831	
0.002455021	-0.001846634	-0.1649335	0.1635004	0.001646021	-0.001481876	0.2775602	0.05738396	
0.2981448	0.071892	0.001646021	-0.001481876	-0.477814	0.3027623	0.003413535	0.0001516109	
0.00437949	-0.0001540831	0.2775602	0.05738396	0.003413535	0.000151605	-0.4415559	0.3385729	

4.268e+10	-0.1684724	0.1632611	0.00194396	-0.002051445	0.3049556	0.06458671	0.003914359	-0.0009693585	
0.00194396	-0.002051445	-0.1629039	0.1598618	0.0008456176	-0.001518526	0.2812048	0.05586369	
0.3049556	0.06458671	0.0008456176	-0.001518526	-0.4807204	0.3134973	0.002952491	-0.0006161622	
0.003914359	-0.0009693585	0.2812048	0.05586369	0.002952491	-0.0006161622	-0.4374019	0.338917	

4.27e+10	-0.165177	0.1614712	0.001523067	-0.002179453	0.3102887	0.05615968	0.003388951	-0.001584328	
0.001523067	-0.002179453	-0.1613284	0.1561198	0.0002415039	-0.001249882	0.284955	0.05375009	
0.3102887	0.05615968	0.0002415039	-0.001249882	-0.4813737	0.3248129	0.002387865	-0.001116983	
0.003388951	-0.001584328	0.284955	0.05375009	0.002387865	-0.001116983	-0.4338473	0.3387148	

4.272e+10	-0.1617303	0.1589874	0.001172861	-0.00228744	0.3140808	0.04694641	0.002856789	-0.002035021	
0.001172861	-0.00228744	-0.1601942	0.152391	-9.561016e-05	-0.0008321857	0.2887573	0.05096248	
0.3140808	0.04694641	-9.561016e-05	-0.0008321857	-0.4797897	0.3363269	0.001823268	-0.001371139	
0.002856789	-0.002035021	0.2887573	0.05096248	0.001823268	-0.001371139	-0.4309492	0.3383934	

4.274e+10	-0.1582614	0.1557404	0.0008597682	-0.002415977	0.3162681	0.03721452	0.002350764	-0.002367729	
0.0008597682	-0.002415977	-0.1594384	0.1487308	-0.0001665832	-0.0003970614	0.2924595	0.04742677	
0.3162681	0.03721452	-0.0001665832	-0.0003970614	-0.4760594	0.3476578	0.001343039	-0.001432745	
0.002350764	-0.002367729	0.2924595	0.04742677	0.001343039	-0.001432745	-0.4285981	0.3382436	

4.276e+10	-0.1550514	0.1515728	0.0005326843	-0.002584271	0.3168432	0.02721652	0.001878168	-0.002633094	
0.0005326843	-0.002584271	-0.1590106	0.1450948	-1.516539e-05	-5.299269e-05	0.2959224	0.0431377	
0.3168432	0.02721652	-1.516539e-05	-5.299269e-05	-0.4703646	0.3584515	0.0009952896	-0.001382748	
0.001878168	-0.002633094	0.2959224	0.0431377	0.0009952896	-0.001382748	-0.4267169	0.3383329	

4.278e+10	-0.152318	0.1464765	0.0001360322	-0.002782377	0.3157423	0.01719174	0.00142029	-0.002872224	
0.0001360322	-0.002782377	-0.1588645	0.1414934	0.0002826066	0.0001238909	0.2990123	0.03810069	
0.3157423	0.01719174	0.0002826066	0.0001238909	-0.4627181	0.3685903	0.0007836046	-0.001305479	
0.00142029	-0.002872224	0.2990123	0.03810069	0.0007836046	-0.001305479	-0.4250946	0.338863	

4.28e+10	-0.1502946	0.1405448	-0.0003779028	-0.002970559	0.3129523	0.007410106	0.0009377238	-0.003106871	
-0.0003779028	-0.002970559	-0.1589325	0.1379633	0.0006324841	9.534373e-05	0.3015649	0.03230252	
0.3129523	0.007410106	0.0006324841	9.534373e-05	-0.4531631	0.3778293	0.0006752304	-0.001269496	
0.0009377238	-0.003106871	0.3015649	0.03230252	0.0006752304	-0.001269496	-0.423385	0.340167	

4.282e+10	-0.1493577	0.1338229	-0.001036467	-0.003083358	0.3084647	-0.001810029	0.0003805934	-0.003327002	
-0.001036467	-0.003083358	-0.159246	0.1343829	0.0009361956	-0.0001352865	0.3034182	0.02576301	
0.3084647	-0.001810029	0.0009361956	-0.0001352865	-0.4416957	0.385859	0.000613394	-0.001317288	
0.0003805934	-0.003327002	0.3034182	0.02576301	0.000613394	-0.001317288	-0.4214381	0.3420052	

4.284e+10	-0.1498237	0.1264765	-0.001837199	-0.003037163	0.3023304	-0.01012706	-0.0002908856	-0.003486687	
-0.001837199	-0.003037163	-0.1598278	0.1306778	0.00110886	-0.0005234457	0.3043049	0.01855345	
0.3023304	-0.01012706	0.00110886	-0.0005234457	-0.4284677	0.3922058	0.0005286924	-0.001454387	
-0.0002908856	-0.003486687	0.3043049	0.01855345	0.0005286924	-0.001454387	-0.4188637	0.3443035	

4.286e+10	-0.152011	0.118935	-0.002734461	-0.002743065	0.2946807	-0.01716199	-0.001085154	-0.003512076	
-0.002734461	-0.002743065	-0.1608122	0.1268652	0.001095811	-0.0009962726	0.303997	0.01083468	
0.2946807	-0.01716199	0.001095811	-0.0009962726	-0.4133075	0.3966247	0.0003612836	-0.001650215	
-0.001085154	-0.003512076	0.303997	0.01083468	0.0003612836	-0.001650215	-0.4152188	0.3469306	

4.288e+10	-0.1561933	0.1116586	-0.003636104	-0.002124768	0.285743	-0.02253212	-0.001967454	-0.003322812	
-0.003636104	-0.002124768	-0.1624384	0.1228958	0.0008791054	-0.001471733	0.3022666	0.002844501	
0.285743	-0.02253212	0.0008791054	-0.001471733	-0.3964641	0.3984064	7.827062e-05	-0.001847443	
-0.001967454	-0.003322812	0.3022666	0.002844501	7.827062e-05	-0.001847443	-0.4105225	0.349382	

4.29e+10	-0.1624034	0.1053854	-0.004404264	-0.001143942	0.2758783	-0.02588532	-0.002857143	-0.002855149	
-0.004404264	-0.001143942	-0.1649172	0.1189858	0.0004702801	-0.001873786	0.2989265	-0.005101089	
0.2758783	-0.02588532	0.0004702801	-0.001873786	-0.3782641	0.3968003	-0.0003188328	-0.001982121	
-0.002857143	-0.002855149	0.2989265	-0.005101089	-0.0003188328	-0.001982121	-0.4047169	0.3513193	

4.292e+10	-0.1704085	0.1008998	-0.004870472	0.0001717828	0.2655958	-0.02695435	-0.00363866	-0.002082194	
-0.004870472	0.0001717828	-0.1682894	0.1155324	-0.0001016198	-0.002138187	0.2938412	-0.01257248	
0.2655958	-0.02695435	-0.0001016198	-0.002138187	-0.3593388	0.3910519	-0.0008002671	-0.002002838	
-0.00363866	-0.002082194	0.2938412	-0.01257248	-0.0008002671	-0.002002838	-0.3978165	0.3524537	

4.294e+10	-0.17967	0.09889695	-0.00487121	0.001707783	0.2554477	-0.02562721	-0.004178891	-0.001037268	
-0.00487121	0.001707783	-0.1726083	0.1128227	-0.000792758	-0.002204384	0.2870091	-0.01904048	
0.2554477	-0.02562721	-0.000792758	-0.002204384	-0.3408233	0.3803877	-0.00132066	-0.001876323	
-0.004178891	-0.001037268	0.2870091	-0.01904048	-0.00132066	-0.001876323	-0.3899306	0.3523293	

4.296e+10	-0.1892475	0.09982112	-0.004296471	0.003262381	0.2460608	-0.02197419	-0.004363958	0.0001783263	
-0.004296471	0.003262381	-0.177615	0.1112882	-0.001535488	-0.002017807	0.2786345	-0.02392709	
0.2460608	-0.02197419	-0.001535488	-0.002017807	-0.3242583	0.3644515	-0.001828436	-0.001587755	
-0.004363958	0.0001783263	0.2786345	-0.02392709	-0.001828436	-0.001587755	-0.3812785	0.3504808	

4.298e+10	-0.1979394	0.1038324	-0.00314531	0.004576455	0.2379383	-0.01621266	-0.004137539	0.001410951	
-0.00314531	0.004576455	-0.182914	0.1112135	-0.002228653	-0.001541467	0.2691275	-0.02671354	
0.2379383	-0.01621266	-0.002228653	-0.001541467	-0.3116169	0.3434246	-0.002270456	-0.001136464	
-0.004137539	0.001410951	0.2691275	-0.02671354	-0.002270456	-0.001136464	-0.3721885	0.3464647	

4.3e+10	-0.2047429	0.1103349	-0.001548993	0.005405541	0.2315385	-0.008649973	-0.00352468	0.00249746	
-0.001548993	0.005405541	-0.1879895	0.1127323	-0.002739966	-0.000788261	0.2590846	-0.02702198	
0.2315385	-0.008649973	-0.002739966	-0.000788261	-0.3048674	0.3184686	-0.002588486	-0.0005369921	
-0.00352468	0.00249746	0.2590846	-0.02702198	-0.002588486	-0.0005369921	-0.3633224	0.3398721	

4.302e+10	-0.20888	0.1185157	0.0002462303	0.005594784	0.2272897	0.000350798	-0.002621374	0.00331091	
0.0002462303	0.005594784	-0.192256	0.1157475	-0.002939166	0.0001540352	0.2492024	-0.02466463	
0.2272897	0.000350798	-0.002939166	0.0001540352	-0.3058175	0.2914296	-0.002723086	0.0001717992	
-0.002621374	0.00331091	0.2492024	-0.02466463	-0.002723086	0.0001717992	-0.355569	0.3304151	

4.304e+10	-0.2100911	0.1271856	0.00194929	0.005131003	0.2256044	0.01031329	-0.001557065	0.003787099	
0.00194929	0.005131003	-0.1952772	0.1198067	-0.002752627	0.001127251	0.240248	-0.01964687	
0.2256044	0.01031329	-0.002752627	0.001127251	-0.3150558	0.2653016	-0.00263145	0.0009204895	
-0.001557065	0.003787099	0.240248	-0.01964687	-0.00263145	0.0009204895	-0.3501602	0.3180631	

4.306e+10	-0.2085438	0.1354299	0.00331382	0.004141506	0.2268103	0.02055753	-0.0004545945	0.003922948	
0.00331382	0.004141506	-0.1967371	0.1245163	-0.002203584	0.001948195	0.2330305	-0.01220649	
0.2268103	0.02055753	-0.002203584	0.001948195	-0.3319874	0.243156	-0.002304218	0.001623641	
-0.0004545945	0.003922948	0.2330305	-0.01220649	-0.002304218	0.001623641	-0.34826	0.3034856	

4.308e+10	-0.2048687	0.1423345	0.004197199	0.002836699	0.2310023	0.03021517	0.0005867904	0.003748449	
0.004197199	0.002836699	-0.1967298	0.1291782	-0.001410167	0.002475296	0.2282723	-0.002845155	
0.2310023	0.03021517	-0.001410167	0.002475296	-0.3546921	0.2275335	-0.001770271	0.002196273	
0.0005867904	0.003748449	0.2282723	-0.002845155	-0.001770271	0.002196273	-0.3509796	0.2879903	

4.31e+10	-0.1997232	0.1476256	0.004576001	0.001438243	0.237915	0.03837489	0.00149127	0.00331096	
0.004576001	0.001438243	-0.1953617	0.1334667	-0.0005356316	0.002656437	0.2265708	0.007653498	
0.237915	0.03837489	-0.0005356316	0.002656437	-0.3803336	0.2197628	-0.001086758	0.00257648	
0.00149127	0.00331096	0.2265708	0.007653498	-0.001086758	0.00257648	-0.3589176	0.273323	

4.312e+10	-0.1938408	0.1511728	0.004515798	0.0001239844	0.2469398	0.04428911	0.002198191	0.0026707	
0.004515798	0.0001239844	-0.1929728	0.137088	0.0002709401	0.002527318	0.2281983	0.01828825	
0.2469398	0.04428911	0.0002709401	0.002527318	-0.4058716	0.2199119	-0.0003298953	0.002725709	
0.002198191	0.0026707	0.2281983	0.01828825	-0.0003298953	0.002725709	-0.3715227	0.2615952	

4.314e+10	-0.1876733	0.1532263	0.004124212	-0.0009965328	0.2572149	0.04753268	0.002666951	0.001903372	
0.004124212	-0.0009965328	-0.1898747	0.1399366	0.0009155163	0.002174209	0.2330429	0.02800899	
0.2572149	0.04753268	0.0009155163	0.002174209	-0.4289573	0.2268337	0.0004165753	0.002637303	
0.002666951	0.001903372	0.2330429	0.02800899	0.0004165753	0.002637303	-0.387416	0.254388	

4.316e+10	-0.1816029	0.153956	0.003516759	-0.00187399	0.2679151	0.04805107	0.002884869	0.001093613	
0.003516759	-0.00187399	-0.1863803	0.1419324	0.001360294	0.001696225	0.2406179	0.03589104	
0.2679151	0.04805107	0.001360294	0.001696225	-0.4481678	0.2386965	0.001072092	0.002336586	
0.002884869	0.001093613	0.2406179	0.03589104	0.001072092	0.002336586	-0.4046868	0.2524837	

4.318e+10	-0.1757586	0.1536484	0.002791472	-0.002502535	0.2783072	0.04604202	0.002870966	0.0003214013	
0.002791472	-0.002502535	-0.1826069	0.1432336	0.001610485	0.0011771	0.2501572	0.04127869	
0.2783072	0.04604202	0.001610485	0.0011771	-0.4628771	0.253838	0.001576135	0.00187963	
0.002870966	0.0003214013	0.2501572	0.04127869	0.001576135	0.00187963	-0.4214374	0.2557345	

4.32e+10	-0.1702455	0.1524846	0.002024059	-0.002903904	0.2878819	0.04186453	0.002670191	-0.0003528222	
0.002024059	-0.002903904	-0.1786875	0.143874	0.00169459	0.0006780276	0.2607864	0.04386624	
0.2878819	0.04186453	0.00169459	0.0006780276	-0.4731607	0.2706528	0.001899582	0.00133713	
0.002670191	-0.0003528222	0.2607864	0.04386624	0.001899582	0.00133713	-0.4361302	0.2634021	

4.322e+10	-0.1650489	0.1506576	0.001266219	-0.003111309	0.2962687	0.03593482	0.00233959	-0.000893777	
0.001266219	-0.003111309	-0.1746824	0.1439458	0.001651241	0.0002365591	0.2716312	0.04367507	
0.2962687	0.03593482	0.001651241	0.0002365591	-0.4793634	0.2881445	0.002046537	0.0007767934	
0.00233959	-0.000893777	0.2716312	0.04367507	0.002046537	0.0007767934	-0.4479502	0.2741817	

4.324e+10	-0.1601257	0.1482261	0.0005482163	-0.003159694	0.3032994	0.02865475	0.001934366	-0.001291526	
0.0005482163	-0.003159694	-0.1706088	0.1434625	0.001518244	-0.0001276426	0.2820297	0.04096977	
0.3032994	0.02865475	0.001518244	-0.0001276426	-0.4819842	0.3055226	0.002041969	0.0002498721	
0.001934366	-0.001291526	0.2820297	0.04096977	0.002041969	0.0002498721	-0.4564424	0.2869923	

4.326e+10	-0.1555161	0.1452242	-0.0001135213	-0.003081209	0.3088685	0.0203775	0.001502844	-0.001554393	
-0.0001135213	-0.003081209	-0.1665608	0.1424073	0.001330681	-0.0004089387	0.2914677	0.03614203	
0.3088685	0.0203775	0.001330681	-0.0004089387	-0.4816431	0.3221885	0.001920787	-0.0002124471	
0.001502844	-0.001554393	0.2914677	0.03614203	0.001920787	-0.0002124471	-0.4616523	0.3008325	

4.328e+10	-0.1512155	0.1416535	-0.000712404	-0.00290039	0.3129622	0.01140525	0.001079091	-0.001701228	
-0.000712404	-0.00290039	-0.1625217	0.1408304	0.001117863	-0.0006106944	0.2996608	0.02960802	
0.3129622	0.01140525	0.001117863	-0.0006106944	-0.4787453	0.337968	0.001717572	-0.0005952664	
0.001079091	-0.001701228	0.2996608	0.02960802	0.001717572	-0.0005952664	-0.4639008	0.3149117	

4.33e+10	-0.1472186	0.1375239	-0.001245834	-0.002635581	0.3155938	0.001981087	0.0006846342	-0.001756811	
-0.001245834	-0.002635581	-0.1585613	0.1386633	0.0009021614	-0.0007427858	0.3064386	0.02175668	
0.3155938	0.001981087	0.0009021614	-0.0007427858	-0.4737054	0.3527035	0.001462309	-0.000896034	
0.0006846342	-0.001756811	0.3064386	0.02175668	0.001462309	-0.000896034	-0.4634998	0.3287838	

4.332e+10	-0.1435798	0.1328168	-0.001712649	-0.002299369	0.3167571	-0.007672783	0.0003308603	-0.001743688	
-0.001712649	-0.002299369	-0.1546841	0.1359411	0.0006993451	-0.000818394	0.3117121	0.01292618	
0.3167571	-0.007672783	0.0006993451	-0.000818394	-0.4667283	0.3663565	0.00117793	-0.001118987	
0.0003308603	-0.001743688	0.3117121	0.01292618	0.00117793	-0.001118987	-0.4608483	0.3420066	

4.334e+10	-0.1403676	0.1275009	-0.002111572	-0.001901268	0.3164642	-0.01736068	2.077175e-05	-0.001683272	
-0.002111572	-0.001901268	-0.1509665	0.1326273	0.0005192276	-0.0008527048	0.3154316	0.003411229	
0.3164642	-0.01736068	0.0005192276	-0.0008527048	-0.4580008	0.3788912	0.00088057	-0.001272416	
2.077175e-05	-0.001683272	0.3154316	0.003411229	0.00088057	-0.001272416	-0.4561792	0.3544869	

4.336e+10	-0.1377305	0.1215112	-0.002440342	-0.001448393	0.3147339	-0.02688372	-0.0002482718	-0.00159307	
-0.002440342	-0.001448393	-0.1475174	0.1286423	0.0003666768	-0.0008607855	0.3176028	-0.006531937	
0.3147339	-0.02688372	0.0003666768	-0.0008607855	-0.4477306	0.3901676	0.000580094	-0.001363968	
-0.0002482718	-0.00159307	0.3176028	-0.006531937	0.000580094	-0.001363968	-0.4498533	0.3659771	

4.338e+10	-0.1357886	0.1148722	-0.002695237	-0.0009464998	0.3115831	-0.03603542	-0.0004837099	-0.001486058	
-0.002695237	-0.0009464998	-0.1443823	0.1240131	0.0002410074	-0.0008575261	0.3182332	-0.01667957	
0.3115831	-0.03603542	0.0002410074	-0.0008575261	-0.4359127	0.4001408	0.0002828503	-0.001399503	
-0.0004837099	-0.001486058	0.3182332	-0.01667957	0.0002828503	-0.001399503	-0.441914	0.3764974	

4.34e+10	-0.1347732	0.107588	-0.002871487	-0.0003984517	0.3070396	-0.04458647	-0.0006964068	-0.001369729	
-0.002871487	-0.0003984517	-0.141756	0.1186526	0.0001360613	-0.0008563483	0.3173185	-0.02682111	
0.3070396	-0.04458647	0.0001360613	-0.0008563483	-0.4226572	0.4085832	-6.682789e-06	-0.001382284	
-0.0006964068	-0.001369729	0.3173185	-0.02682111	-6.682789e-06	-0.001382284	-0.4325494	0.3859295	

4.342e+10	-0.1349126	0.09979367	-0.002959983	0.0001934887	0.3011767	-0.05227671	-0.0008986203	-0.001244594	
-0.002959983	0.0001934887	-0.1397852	0.1125911	4.076029e-05	-0.0008668923	0.3148534	-0.03674223	
0.3011767	-0.05227671	4.076029e-05	-0.0008668923	-0.4077444	0.4155035	-0.0002831219	-0.001312818	
-0.0008986203	-0.001244594	0.3148534	-0.03674223	-0.0002831219	-0.001312818	-0.4218272	0.3941869	

4.344e+10	-0.1365103	0.09162741	-0.002946077	0.0008264408	0.2941045	-0.05882659	-0.001099838	-0.001104069	
-0.002946077	0.0008264408	-0.1386834	0.1058781	-6.020286e-05	-0.0008929629	0.3108632	-0.046217	
0.2941045	-0.05882659	-6.020286e-05	-0.0008929629	-0.3913595	0.4204166	-0.0005388886	-0.001190734	
-0.001099838	-0.001104069	0.3108632	-0.046217	-0.0005388886	-0.001190734	-0.4097558	0.4011224	

4.346e+10	-0.139789	0.08346331	-0.00280795	0.001493013	0.2860401	-0.06394278	-0.001304862	-0.0009352236	
-0.00280795	0.001493013	-0.1387094	0.09861207	-0.0001838874	-0.0009312583	0.3053606	-0.05497606	
0.2860401	-0.06394278	-0.0001838874	-0.0009312583	-0.3735211	0.4229319	-0.000761827	-0.001016505	
-0.001304862	-0.0009352236	0.3053606	-0.05497606	-0.000761827	-0.001016505	-0.3963544	0.4065851	

4.348e+10	-0.1450137	0.07571468	-0.002516549	0.002176062	0.2773028	-0.06737357	-0.001510028	-0.0007218644	
-0.002516549	0.002176062	-0.1401811	0.09093035	-0.0003467019	-0.0009688337	0.2984401	-0.06272257	
0.2773028	-0.06737357	-0.0003467019	-0.0009688337	-0.3544845	0.4224582	-0.0009368404	-0.0007956235	
-0.001510028	-0.0007218644	0.2984401	-0.06272257	-0.0009368404	-0.0007956235	-0.3815648	0.4103253	

4.35e+10	-0.1521511	0.06908287	-0.002038923	0.002840599	0.268311	-0.06895544	-0.001701669	-0.000448965	
-0.002038923	0.002840599	-0.1433031	0.0832705	-0.0005598262	-0.0009830739	0.2902508	-0.06913142	
0.268311	-0.06895544	-0.0005598262	-0.0009830739	-0.3346275	0.4184312	-0.001048563	-0.0005414354	
-0.001701669	-0.000448965	0.2902508	-0.06913142	-0.001048563	-0.0005414354	-0.3656308	0.4118199	

4.352e+10	-0.1610223	0.06417622	-0.001347431	0.003427669	0.259521	-0.06866048	-0.001857833	-0.0001067966	
-0.001347431	0.003427669	-0.1483187	0.07602923	-0.0008242186	-0.000943489	0.2810358	-0.0739014	
0.259521	-0.06866048	-0.0008242186	-0.000943489	-0.3148667	0.4100459	-0.001085489	-0.0002750741	
-0.001857833	-0.0001067966	0.2810358	-0.0739014	-0.001085489	-0.0002750741	-0.3486278	0.4106517	

4.354e+10	-0.1710749	0.06172571	-0.0004361201	0.00385048	0.2513968	-0.06664258	-0.001950689	0.0003044234	
-0.0004361201	0.00385048	-0.1552215	0.06988958	-0.001125615	-0.0008133133	0.2711656	-0.07675768	
0.2513968	-0.06664258	-0.001125615	-0.0008133133	-0.2960157	0.3971355	-0.001046892	-2.540266e-05	
-0.001950689	0.0003044234	0.2711656	-0.07675768	-0.001046892	-2.540266e-05	-0.330996	0.4062753	

4.356e+10	-0.1814876	0.06213708	0.0006566322	0.004004117	0.244283	-0.06317588	-0.001950621	0.0007762463	
0.0006566322	0.004004117	-0.163792	0.0655453	-0.001426014	-0.0005582746	0.2610778	-0.07754298	
0.244283	-0.06317588	-0.001426014	-0.0005582746	-0.2796902	0.3793625	-0.0009468108	0.0001794153	
-0.001950621	0.0007762463	0.2610778	-0.07754298	-0.0009468108	0.0001794153	-0.31321	0.3981619	

4.358e+10	-0.1912512	0.06547991	0.001832586	0.003794435	0.2383695	-0.05857122	-0.001827279	0.001288526	
0.001832586	0.003794435	-0.1734499	0.06367967	-0.001663252	-0.0001627903	0.2512803	-0.07623462	
0.2383695	-0.05857122	-0.001663252	-0.0001627903	-0.267409	0.357193	-0.0008140226	0.0003199957	
-0.001827279	0.001288526	0.2512803	-0.07623462	-0.0008140226	0.0003199957	-0.2964074	0.3857278	

4.36e+10	-0.1994129	0.07140015	0.002940148	0.003176294	0.2337122	-0.05310669	-0.001548751	0.001809514	
0.002940148	0.003176294	-0.1833268	0.06470345	-0.00176019	0.0003533183	0.2422062	-0.07293729	
0.2337122	-0.05310669	-0.00176019	0.0003533183	-0.2608672	0.3316221	-0.0006867754	0.0003963501	
-0.001548751	0.001809514	0.2422062	-0.07293729	-0.0006867754	0.0003963501	-0.2819256	0.3687434	

4.362e+10	-0.2052449	0.07915628	0.003809131	0.002182746	0.2303876	-0.04693571	-0.001089127	0.002285455	
0.003809131	0.002182746	-0.1923862	0.06865702	-0.001651951	0.0009217311	0.2342762	-0.06787292	
0.2303876	-0.04693571	-0.001651951	0.0009217311	-0.2612641	0.3043918	-0.0005964776	0.0004330483	
-0.001089127	0.002285455	0.2342762	-0.06787292	-0.0005964776	0.0004330483	-0.2713239	0.3475287	

4.364e+10	-0.2083015	0.08790433	0.004294473	0.0009289686	0.2285159	-0.0401714	-0.0004431858	0.002637626	
0.004294473	0.0009289686	-0.1995473	0.07512417	-0.001316378	0.001438085	0.2277935	-0.06127152	
0.2285159	-0.0401714	-0.001316378	0.001438085	-0.2692347	0.2778287	-0.0005521326	0.0004729006	
-0.0004431858	0.002637626	0.2277935	-0.06127152	-0.0005521326	0.0004729006	-0.2661877	0.3231413	

4.366e+10	-0.208571	0.09668273	0.004319517	-0.0004128332	0.2283284	-0.03299456	0.0003502631	0.002774176	
0.004319517	-0.0004128332	-0.2040381	0.08330794	-0.0007928671	0.001795972	0.2230629	-0.05337564	
0.2283284	-0.03299456	-0.0007928671	0.001795972	-0.2844146	0.2544747	-0.0005278401	0.0005552561	
0.0003502631	0.002774176	0.2230629	-0.05337564	-0.0005278401	0.0005552561	-0.2678631	0.2972833	

4.368e+10	-0.2064167	0.1045853	0.003892021	-0.001656315	0.2301305	-0.02577993	0.001198116	0.002620053	
0.003892021	-0.001656315	-0.2055542	0.0919919	-0.0001757038	0.001923592	0.2204281	-0.04447414	
0.2301305	-0.02577993	-0.0001757038	0.001923592	-0.3054082	0.2366429	-0.0004723497	0.000689333	
0.001198116	0.002620053	0.2204281	-0.04447414	-0.0004723497	0.000689333	-0.2769861	0.2722885	

4.37e+10	-0.2023799	0.1111213	0.003099139	-0.002641774	0.2340208	-0.01911296	0.001964158	0.002155935	
0.003099139	-0.002641774	-0.2042399	0.1001887	0.0004193176	0.001810784	0.2202702	-0.03504108	
0.2340208	-0.01911296	0.0004193176	0.001810784	-0.3300894	0.2257632	-0.0003409604	0.0008413687	
0.001964158	0.002155935	0.2202702	-0.03504108	-0.0003409604	0.0008413687	-0.2931592	0.2507358	

4.372e+10	-0.1971442	0.1159415	0.002080935	-0.003269435	0.2398814	-0.01365926	0.002512781	0.001440307	
0.002080935	-0.003269435	-0.2006517	0.1070031	0.0008942219	0.001507539	0.2228642	-0.02577759	
0.2398814	-0.01365926	0.0008942219	0.001507539	-0.3557076	0.2225298	-0.0001249269	0.0009530269	
0.002512781	0.001440307	0.2228642	-0.02577759	-0.0001249269	0.0009530269	-0.3147485	0.2350339	

4.374e+10	-0.1913243	0.1190889	0.0009955461	-0.003512335	0.2472585	-0.009984526	0.002759001	0.0005972229	
0.0009955461	-0.003512335	-0.1955487	0.1120372	0.001196615	0.001099574	0.2281378	-0.01752621	
0.2472585	-0.009984526	0.001196615	0.001099574	-0.3799592	0.2262316	0.0001417778	0.0009751877	
0.002759001	0.0005972229	0.2281378	-0.01752621	0.0001417778	0.0009751877	-0.3394414	0.2265505	

4.376e+10	-0.1853582	0.1206953	-1.785202e-05	-0.003409453	0.2555408	-0.008436976	0.002696165	-0.0002293274	
-1.785202e-05	-0.003409453	-0.1897421	0.115093	0.001326363	0.0006738048	0.2356885	-0.01110613	
0.2555408	-0.008436976	0.001326363	0.0006738048	-0.4010404	0.2355714	0.0004045322	0.0008928631	
0.002696165	-0.0002293274	0.2356885	-0.01110613	0.0004045322	0.0008928631	-0.3645513	0.2255032	

4.378e+10	-0.1795492	0.1210619	-0.0008634562	-0.003043278	0.2640635	-0.009092561	0.002387036	-0.0009252951	
-0.0008634562	-0.003043278	-0.1838274	0.1164355	0.001319742	0.0002931115	0.2448174	-0.007088107	
0.2640635	-0.009092561	0.001319742	0.0002931115	-0.4180578	0.2488171	0.000615686	0.000724299	
0.002387036	-0.0009252951	0.2448174	-0.007088107	0.000615686	0.000724299	-0.3877603	0.2311515	

4.38e+10	-0.1740909	0.1203665	-0.001493998	-0.002511186	0.2722543	-0.01180166	0.001926883	-0.001431447	
-0.001493998	-0.002511186	-0.1782392	0.1163257	0.001226338	-1.230879e-05	0.254706	-0.005712037	
0.2722543	-0.01180166	0.001226338	-1.230879e-05	-0.4305503	0.2645656	0.0007492837	0.0005045045	
0.001926883	-0.001431447	0.254706	-0.005712037	0.0007492837	0.0005045045	-0.4074332	0.2420123	

4.382e+10	-0.1689468	0.1189141	-0.001905235	-0.001903241	0.2796663	-0.01628462	0.001408998	-0.001742515	
-0.001905235	-0.001903241	-0.1731623	0.1151795	0.001091155	-0.0002398261	0.2645697	-0.00691183	
0.2796663	-0.01628462	0.001091155	-0.0002398261	-0.4387779	0.2814741	0.0007998045	0.0002699412	
0.001408998	-0.001742515	0.2645697	-0.00691183	0.0007998045	0.0002699412	-0.4227559	0.2564337	

4.384e+10	-0.1642075	0.1167825	-0.002120169	-0.001289083	0.2860192	-0.02220734	0.0009016152	-0.00188807	
-0.002120169	-0.001289083	-0.1686929	0.1132288	0.0009460131	-0.0004025529	0.2738025	-0.01040118	
0.2860192	-0.02220734	0.0009460131	-0.0004025529	-0.4432817	0.2984348	0.0007753857	5.006041e-05	
0.0009016152	-0.00188807	0.2738025	-0.01040118	0.0007753857	5.006041e-05	-0.4336984	0.2727974	

4.386e+10	-0.1598597	0.1140268	-0.002175086	-0.0007147112	0.2911068	-0.02922362	0.0004431771	-0.001911087	
-0.002175086	-0.0007147112	-0.1647906	0.1107347	0.0008076522	-0.0005196788	0.2819488	-0.01577918	
0.2911068	-0.02922362	0.0008076522	-0.0005196788	-0.4444098	0.3150091	0.0006916519	-0.0001338798	
0.0004431771	-0.001911087	0.2819488	-0.01577918	0.0006916519	-0.0001338798	-0.4404178	0.2899611	

4.388e+10	-0.1558769	0.1107759	-0.002108389	-0.0002067294	0.2948742	-0.03702855	4.691015e-05	-0.001854507	
-0.002108389	-0.0002067294	-0.1613861	0.1078755	0.0006812152	-0.0006097831	0.2887746	-0.0226302	
0.2948742	-0.03702855	0.0006812152	-0.0006097831	-0.4427632	0.3307474	0.0005676549	-0.0002693117	
4.691015e-05	-0.001854507	0.2887746	-0.0226302	0.0005676549	-0.0002693117	-0.4434027	0.3071411	

4.39e+10	-0.1522308	0.1070293	-0.001954718	0.0002247857	0.2972523	-0.04533839	-0.0002907877	-0.001750816	
-0.001954718	0.0002247857	-0.1584296	0.1046636	0.0005633953	-0.0006859619	0.2941167	-0.030559	
0.2972523	-0.04533839	0.0005633953	-0.0006859619	-0.4388461	0.3453378	0.000421928	-0.0003508765	
-0.0002907877	-0.001750816	0.2941167	-0.030559	0.000421928	-0.0003508765	-0.4433523	0.3235352	

4.392e+10	-0.1489877	0.1027797	-0.001742274	0.0005772141	0.2982852	-0.05392263	-0.0005827965	-0.001621443	
-0.001742274	0.0005772141	-0.1558502	0.1012103	0.0004473586	-0.0007562614	0.297959	-0.03922652	
0.2982852	-0.05392263	0.0004473586	-0.0007562614	-0.4329082	0.3587696	0.0002719174	-0.0003774669	
-0.0005827965	-0.001621443	0.297959	-0.03922652	0.0002719174	-0.0003774669	-0.440576	0.3390442	

4.394e+10	-0.1461761	0.09804119	-0.001492855	0.0008542742	0.2979563	-0.06254487	-0.000844946	-0.001475956	
-0.001492855	0.0008542742	-0.1536424	0.0975044	0.0003251746	-0.0008228914	0.3002942	-0.04833965	
0.2979563	-0.06254487	0.0003251746	-0.0008228914	-0.4253232	0.3709023	0.0001339501	-0.0003512773	
-0.000844946	-0.001475956	0.3002942	-0.04833965	0.0001339501	-0.0003512773	-0.4355313	0.3534421	

4.396e+10	-0.1438396	0.09280494	-0.001223405	0.001061617	0.2963303	-0.07101135	-0.001092252	-0.001313757	
-0.001223405	0.001061617	-0.1517643	0.09354868	0.0001888639	-0.000884133	0.3011724	-0.05764785	
0.2963303	-0.07101135	0.0001888639	-0.000884133	-0.4161997	0.3817778	2.485059e-05	-0.0002780618	
-0.001092252	-0.001313757	0.3011724	-0.05764785	2.485059e-05	-0.0002780618	-0.4286619	0.3665002	

4.398e+10	-0.1420517	0.0870835	-0.0009460031	0.001206049	0.2934113	-0.07911351	-0.001335433	-0.001124937	
-0.0009460031	0.001206049	-0.1502694	0.08925892	3.24575e-05	-0.000933666	0.300596	-0.06694333	
0.2934113	-0.07911351	3.24575e-05	-0.000933666	-0.4057902	0.3911833	-3.924014e-05	-0.0001686245	
-0.001335433	-0.001124937	0.300596	-0.06694333	-3.924014e-05	-0.0001686245	-0.4201221	0.3782796	

4.4e+10	-0.1409555	0.08085669	-0.0006701975	0.001294047	0.2892937	-0.08664369	-0.001576704	-0.0008931464	
-0.0006701975	0.001294047	-0.1491358	0.08472091	-0.0001474615	-0.0009623174	0.2986565	-0.07602112	
0.2892937	-0.08664369	-0.0001474615	-0.0009623174	-0.3939841	0.399245	-4.412792e-05	-4.020966e-05	
-0.001576704	-0.0008931464	0.2986565	-0.07602112	-4.412792e-05	-4.020966e-05	-0.410137	0.3886616	

4.402e+10	-0.1406838	0.07417413	-0.000403989	0.001332192	0.2840577	-0.09337143	-0.001807867	-0.0005989453	
-0.000403989	0.001332192	-0.1484954	0.07982288	-0.000349967	-0.0009584024	0.2953809	-0.08468238	
0.2840577	-0.09337143	-0.000349967	-0.0009584024	-0.381035	0.4056191	1.869913e-05	8.360028e-05	
-0.001807867	-0.0005989453	0.2953809	-0.08468238	1.869913e-05	8.360028e-05	-0.3987628	0.3976508	

4.404e+10	-0.1414315	0.06709614	-0.000153648	0.001327941	0.2778355	-0.09906939	-0.002007511	-0.0002251784	
-0.000153648	0.001327941	-0.1484158	0.07464537	-0.0005691324	-0.0009093889	0.2908353	-0.09272792	
0.2778355	-0.09906939	-0.0005691324	-0.0009093889	-0.366976	0.4101521	0.0001496742	0.0001746094	
-0.002007511	-0.0002251784	0.2908353	-0.09272792	0.0001496742	0.0001746094	-0.3862215	0.405006	

4.406e+10	-0.1433975	0.05980809	7.648402e-05	0.001290035	0.2708494	-0.1035248	-0.002142781	0.0002365652	
7.648402e-05	0.001290035	-0.1490636	0.06919303	-0.0007939245	-0.000804526	0.2851381	-0.09995451	
0.2708494	-0.1035248	-0.0007939245	-0.000804526	-0.3519992	0.4125753	0.0003394659	0.0002022338	
-0.002142781	0.0002365652	0.2851381	-0.09995451	0.0003394659	0.0002022338	-0.3725072	0.4106741	

4.408e+10	-0.1467656	0.05252079	0.0002864491	0.001227931	0.2633572	-0.1065102	-0.002171459	0.0007817732	
0.0002864491	0.001227931	-0.150542	0.06356047	-0.00100844	-0.0006355406	0.2783775	-0.1061239	
0.2633572	-0.1065102	-0.00100844	-0.0006355406	-0.3362662	0.4125971	0.0005662459	0.0001346273	
-0.002171459	0.0007817732	0.2783775	-0.1061239	0.0005662459	0.0001346273	-0.3576428	0.4144794	

4.41e+10	-0.1517511	0.04558525	0.0004806319	0.001148593	0.2557571	-0.1079098	-0.002047048	0.001385956	
0.0004806319	0.001148593	-0.1530364	0.05791923	-0.001191942	-0.000397893	0.2707484	-0.1110034	
0.2557571	-0.1079098	-0.001191942	-0.000397893	-0.3202832	0.4097964	0.0007904961	-5.547098e-05	
-0.002047048	0.001385956	0.2707484	-0.1110034	0.0007904961	-5.547098e-05	-0.341856	0.4160342	

4.412e+10	-0.1583288	0.0395345	0.0006672566	0.001054762	0.248486	-0.1077201	-0.001727995	0.001999078	
0.0006672566	0.001054762	-0.1566264	0.05252809	-0.001318949	-9.408068e-05	0.2625339	-0.1144092	
0.248486	-0.1077201	-0.001318949	-9.408068e-05	-0.3045107	0.4039526	0.0009522279	-0.000381481	
-0.001727995	0.001999078	0.2625339	-0.1144092	0.0009522279	-0.000381481	-0.3253939	0.4149902	

4.414e+10	-0.166448	0.03486376	0.0008555299	0.0009413037	0.2419937	-0.1060969	-0.001192192	0.002546215	
0.0008555299	0.0009413037	-0.1614097	0.04762794	-0.001361623	0.0002614679	0.254059	-0.1161725	
0.2419937	-0.1060969	-0.001361623	0.0002614679	-0.2897554	0.3948874	0.0009769296	-0.0008251897	
-0.001192192	0.002546215	0.254059	-0.1161725	0.0009769296	-0.0008251897	-0.308592	0.4110059	

4.416e+10	-0.1757122	0.03215414	0.001050798	0.0007929264	0.2366616	-0.10339	-0.0004506809	0.002937327	
0.001050798	0.0007929264	-0.1672864	0.04369959	-0.001295917	0.0006421713	0.2457112	-0.1162416	
0.2366616	-0.10339	-0.001295917	0.0006421713	-0.2769613	0.382607	0.0007942206	-0.001324998	
-0.0004506809	0.002937327	0.2457112	-0.1162416	0.0007942206	-0.001324998	-0.2921718	0.4036194	

4.418e+10	-0.1854872	0.0318392	0.001245977	0.0005876411	0.2326512	-0.1000703	0.000439952	0.003085088	
0.001245977	0.0005876411	-0.174072	0.04102058	-0.001107752	0.001009746	0.2379144	-0.1147	
0.2326512	-0.1000703	-0.001107752	0.001009746	-0.266856	0.3677005	0.0003659711	-0.001777516	
0.000439952	0.003085088	0.2379144	-0.1147	0.0003659711	-0.001777516	-0.2768387	0.3927348	

4.42e+10	-0.195026	0.03407256	0.001414143	0.0003047153	0.2299371	-0.09661415	0.00138609	0.002929648	
0.001414143	0.0003047153	-0.181389	0.04001373	-0.0007986651	0.001318234	0.2310403	-0.111734	
0.2299371	-0.09661415	-0.0007986651	0.001318234	-0.2603877	0.3507402	-0.0002891311	-0.0020591	
0.00138609	0.002929648	0.2310403	-0.111734	-0.0002891311	-0.0020591	-0.2637676	0.3782427	

4.422e+10	-0.2034649	0.0387394	0.001511643	-5.916008e-05	0.2282987	-0.09338551	0.002271433	0.002452667	
0.001511643	-5.916008e-05	-0.1887683	0.04081316	-0.0003895972	0.001520686	0.2253986	-0.1076593	
0.2282987	-0.09338551	-0.0003895972	0.001520686	-0.257979	0.3328243	-0.001088529	-0.00205761	
0.002271433	0.002452667	0.2253986	-0.1076593	-0.001088529	-0.00205761	-0.253904	0.3607332	

4.424e+10	-0.2101272	0.04527758	0.001489636	-0.0004778398	0.2274204	-0.09053837	0.002977694	0.001684012	
0.001489636	-0.0004778398	-0.1956248	0.04344062	7.668842e-05	0.001578738	0.2211544	-0.1028254	
0.2274204	-0.09053837	7.668842e-05	0.001578738	-0.2597912	0.3150398	-0.001893083	-0.001708133	
0.002977694	0.001684012	0.2211544	-0.1028254	-0.001893083	-0.001708133	-0.2484099	0.3409049	

4.426e+10	-0.2145283	0.0530904	0.00131756	-0.000895547	0.2270022	-0.08804835	0.003401526	0.0006979855	
0.00131756	-0.000895547	-0.2013744	0.04771424	0.0005386448	0.001475346	0.2183532	-0.0975918	
0.2270022	-0.08804835	0.0005386448	0.001475346	-0.2657352	0.2984643	-0.002535721	-0.001021925	
0.003401526	0.0006979855	0.2183532	-0.0975918	-0.002535721	-0.001021925	-0.2480169	0.3200874	

4.428e+10	-0.2164647	0.06145743	0.0009977777	-0.00124245	0.2269279	-0.08575342	0.00347295	-0.0003928684	
0.0009977777	-0.00124245	-0.2055486	0.05327332	0.0009320812	0.001226149	0.2169663	-0.0922666	
0.2269279	-0.08575342	0.0009320812	0.001226149	-0.2752457	0.2842299	-0.002869354	-9.719173e-05	
0.00347295	-0.0003928684	0.2169663	-0.0922666	-0.002869354	-9.719173e-05	-0.2529837	0.2998963	

4.43e+10	-0.216078	0.06949987	0.0005707116	-0.001456584	0.2272556	-0.08352824	0.003169874	-0.00145175	
0.0005707116	-0.001456584	-0.2078959	0.05941691	0.001210292	0.0008747218	0.2169506	-0.08709486	
0.2272556	-0.08352824	0.001210292	0.0008747218	-0.2875187	0.2731314	-0.002816714	0.0009032635	
0.003169874	-0.00145175	0.2169506	-0.08709486	-0.002816714	0.0009032635	-0.2628816	0.2820047	

4.432e+10	-0.213647	0.07670709	0.0001026827	-0.001503498	0.2281077	-0.08135115	0.00252783	-0.002340387	
0.0001026827	-0.001503498	-0.2083223	0.0656438	0.001354892	0.0004757776	0.2182146	-0.08230412	
0.2281077	-0.08135115	0.001354892	0.0004757776	-0.3016838	0.2656894	-0.002392821	0.001807708	
0.00252783	-0.002340387	0.2182146	-0.08230412	-0.002392821	0.001807708	-0.2768884	0.2677619	

4.434e+10	-0.2095942	0.08264589	-0.0003335407	-0.001387164	0.2296647	-0.07933106	0.001639671	-0.002946271	
-0.0003335407	-0.001387164	-0.2070248	0.07136518	0.001371712	7.751196e-05	0.2207142	-0.07814598	
0.2296647	-0.07933106	0.001371712	7.751196e-05	-0.3166737	0.2620684	-0.001684452	0.002485121	
0.001639671	-0.002946271	0.2207142	-0.07814598	-0.001684452	0.002485121	-0.2936166	0.2581302	

4.436e+10	-0.20443	0.08707028	-0.0006792529	-0.001141721	0.2319613	-0.07770321	0.0006315667	-0.003209042	
-0.0006792529	-0.001141721	-0.2043119	0.0761453	0.001278749	-0.0002858108	0.2242808	-0.07487795	
0.2319613	-0.07770321	0.001278749	-0.0002858108	-0.3312569	0.2623628	-0.0008099695	0.002864279	
0.0006315667	-0.003209042	0.2242808	-0.07487795	-0.0008099695	0.002864279	-0.3113716	0.2535867	

4.438e+10	-0.198644	0.08989997	-0.0009005845	-0.0008200437	0.2349292	-0.07672317	-0.0003614545	-0.003125871	
-0.0009005845	-0.0008200437	-0.2006044	0.07978962	0.00109717	-0.0005894813	0.2287157	-0.07275944	
0.2349292	-0.07672317	0.00109717	-0.0005894813	-0.344551	0.2660112	0.0001102246	0.002925124	
-0.0003614545	-0.003125871	0.2287157	-0.07275944	0.0001102246	0.002925124	-0.3285999	0.2538793	

4.44e+10	-0.1926394	0.09118366	-0.0009915918	-0.0004787138	0.2384013	-0.07661574	-0.001225209	-0.002745415	
-0.0009915918	-0.0004787138	-0.196311	0.08215893	0.0008511745	-0.0008146516	0.2336879	-0.07197216	
0.2384013	-0.07661574	0.0008511745	-0.0008146516	-0.3559297	0.2722272	0.0009649736	0.002687084	
-0.001225209	-0.002745415	0.2336879	-0.07197216	0.0009649736	0.002687084	-0.3441305	0.2581927	

4.442e+10	-0.1867424	0.09108037	-0.0009681927	-0.0001644529	0.2420976	-0.0774681	-0.001880644	-0.002149	
-0.0009681927	-0.0001644529	-0.1918047	0.08331946	0.0005697652	-0.0009501632	0.238829	-0.07256634	
0.2420976	-0.0774681	0.0005697652	-0.0009501632	-0.3649465	0.280337	0.001660394	0.002206701	
-0.001880644	-0.002149	0.238829	-0.07256634	0.001660394	0.002206701	-0.3570462	0.2656496	

4.444e+10	-0.1812092	0.08975603	-0.0008602714	9.041817e-05	0.2457823	-0.079305	-0.00228981	-0.001430276	
-0.0008602714	9.041817e-05	-0.1873134	0.08339728	0.0002846798	-0.0009952871	0.2438012	-0.07450028	
0.2457823	-0.079305	0.0002846798	-0.0009952871	-0.3715465	0.2895536	0.002136273	0.00156942	
-0.00228981	-0.001430276	0.2438012	-0.07450028	0.002136273	0.00156942	-0.3670876	0.2751165	

4.446e+10	-0.1761686	0.08745085	-0.0007021295	0.0002713517	0.2492055	-0.08206476	-0.00245109	-0.0006797475	
-0.0007021295	0.0002713517	-0.1830439	0.08253214	2.269974e-05	-0.000961092	0.2482972	-0.0776308	
0.2492055	-0.08206476	2.269974e-05	-0.000961092	-0.3759754	0.2991715	0.002374873	0.0008687979	
-0.00245109	-0.0006797475	0.2482972	-0.0776308	0.002374873	0.0008687979	-0.3743255	0.2855729	

4.448e+10	-0.1717551	0.08432788	-0.0005249189	0.0003777485	0.2522133	-0.0856198	-0.002389722	2.919741e-05	
-0.0005249189	0.0003777485	-0.179109	0.0808708	-0.0001972462	-0.000866083	0.2521151	-0.08175667	
0.2522133	-0.0856198	-0.0001972462	-0.000866083	-0.3783906	0.3088279	0.002395292	0.0001846651	
-0.002389722	2.919741e-05	0.2521151	-0.08175667	0.002395292	0.0001846651	-0.3787622	0.2965608	

4.45e+10	-0.1680114	0.08049758	-0.0003542976	0.0004183651	0.2546797	-0.0898368	-0.002146546	0.0006423616	
-0.0003542976	0.0004183651	-0.1755334	0.07855667	-0.000364003	-0.0007307157	0.2550879	-0.08664031	
0.2546797	-0.0898368	-0.000364003	-0.0007307157	-0.3790503	0.3182865	0.002234481	-0.0004253206	
-0.002146546	0.0006423616	0.2550879	-0.08664031	0.002234481	-0.0004253206	-0.3809258	0.3072586	

4.452e+10	-0.1649432	0.07621444	-0.0002078623	0.000408305	0.2565086	-0.09458017	-0.001768306	0.001123067	
-0.0002078623	0.000408305	-0.1723918	0.07567471	-0.000474483	-0.0005768236	0.2571314	-0.09204614	
0.2565086	-0.09458017	-0.000474483	-0.0005768236	-0.3783518	0.3272766	0.00193836	-0.0009223087	
-0.001768306	0.001123067	0.2571314	-0.09204614	0.00193836	-0.0009223087	-0.3810763	0.3175008	

4.454e+10	-0.1625593	0.07152781	-9.517807e-05	0.0003656559	0.2576894	-0.09974422	-0.001306381	0.001449866	
-9.517807e-05	0.0003656559	-0.1696771	0.07230343	-0.0005341254	-0.0004244061	0.2582573	-0.09775731	
0.2576894	-0.09974422	-0.0005341254	-0.0004244061	-0.3765543	0.3357335	0.001558271	-0.001284905	
-0.001306381	0.001449866	0.2582573	-0.09775731	0.001558271	-0.001284905	-0.3797795	0.3268926	

4.456e+10	-0.1608799	0.06657286	-1.688566e-05	0.000307707	0.2581565	-0.1052308	-0.000814621	0.001616881	
-1.688566e-05	0.000307707	-0.1674488	0.06850511	-0.000555615	-0.0002873886	0.2584703	-0.1036006	
0.2581565	-0.1052308	-0.000555615	-0.0002873886	-0.3736407	0.343821	0.001148085	-0.001513149	
-0.000814621	0.001616881	0.2584703	-0.1036006	0.001148085	-0.001513149	-0.3772257	0.3355058	

4.458e+10	-0.1598743	0.061402	3.277012e-05	0.0002471469	0.2578728	-0.1109295	-0.0003418769	0.001637901	
3.277012e-05	0.0002471469	-0.1657093	0.06430769	-0.0005547327	-0.0001706581	0.2578414	-0.1093994	
0.2578728	-0.1109295	-0.0005547327	-0.0001706581	-0.3697972	0.3514155	0.0007493066	-0.001630684	
-0.0003418769	0.001637901	0.2578414	-0.1093994	0.0007493066	-0.001630684	-0.373727	0.3432986	

4.46e+10	-0.1595283	0.05608493	6.164663e-05	0.0001895262	0.2567859	-0.1167481	7.450269e-05	0.001540399	
6.164663e-05	0.0001895262	-0.164535	0.05975577	-0.0005429134	-6.954881e-05	0.2564277	-0.1150388	
0.2567859	-0.1167481	-0.0005429134	-6.954881e-05	-0.3649972	0.3585565	0.0003803038	-0.001669328	
7.450269e-05	0.001540399	0.2564277	-0.1150388	0.0003803038	-0.001669328	-0.3695514	0.3503236	

4.462e+10	-0.1598126	0.05072625	7.535894e-05	0.0001362594	0.2548382	-0.1225413	0.0004138387	0.001357418	
7.535894e-05	0.0001362594	-0.1639556	0.05489059	-0.0005237086	2.22246e-05	0.254288	-0.1203969	
0.2548382	-0.1225413	-0.0005237086	2.22246e-05	-0.3592607	0.3650762	3.871279e-05	-0.001653747	
0.0004138387	0.001357418	0.254288	-0.1203969	3.871279e-05	-0.001653747	-0.3648761	0.3565653	

4.464e+10	-0.1607379	0.0453025	7.636561e-05	8.670516e-05	0.2520106	-0.1281455	0.0006673957	0.0011205	
7.636561e-05	8.670516e-05	-0.1640535	0.04978072	-0.000496442	0.000109059	0.2515324	-0.125404	
0.2520106	-0.1281455	-0.000496442	0.000109059	-0.3524529	0.3710186	-0.0002826662	-0.001593321	
0.0006673957	0.0011205	0.2515324	-0.125404	-0.0002826662	-0.001593321	-0.3595893	0.3623614	

4.466e+10	-0.1623876	0.03982611	6.514144e-05	4.105034e-05	0.2483065	-0.1333752	0.0008345773	0.0008565381	
6.514144e-05	4.105034e-05	-0.1649317	0.04450199	-0.0004593468	0.0001920547	0.2482081	-0.1299753	
0.2483065	-0.1333752	-0.0004593468	0.0001920547	-0.3447247	0.3760692	-0.0005880341	-0.001488239	
0.0008345773	0.0008565381	0.2482081	-0.1299753	-0.0005880341	-0.001488239	-0.3537805	0.3676324	

4.468e+10	-0.1647592	0.03438998	4.08164e-05	3.611437e-07	0.2437796	-0.1380418	0.0009204358	0.0005911135	
4.08164e-05	3.611437e-07	-0.1666436	0.03914727	-0.0004101384	0.0002714647	0.2443952	-0.134041	
0.2437796	-0.1380418	-0.0004101384	0.0002714647	-0.3359747	0.3801512	-0.0008766527	-0.001335592	
0.0009204358	0.0005911135	0.2443952	-0.134041	-0.0008766527	-0.001335592	-0.3473863	0.3723959	

4.47e+10	-0.1679526	0.02907084	1.269966e-06	-3.175762e-05	0.2385122	-0.1419168	0.000937103	0.0003454554	
1.269966e-06	-3.175762e-05	-0.1692658	0.03391481	-0.0003443806	0.0003455848	0.24017	-0.1375299	
0.2385122	-0.1419168	-0.0003443806	0.0003455848	-0.3263495	0.3829174	-0.001144466	-0.001130963	
0.000937103	0.0003454554	0.24017	-0.1375299	-0.001144466	-0.001130963	-0.3403086	0.3766269	

4.472e+10	-0.1720504	0.02402702	-5.359609e-05	-4.822427e-05	0.2326995	-0.1447751	0.0009016621	0.0001336943	
-5.359609e-05	-4.822427e-05	-0.1728364	0.02898493	-0.0002581946	0.0004073208	0.2356384	-0.1403516	
0.2326995	-0.1447751	-0.0002581946	0.0004073208	-0.3159705	0.3841217	-0.001382515	-0.0008659055	
0.0009016621	0.0001336943	0.2356384	-0.1403516	-0.001382515	-0.0008659055	-0.3324655	0.3801738	

4.474e+10	-0.1771275	0.0194299	-0.0001191442	-3.974951e-05	0.2266018	-0.146455	0.0008330602	-3.785964e-05	
-0.0001191442	-3.974951e-05	-0.1773834	0.02451932	-0.000153566	0.0004452305	0.2309327	-0.1424432	
0.2266018	-0.146455	-0.000153566	0.0004452305	-0.3052641	0.3833573	-0.001569738	-0.0005352996	
0.0008330602	-3.785964e-05	0.2309327	-0.1424432	-0.001569738	-0.0005352996	-0.3239321	0.3827795	

4.476e+10	-0.1832442	0.01551629	-0.0001831994	4.796159e-07	0.2205589	-0.146861	0.0007483083	-0.0001696132	
-0.0001831994	4.796159e-07	-0.1828606	0.020802	-4.101388e-05	0.0004489304	0.2262149	-0.1437598	
0.2205589	-0.146861	-4.101388e-05	0.0004489304	-0.2944416	0.380551	-0.00167692	-0.0001464166	
0.0007483083	-0.0001696132	0.2262149	-0.1437598	-0.00167692	-0.0001464166	-0.3147218	0.3842411	

4.478e+10	-0.1902985	0.01267297	-0.0002307847	7.086639e-05	0.2149812	-0.1460517	0.0006619073	-0.0002674279	
-0.0002307847	7.086639e-05	-0.1891248	0.01811071	6.273405e-05	0.0004168761	0.2217067	-0.1443359	
0.2149812	-0.1460517	6.273405e-05	0.0004168761	-0.2841938	0.375499	-0.001677609	0.0002756211	
0.0006619073	-0.0002674279	0.2217067	-0.1443359	-0.001677609	0.0002756211	-0.3049612	0.3843517	

4.48e+10	-0.1980929	0.01121384	-0.0002500202	0.000161436	0.2101957	-0.1441936	0.000584572	-0.0003429389	
-0.0002500202	0.000161436	-0.1959372	0.01672884	0.0001442237	0.0003573971	0.2175827	-0.1442389	
0.2101957	-0.1441936	0.0001442237	0.0003573971	-0.2751724	0.3682323	-0.001560272	0.000693373	
0.000584572	-0.0003429389	0.2175827	-0.1442389	-0.001560272	0.000693373	-0.2949439	0.3828542	

4.482e+10	-0.2062599	0.01149561	-0.0002374732	0.000259611	0.2065154	-0.1416212	0.0005182078	-0.0004122897	
-0.0002374732	0.000259611	-0.2029992	0.01676092	0.0001961336	0.0002819997	0.2139993	-0.1436281	
0.2065154	-0.1416212	0.0001961336	0.0002819997	-0.2681033	0.3590338	-0.001329954	0.001068165	
0.0005182078	-0.0004122897	0.2139993	-0.1436281	-0.001329954	0.001068165	-0.2850315	0.3796263	

4.484e+10	-0.2142769	0.01363135	-0.0001951484	0.0003564459	0.204071	-0.1387282	0.0004529115	-0.0004886037	
-0.0001951484	0.0003564459	-0.2098751	0.0183986	0.0002155968	0.0002027423	0.2110745	-0.1427256	
0.204071	-0.1387282	0.0002155968	0.0002027423	-0.263535	0.3485822	-0.001002502	0.001368241	
0.0004529115	-0.0004886037	0.2110745	-0.1427256	-0.001002502	0.001368241	-0.2756188	0.374661	

4.486e+10	-0.2215864	0.01767273	-0.0001248029	0.0004472952	0.2028256	-0.135944	0.0003715283	-0.0005740756	
-0.0001248029	0.0004472952	-0.2161597	0.0215375	0.0002030106	0.0001328211	0.2087889	-0.141749	
0.2028256	-0.135944	0.0002030106	0.0001328211	-0.261873	0.3377264	-0.0006034776	0.001564762	
0.0003715283	-0.0005740756	0.2087889	-0.141749	-0.0006034776	0.001564762	-0.2671845	0.368018	

4.488e+10	-0.2276265	0.02324188	-2.423607e-05	0.0005292354	0.2026082	-0.1336158	0.0002602789	-0.000657088	
-2.423607e-05	0.0005292354	-0.2213976	0.02600824	0.0001646089	8.677373e-05	0.2070721	-0.1409481	
0.2026082	-0.1336158	0.0001646089	8.677373e-05	-0.2630969	0.3274606	-0.0001698815	0.001638316	
0.0002602789	-0.000657088	0.2070721	-0.1409481	-0.0001698815	0.001638316	-0.2600077	0.3599796	

4.49e+10	-0.2319326	0.03004047	0.0001117708	0.0005932325	0.2031342	-0.1319724	0.0001163183	-0.0007198427	
0.0001117708	0.0005932325	-0.2252838	0.03146112	0.0001155147	7.590206e-05	0.2057073	-0.1404292	
0.2031342	-0.1319724	0.0001155147	7.590206e-05	-0.2667534	0.3186942	0.0002536765	0.00158837	
0.0001163183	-0.0007198427	0.2057073	-0.1404292	0.0002536765	0.00158837	-0.2543436	0.350846	

4.492e+10	-0.2343098	0.03736259	0.0002847359	0.0006225774	0.2041215	-0.131089	-5.312537e-05	-0.0007468028	
0.0002847359	0.0006225774	-0.2275857	0.03747254	7.608125e-05	0.0001023875	0.2044973	-0.140232	
0.2041215	-0.131089	7.608125e-05	0.0001023875	-0.2720641	0.3120928	0.000631684	0.001436223	
-5.312537e-05	-0.0007468028	0.2044973	-0.140232	0.000631684	0.001436223	-0.2503979	0.3408754	

4.494e+10	-0.2347528	0.04469657	0.0004858862	0.0005970946	0.2053679	-0.1310152	-0.000235669	-0.0007283413	
0.0004858862	0.0005970946	-0.2282389	0.04362147	6.521335e-05	0.0001567344	0.2032786	-0.1402744	
0.2053679	-0.1310152	6.521335e-05	0.0001567344	-0.2782203	0.3079126	0.0009508967	0.001209199	
-0.000235669	-0.0007283413	0.2032786	-0.1402744	0.0009508967	0.001209199	-0.248251	0.330399	

4.496e+10	-0.2334286	0.0515362	0.000693913	0.0005000057	0.2066141	-0.1317392	-0.0004179907	-0.000658902	
0.000693913	0.0005000057	-0.2273063	0.04943612	9.386211e-05	0.0002212863	0.2019298	-0.1404128	
0.2066141	-0.1317392	9.386211e-05	0.0002212863	-0.2841701	0.3061247	0.001211758	0.0009206077	
-0.0004179907	-0.000658902	0.2019298	-0.1404128	0.001211758	0.0009206077	-0.2479699	0.3196809	

4.498e+10	-0.2306684	0.05751209	0.0008793579	0.0003256508	0.2076725	-0.133221	-0.0005846438	-0.0005355397	
0.0008793579	0.0003256508	-0.2249612	0.05459011	0.00016537	0.0002776421	0.200463	-0.14047	
0.2076725	-0.133221	0.00016537	0.0002776421	-0.2891478	0.3063002	0.001405866	0.0005694058	
-0.0005846438	-0.0005355397	0.200463	-0.14047	0.001405866	0.0005694058	-0.2497055	0.3090218	

4.5e+10	-0.2267842	0.06246677	0.001011131	8.260955e-05	0.2083011	-0.1353447	-0.0007165573	-0.0003589816	
0.001011131	8.260955e-05	-0.2214668	0.05876224	0.0002740602	0.0003068106	0.1989764	-0.1402896	
0.2083011	-0.1353447	0.0002740602	0.0003068106	-0.2926859	0.3076729	0.0015069	0.0001583736	
-0.0007165573	-0.0003589816	0.1989764	-0.1402896	0.0015069	0.0001583736	-0.2534316	0.2988363	

4.502e+10	-0.2221104	0.06621399	0.001064328	-0.0002076749	0.2083127	-0.1379524	-0.0007921532	-0.0001389653	
0.001064328	-0.0002076749	-0.2171562	0.06169471	0.0004096916	0.0002939056	0.1976431	-0.13982	
0.2083127	-0.1379524	0.0004096916	0.0002939056	-0.2944986	0.3095784	0.001480631	-0.0002870546	
-0.0007921532	-0.0001389653	0.1976431	-0.13982	0.001480631	-0.0002870546	-0.2592234	0.2895185	

4.504e+10	-0.2168795	0.06879822	0.001024705	-0.0005157986	0.2075778	-0.1407733	-0.000792308	0.0001047314	
0.001024705	-0.0005157986	-0.2123643	0.06330854	0.000556088	0.0002264826	0.1966762	-0.1390742	
0.2075778	-0.1407733	0.000556088	0.0002264826	-0.2948529	0.3111449	0.00130606	-0.0007173597	
-0.000792308	0.0001047314	0.1966762	-0.1390742	0.00130606	-0.0007173597	-0.2669273	0.2815778	

4.506e+10	-0.211289	0.07024554	0.0008894891	-0.000810395	0.2060511	-0.1435241	-0.0007070066	0.0003423895	
0.0008894891	-0.000810395	-0.207434	0.06361693	0.0006936405	9.956589e-05	0.1962382	-0.1382207	
0.2060511	-0.1435241	0.0006936405	9.956589e-05	-0.2940918	0.3118644	0.0009885046	-0.00107405	
-0.0007070066	0.0003423895	0.1962382	-0.1382207	0.0009885046	-0.00107405	-0.2761594	0.2755816	

4.508e+10	-0.2054973	0.07051778	0.0006659165	-0.001061397	0.2038063	-0.1459056	-0.0005380051	0.0005406407	
0.0006659165	-0.001061397	-0.2027129	0.06267258	0.0008014283	-8.48742e-05	0.1964191	-0.1374933	
0.2038063	-0.1459056	0.0008014283	-8.48742e-05	-0.2927518	0.3113131	0.0005565205	-0.001302161	
-0.0005380051	0.0005406407	0.1964191	-0.1374933	0.0005565205	-0.001302161	-0.2864721	0.2718519	

4.51e+10	-0.1996385	0.06956054	0.0003691736	-0.001242724	0.2010008	-0.1476281	-0.0003005159	0.0006640234	
0.0003691736	-0.001242724	-0.198464	0.06060078	0.0008625066	-0.0003218776	0.1971614	-0.1371635	
0.2010008	-0.1476281	0.0008625066	-0.0003218776	-0.2915268	0.3092525	6.287834e-05	-0.001354942	
-0.0003005159	0.0006640234	0.1971614	-0.1371635	6.287834e-05	-0.001354942	-0.2971855	0.2706077	

4.512e+10	-0.1938992	0.06737111	2.175406e-05	-0.001331522	0.1979673	-0.1484436	-2.875476e-05	0.0006820842	
2.175406e-05	-0.001331522	-0.1948609	0.05772044	0.000856033	-0.0006044021	0.1982987	-0.1374366	
0.1979673	-0.1484436	0.000856033	-0.0006044021	-0.2910851	0.3058832	-0.0004141615	-0.00120829	
-2.875476e-05	0.0006820842	0.1982987	-0.1374366	-0.0004141615	-0.00120829	-0.3076212	0.2717776	

4.514e+10	-0.1884898	0.06391031	-0.0003449605	-0.001311181	0.1951045	-0.1482857	0.0002257518	0.0005814209	
-0.0003449605	-0.001311181	-0.1920004	0.05418588	0.0007554723	-0.0009196943	0.1995737	-0.1384234	
0.1951045	-0.1482857	0.0007554723	-0.0009196943	-0.2922873	0.3015118	-0.0007808506	-0.0008813504	
0.0002257518	0.0005814209	0.1995737	-0.1384234	-0.0007808506	-0.0008813504	-0.317254	0.2751049	

4.516e+10	-0.1837293	0.05913053	-0.0006903218	-0.001178038	0.1928914	-0.1472633	0.0004049985	0.0003784211	
-0.0006903218	-0.001178038	-0.1898578	0.05026896	0.0005307655	-0.001233668	0.200721	-0.1401187	
0.1928914	-0.1472633	0.0005307655	-0.001233668	-0.2956566	0.2968976	-0.0009618945	-0.0004460885	
0.0004049985	0.0003784211	0.200721	-0.1401187	-0.0009618945	-0.0004460885	-0.3257097	0.2801545	

4.518e+10	-0.1799408	0.05319843	-0.0009742318	-0.0009470682	0.1916814	-0.1456998	0.0004652137	0.0001210317	
-0.0009742318	-0.0009470682	-0.188437	0.04604054	0.0001684455	-0.001491619	0.2015145	-0.1424163	
0.1916814	-0.1456998	0.0001684455	-0.001491619	-0.3012592	0.2930641	-0.0009327449	-6.8375e-06	
0.0004652137	0.0001210317	0.2015145	-0.1424163	-0.0009327449	-6.8375e-06	-0.3327695	0.2865302	

4.52e+10	-0.1774714	0.04629399	-0.001166853	-0.0006510636	0.1917104	-0.1441025	0.0003946527	-0.0001253125	
-0.001166853	-0.0006510636	-0.1876759	0.04164111	-0.0003132744	-0.001626811	0.2018014	-0.1451319	
0.1917104	-0.1441025	-0.0003132744	-0.001626811	-0.3088448	0.2909388	-0.0007296421	0.0003399277	
0.0003946527	-0.0001253125	0.2018014	-0.1451319	-0.0007296421	0.0003399277	-0.3384358	0.2937832	

4.522e+10	-0.1765004	0.03887073	-0.001257643	-0.0003311098	0.1929234	-0.1429957	0.0002153068	-0.0002991681	
-0.001257643	-0.0003311098	-0.1875096	0.0371279	-0.0008642407	-0.001585788	0.2015253	-0.1480459	
0.1929234	-0.1429957	-0.0008642407	-0.001585788	-0.3175853	0.2914214	-0.0004275506	0.0005352001	
0.0002153068	-0.0002991681	0.2015253	-0.1480459	-0.0004275506	0.0005352001	-0.3427114	0.3017158	

4.524e+10	-0.1771418	0.03126675	-0.001255538	-2.56421e-05	0.1950396	-0.1428886	-2.406604e-05	-0.0003578918	
-0.001255538	-2.56421e-05	-0.1879412	0.03249686	-0.001410458	-0.001339411	0.2007064	-0.1509577	
0.1950396	-0.1428886	-0.001410458	-0.001339411	-0.3266461	0.2948368	-0.0001126401	0.0005693955	
-2.406604e-05	-0.0003578918	0.2007064	-0.1509577	-0.0001126401	0.0005693955	-0.3458112	0.3100608	

4.526e+10	-0.1793208	0.0239265	-0.001184685	0.0002382289	0.1975722	-0.1440668	-0.0002611057	-0.000287052	
-0.001184685	0.0002382289	-0.1890149	0.02774277	-0.001870206	-0.0008928441	0.1994262	-0.153712	
0.1975722	-0.1440668	-0.001870206	-0.0008928441	-0.3349902	0.3010976	0.0001432178	0.0004747793	
-0.0002611057	-0.000287052	0.1994262	-0.153712	0.0001432178	0.0004747793	-0.3477771	0.3187907	

4.528e+10	-0.182834	0.01718632	-0.001077207	0.0004499428	0.1999759	-0.1465908	-0.0004335945	-0.000104417	
-0.001077207	0.0004499428	-0.1907704	0.02298441	-0.002166357	-0.0002848216	0.1978271	-0.1562008	
0.1999759	-0.1465908	-0.002166357	-0.0002848216	-0.3415116	0.3099898	0.0003036744	0.0003118502	
-0.0004335945	-0.000104417	0.1978271	-0.1562008	0.0003036744	0.0003118502	-0.3484766	0.3280434	

4.53e+10	-0.1874655	0.01120318	-0.0009617763	0.0006198225	0.2017818	-0.1502885	-0.000497816	0.0001456659	
-0.0009617763	0.0006198225	-0.1933345	0.01820741	-0.002245164	0.0004161166	0.1960384	-0.1583922	
0.2017818	-0.1502885	-0.002245164	0.0004161166	-0.3457959	0.3206592	0.0003741101	0.0001398071	
-0.000497816	0.0001456659	0.1960384	-0.1583922	0.0003741101	0.0001398071	-0.3479996	0.3375886	

4.532e+10	-0.1929626	0.006131518	-0.0008510024	0.0007724542	0.202659	-0.1548213	-0.0004373721	0.0004055786	
-0.0008510024	0.0007724542	-0.1967814	0.01358775	-0.002083841	0.001125789	0.1941972	-0.1602832	
0.202659	-0.1548213	-0.002083841	0.001125789	-0.347414	0.3324603	0.0003908087	-9.738847e-06	
-0.0004373721	0.0004055786	0.1941972	-0.1602832	0.0003908087	-9.738847e-06	-0.3459704	0.347544	

4.534e+10	-0.1991598	0.002016145	-0.0007360959	0.0009327283	0.2024508	-0.1598172	-0.0002614025	0.0006215483	
-0.0007360959	0.0009327283	-0.201193	0.009347253	-0.001692521	0.001763096	0.192402	-0.1619372	
0.2024508	-0.1598172	-0.001692521	0.001763096	-0.3463568	0.3446683	0.0003867553	-0.000142927	
-0.0002614025	0.0006215483	0.192402	-0.1619372	0.0003867553	-0.000142927	-0.3422851	0.3575557	

4.536e+10	-0.2058872	-0.001078033	-0.0005911523	0.001112264	0.2011194	-0.1649018	2.197382e-06	0.0007494068	
-0.0005911523	0.001112264	-0.2065504	0.005733398	-0.001103552	0.002256616	0.1907243	-0.1634185	
0.2011194	-0.1649018	-0.001103552	0.002256616	-0.3426662	0.3567054	0.0003682576	-0.0002856704	
2.197382e-06	0.0007494068	0.1907243	-0.1634185	0.0003682576	-0.0002856704	-0.3367242	0.3673413	

4.538e+10	-0.213056	-0.003198175	-0.0003830809	0.001301597	0.198776	-0.1697588	0.0003123063	0.0007571492	
-0.0003830809	0.001301597	-0.2127782	0.003045426	-0.0003663494	0.002546382	0.1892362	-0.1648197	
0.198776	-0.1697588	-0.0003663494	0.002546382	-0.3363829	0.3681281	0.0003097416	-0.0004536899	
0.0003123063	0.0007571492	0.1892362	-0.1648197	0.0003097416	-0.0004536899	-0.3290558	0.3765399	

4.54e+10	-0.2205608	-0.004157966	-8.575193e-05	0.001467597	0.1955785	-0.1741255	0.0006143022	0.0006288618	
-8.575193e-05	0.001467597	-0.2196644	0.001571912	0.0004486215	0.002582727	0.1879403	-0.1662054	
0.1955785	-0.1741255	0.0004486215	0.002582727	-0.3278293	0.378323	0.0001750418	-0.0006317796	
0.0006143022	0.0006288618	0.1879403	-0.1662054	0.0001750418	-0.0006317796	-0.3194734	0.3845344	

4.542e+10	-0.2282459	-0.003944199	0.000306482	0.001558552	0.1917756	-0.177835	0.000845702	0.0003744457	
0.000306482	0.001558552	-0.226905	0.001504913	0.001248963	0.00234028	0.1868674	-0.1677254	
0.1917756	-0.177835	0.001248963	0.00234028	-0.3170219	0.3870494	-5.756782e-05	-0.0007743029	
0.000845702	0.0003744457	0.1868674	-0.1677254	-5.756782e-05	-0.0007743029	-0.308154	0.3908915	

4.544e+10	-0.2359483	-0.00234738	0.0007671911	0.001517267	0.1876152	-0.1808238	0.0009508418	3.591939e-05	
0.0007671911	0.001517267	-0.2341115	0.002942087	0.001928641	0.001832068	0.1859729	-0.1694895	
0.1876152	-0.1808238	0.001928641	0.001832068	-0.3044318	0.3937467	-0.000376963	-0.0008225999	
0.0009508418	3.591939e-05	0.1859729	-0.1694895	-0.000376963	-0.0008225999	-0.2955372	0.3951965	

4.546e+10	-0.2434594	0.0005523927	0.001235635	0.001300632	0.1833714	-0.1831219	0.0009008322	-0.000317781	
0.001235635	0.001300632	-0.2408881	0.005887178	0.002390812	0.001119887	0.1851653	-0.1716391	
0.1833714	-0.1831219	0.002390812	0.001119887	-0.2903842	0.3980702	-0.0007359658	-0.0007260143	
0.0009008322	-0.000317781	0.1851653	-0.1716391	-0.0007359658	-0.0007260143	-0.2821391	0.3971551	

4.548e+10	-0.2503904	0.004982614	0.001627198	0.0009020451	0.1792251	-0.1848491	0.0007070717	-0.0006101126	
0.001627198	0.0009020451	-0.2468405	0.01017306	0.002572518	0.0003047006	0.1842854	-0.1742761	
0.1792251	-0.1848491	0.002572518	0.0003047006	-0.2753353	0.399718	-0.001060081	-0.000463799	
0.0007070717	-0.0006101126	0.1842854	-0.1742761	-0.001060081	-0.000463799	-0.2683384	0.3967815	

4.55e+10	-0.2564092	0.01088122	0.001857793	0.0003618251	0.1753042	-0.18623	0.0004201068	-0.000781726	
0.001857793	0.0003618251	-0.2516861	0.01561425	0.00246448	-0.0004950018	0.1831222	-0.1774578	
0.1753042	-0.18623	0.00246448	-0.0004950018	-0.2598925	0.3983702	-0.001267814	-5.712762e-05	
0.0004201068	-0.000781726	0.1831222	-0.1774578	-0.001267814	-5.712762e-05	-0.2547615	0.3939521	

4.552e+10	-0.2610684	0.01802675	0.001871963	-0.0002377487	0.1715763	-0.1874528	0.0001134189	-0.0008097858	
0.001871963	-0.0002377487	-0.2551916	0.02178791	0.002109335	-0.001172691	0.1814257	-0.181122	
0.1715763	-0.1874528	0.002109335	-0.001172691	-0.2445186	0.3940609	-0.001295386	0.0004306664	
0.0001134189	-0.0008097858	0.1814257	-0.181122	-0.001295386	0.0004306664	-0.2416062	0.3889127	

4.554e+10	-0.2640111	0.02611915	0.001662119	-0.0007957835	0.1679054	-0.1887047	-0.0001418018	-0.0007141887	
0.001662119	-0.0007957835	-0.2572371	0.02849013	0.001589001	-0.001659254	0.1789817	-0.1851404	
0.1679054	-0.1887047	0.001589001	-0.001659254	-0.2300563	0.3866899	-0.001118563	0.0009116279	
-0.0001418018	-0.0007141887	0.1789817	-0.1851404	-0.001118563	0.0009116279	-0.2293516	0.3817052	

4.556e+10	-0.2649604	0.03460046	0.001272136	-0.001220446	0.1640576	-0.1900559	-0.0002999198	-0.0005484963	
0.001272136	-0.001220446	-0.2577728	0.03531048	0.0009972038	-0.00193304	0.1755803	-0.1892977	
0.1640576	-0.1900559	0.0009972038	-0.00193304	-0.2170072	0.3764743	-0.0007589844	0.001297286	
-0.0002999198	-0.0005484963	0.1755803	-0.1892977	-0.0007589844	0.001297286	-0.2182396	0.372427	

4.558e+10	-0.2638091	0.04305858	0.0007814055	-0.001455851	0.1597603	-0.1913561	-0.0003546271	-0.0003775074	
0.0007814055	-0.001455851	-0.2567773	0.04200288	0.0004118229	-0.002016068	0.1711026	-0.1933011	
0.1597603	-0.1913561	0.0004118229	-0.002016068	-0.2059551	0.3637281	-0.000272426	0.00152323	
-0.0003546271	-0.0003775074	0.1711026	-0.1933011	-0.000272426	0.00152323	-0.208555	0.3612279	

4.56e+10	-0.2606455	0.05085321	0.0002819052	-0.001491085	0.1548352	-0.1923423	-0.0003368914	-0.0002527614	
0.0002819052	-0.001491085	-0.2543354	0.04824109	-0.0001204955	-0.001951083	0.1654797	-0.1967922	
0.1548352	-0.1923423	-0.0001204955	-0.001951083	-0.1973437	0.3488037	0.0002688698	0.001556752	
-0.0003368914	-0.0002527614	0.1654797	-0.1967922	0.0002688698	0.001556752	-0.2004997	0.3482575	

4.562e+10	-0.2556687	0.05752365	-0.0001489822	-0.001356845	0.1492765	-0.1925918	-0.0002944714	-0.0001947586	
-0.0001489822	-0.001356845	-0.2504791	0.0537438	-0.000583451	-0.00178086	0.1587828	-0.199353	
0.1492765	-0.1925918	-0.000583451	-0.00178086	-0.191725	0.3320774	0.0007910021	0.001397465	
-0.0002944714	-0.0001947586	0.1587828	-0.199353	0.0007910021	0.001397465	-0.1946006	0.3335534	

4.564e+10	-0.2492365	0.06265012	-0.0004591414	-0.001109013	0.1432986	-0.1917256	-0.0002770392	-0.0001901191	
-0.0004591414	-0.001109013	-0.2453757	0.05818526	-0.0009802761	-0.001528697	0.151231	-0.2005883	
0.1432986	-0.1917256	-0.0009802761	-0.001528697	-0.1895947	0.3140469	0.001232164	0.001060352	
-0.0002770392	-0.0001901191	0.151231	-0.2005883	0.001232164	0.001060352	-0.1913254	0.3172889	

4.566e+10	-0.2417776	0.06587079	-0.0006296067	-0.0008140284	0.1373141	-0.1894134	-0.0003096021	-0.0002011348	
-0.0006296067	-0.0008140284	-0.2392344	0.06124697	-0.001309303	-0.001201438	0.1431999	-0.2000859	
0.1373141	-0.1894134	-0.001309303	-0.001201438	-0.1912788	0.2954459	0.001533178	0.0005799512	
-0.0003096021	-0.0002011348	0.1431999	-0.2000859	0.001533178	0.0005799512	-0.1911053	0.2998598	

4.568e+10	-0.2337905	0.0669942	-0.0006690656	-0.0005335347	0.1319046	-0.1855049	-0.0003887165	-0.0001842437	
-0.0006690656	-0.0005335347	-0.2323519	0.06264986	-0.001555957	-0.0007989669	0.1352563	-0.1975664	
0.1319046	-0.1855049	-0.001555957	-0.0007989669	-0.1973327	0.2770592	0.001643373	9.336756e-06	
-0.0003887165	-0.0001842437	0.1352563	-0.1975664	0.001643373	9.336756e-06	-0.1947702	0.2817039	

4.57e+10	-0.2258172	0.06594802	-0.0006098993	-0.0003157367	0.1277242	-0.1801578	-0.0004836031	-0.0001092508	
-0.0006098993	-0.0003157367	-0.2251115	0.06217515	-0.001690277	-0.0003316191	0.1281135	-0.1929871	
0.1277242	-0.1801578	-0.001690277	-0.0003316191	-0.20771	0.2601007	0.001530487	-0.0005743276	
-0.0004836031	-0.0001092508	0.1281135	-0.1929871	0.001530487	-0.0005743276	-0.2026975	0.2638743	

4.572e+10	-0.2184304	0.06284026	-0.0004997191	-0.0001887284	0.1253772	-0.1738206	-0.0005503796	2.89405e-05	
-0.0004997191	-0.0001887284	-0.2180181	0.05968392	-0.001678401	0.0001681184	0.1225628	-0.1865983	
0.1253772	-0.1738206	-0.001678401	0.0001681184	-0.2222089	0.2458372	0.00119509	-0.001075837	
-0.0005503796	2.89405e-05	0.1225628	-0.1865983	0.00119509	-0.001075837	-0.2152202	0.2475825	

4.574e+10	-0.2122045	0.05789338	-0.0003916044	-0.000154336	0.125226	-0.1671679	-0.0005507851	0.0002054919	
-0.0003916044	-0.000154336	-0.2116961	0.05518216	-0.001501408	0.0006435041	0.119278	-0.1789513	
0.125226	-0.1671679	-0.001501408	0.0006435041	-0.24012	0.2354715	0.0006851905	-0.001400689	
-0.0005507851	0.0002054919	0.119278	-0.1789513	0.0006851905	-0.001400689	-0.2321586	0.234357	

4.576e+10	-0.2075719	0.05156113	-0.0003304224	-0.0001886225	0.1273413	-0.1610223	-0.0004696804	0.0003758814	
-0.0003304224	-0.0001886225	-0.2066873	0.04897309	-0.001172197	0.001025098	0.1186822	-0.1709268	
0.1273413	-0.1610223	-0.001172197	0.001025098	-0.2602103	0.2299718	9.595945e-05	-0.001484301	
-0.0004696804	0.0003758814	0.1186822	-0.1709268	9.595945e-05	-0.001484301	-0.2526237	0.225713	

4.578e+10	-0.204765	0.04438399	-0.000340726	-0.0002492824	0.1314413	-0.1561801	-0.0003229638	0.0004952365	
-0.000340726	-0.0002492824	-0.2035061	0.04147777	-0.0007427459	0.00125242	0.1208057	-0.1635639	
0.1314413	-0.1561801	-0.0007427459	0.00125242	-0.2810398	0.2297828	-0.0004517742	-0.001318023	
-0.0003229638	0.0004952365	0.1208057	-0.1635639	-0.0004517742	-0.001318023	-0.2751796	0.2227566	

4.58e+10	-0.2038898	0.03683254	-0.0004195098	-0.0002909158	0.1369523	-0.1532267	-0.0001501193	0.0005391196	
-0.0004195098	-0.0002909158	-0.2024616	0.03322693	-0.000290894	0.001301385	0.1252039	-0.1578039	
0.1369523	-0.1532267	-0.000290894	0.001301385	-0.3010029	0.234831	-0.0008525213	-0.0009585318	
-0.0001501193	0.0005391196	0.1252039	-0.1578039	-0.0008525213	-0.0009585318	-0.297862	0.2260076	

4.582e+10	-0.2047593	0.02961572	-0.0005422872	-0.0002806149	0.1431544	-0.1524813	5.832461e-06	0.0005125168	
-0.0005422872	-0.0002806149	-0.2035482	0.02510076	0.000105792	0.001191011	0.1310886	-0.1543176	
0.1431544	-0.1524813	0.000105792	0.001191011	-0.31869	0.2445395	-0.001048577	-0.00050397	
5.832461e-06	0.0005125168	0.1310886	-0.1543176	-0.001048577	-0.00050397	-0.3186631	0.2351964	

4.584e+10	-0.2071295	0.02297709	-0.0006757018	-0.0002058093	0.1493008	-0.1539697	0.0001172444	0.00044247	
-0.0006757018	-0.0002058093	-0.2065807	0.01749232	0.0003952417	0.0009738506	0.1374959	-0.153344	
0.1493008	-0.1539697	0.0003952417	0.0009738506	-0.3331942	0.2578935	-0.001042572	-5.646369e-05	
0.0001172444	0.00044247	0.1374959	-0.153344	-0.001042572	-5.646369e-05	-0.336097	0.2492438	

4.586e+10	-0.2106453	0.01724418	-0.0007907646	-7.071298e-05	0.1547327	-0.1574572	0.0001791326	0.0003618587	
-0.0007907646	-7.071298e-05	-0.211176	0.01095639	0.0005611276	0.0007120937	0.1435528	-0.1547085	
0.1547327	-0.1574572	0.0005611276	0.0007120937	-0.343939	0.2737775	-0.0008792161	0.000310311	
0.0001791326	0.0003618587	0.1435528	-0.1547085	-0.0008792161	0.000310311	-0.3492055	0.2666981	

4.588e+10	-0.2149886	0.01247146	-0.0008676125	0.0001122213	0.1589605	-0.162569	0.000204465	0.0002955714	
-0.0008676125	0.0001122213	-0.2169256	0.005680398	0.000615916	0.0004589391	0.1485833	-0.1579597	
0.1589605	-0.162569	0.000615916	0.0004589391	-0.3506462	0.291112	-0.0006189139	0.0005588393	
0.000204465	0.0002955714	0.1485833	-0.1579597	-0.0006189139	0.0005588393	-0.3574169	0.2862425	

4.59e+10	-0.2198473	0.008714686	-0.0008936484	0.00032933	0.1616598	-0.1688071	0.0002141043	0.0002545364	
-0.0008936484	0.00032933	-0.2234431	0.001754954	0.0005880368	0.0002493767	0.1522143	-0.1625062	
0.1616598	-0.1688071	0.0005880368	0.0002493767	-0.3534069	0.3089488	-0.0003172993	0.0006816926	
0.0002141043	0.0002545364	0.1522143	-0.1625062	-0.0003172993	0.0006816926	-0.3609173	0.3064052	

4.592e+10	-0.2249629	0.00589086	-0.0008590956	0.0005671148	0.1627001	-0.1756571	0.0002283838	0.0002367049	
-0.0008590956	0.0005671148	-0.2304086	-0.000804281	0.0005109818	0.000100649	0.1543195	-0.1677154	
0.1627001	-0.1756571	0.0005109818	0.000100649	-0.3525499	0.3264648	-1.72765e-05	0.000687743	
0.0002283838	0.0002367049	0.1543195	-0.1677154	-1.72765e-05	0.000687743	-0.3599546	0.3262725	

4.594e+10	-0.2301977	0.00385736	-0.0007544698	0.0008104867	0.1620994	-0.1826669	0.0002625241	0.0002299763	
-0.0007544698	0.0008104867	-0.237571	-0.00207325	0.0004172327	1.57528e-05	0.1550248	-0.173112	
0.1620994	-0.1826669	0.0004172327	1.57528e-05	-0.3484945	0.3430629	0.0002489348	0.0005925108	
0.0002625241	0.0002299763	0.1550248	-0.173112	0.0002489348	0.0005925108	-0.3551546	0.3448907	

4.596e+10	-0.2354667	0.002506992	-0.0005723149	0.001038888	0.1599885	-0.1894147	0.0003227609	0.0002154257	
-0.0005723149	0.001038888	-0.2447211	-0.002092933	0.0003348698	-1.464767e-05	0.1545546	-0.1782843	
0.1599885	-0.1894147	0.0003348698	-1.464767e-05	-0.3416671	0.3582846	0.0004558005	0.0004143396	
0.0003227609	0.0002154257	0.1545546	-0.1782843	0.0004558005	0.0004143396	-0.3469022	0.3617462	

4.598e+10	-0.2407535	0.001764847	-0.0003102333	0.001225131	0.1565675	-0.1955681	0.0004034783	0.0001723312	
-0.0003102333	0.001225131	-0.2516883	-0.00092249	0.0002842751	-9.38617e-06	0.1532322	-0.1830104	
0.1565675	-0.1955681	0.0002842751	-9.38617e-06	-0.3323366	0.3719595	0.0005811464	0.0001751265	
0.0004034783	0.0001723312	0.1532322	-0.1830104	0.0005811464	0.0001751265	-0.3357917	0.376355	

4.6e+10	-0.2460851	0.001546219	2.308412e-05	0.001337201	0.1521006	-0.2009089	0.0004864232	8.404174e-05	
2.308412e-05	0.001337201	-0.2582557	0.001487463	0.0002743934	5.571411e-06	0.1513808	-0.1872402	
0.1521006	-0.2009089	0.0002743934	5.571411e-06	-0.320965	0.3837337	0.0006060503	-9.595857e-05	
0.0004864232	8.404174e-05	0.1513808	-0.1872402	0.0006060503	-9.595857e-05	-0.3224053	0.388339	

4.602e+10	-0.2515032	0.001843648	0.0004028255	0.001344136	0.1468799	-0.2052732	0.0005434957	-5.367811e-05	
0.0004028255	0.001344136	-0.2642348	0.004889031	0.0002989926	3.222177e-06	0.1492699	-0.1910637	
0.1468799	-0.2052732	0.0002989926	3.222177e-06	-0.3078848	0.3933665	0.000519994	-0.0003600341	
0.0005434957	-5.367811e-05	0.1492699	-0.1910637	0.000519994	-0.0003600341	-0.3074454	0.3973577	

4.604e+10	-0.257024	0.002871105	0.0007899289	0.001225589	0.1411897	-0.2085519	0.0005453287	-0.0002278364	
0.0007899289	0.001225589	-0.2693974	0.00936049	0.0003372372	-3.549504e-05	0.1470454	-0.1946265	
0.1411897	-0.2085519	0.0003372372	-3.549504e-05	-0.2931372	0.4008146	0.0003289721	-0.0005713152	
0.0005453287	-0.0002278364	0.1470454	-0.1946265	0.0003289721	-0.0005713152	-0.2914563	0.4033717	

4.606e+10	-0.2626292	0.004630061	0.001136022	0.0009784448	0.135367	-0.2107748	0.0004712109	-0.0004083197	
0.001136022	0.0009784448	-0.273587	0.01448173	0.0003597256	-0.000112745	0.1447559	-0.1981464	
0.135367	-0.2107748	0.0003597256	-0.000112745	-0.2772483	0.4056699	6.186979e-05	-0.0006859354	
0.0004712109	-0.0004083197	0.1447559	-0.1981464	6.186979e-05	-0.0006859354	-0.275128	0.4063623	

4.608e+10	-0.2682218	0.007257869	0.001393005	0.0006206138	0.1296894	-0.2120324	0.0003199992	-0.0005545454	
0.001393005	0.0006206138	-0.2766721	0.02022043	0.0003413175	-0.0002110736	0.1422987	-0.2017811	
0.1296894	-0.2120324	0.0003413175	-0.0002110736	-0.2605527	0.4077284	-0.0002316237	-0.0006772888	
0.0003199992	-0.0005545454	0.1422987	-0.2017811	-0.0002316237	-0.0006772888	-0.2589182	0.4065767	

4.61e+10	-0.2735775	0.01103583	0.001522595	0.0001891608	0.1244069	-0.2125135	0.0001131971	-0.0006286195	
0.001522595	0.0001891608	-0.2785774	0.02623521	0.0002733269	-0.0002998352	0.139501	-0.2056012	
0.1244069	-0.2125135	0.0002733269	-0.0002998352	-0.2436068	0.406715	-0.0004926894	-0.0005469949	
0.0001131971	-0.0006286195	0.139501	-0.2056012	-0.0004926894	-0.0005469949	-0.2434286	0.404174	

4.612e+10	-0.2783804	0.01600257	0.001502789	-0.0002651445	0.119666	-0.212503	-0.0001079724	-0.0006079972	
0.001502789	-0.0002651445	-0.2792967	0.03231573	0.0001696067	-0.0003484549	0.13618	-0.2096187	
0.119666	-0.212503	0.0001696067	-0.0003484549	-0.226881	0.4026489	-0.0006720474	-0.0003269087	
-0.0001079724	-0.0006079972	0.13618	-0.2096187	-0.0006720474	-0.0003269087	-0.2287768	0.3996286	

4.614e+10	-0.2822289	0.02206321	0.001333962	-0.000684651	0.115459	-0.2123396	-0.0002942769	-0.0004956188	
0.001333962	-0.000684651	-0.2788789	0.03825125	6.143083e-05	-0.0003419661	0.1321419	-0.2137056	
0.115459	-0.2123396	6.143083e-05	-0.0003419661	-0.211095	0.395512	-0.0007457636	-6.747611e-05	
-0.0002942769	-0.0004956188	0.1321419	-0.2137056	-0.0007457636	-6.747611e-05	-0.2153	0.3930906	

4.616e+10	-0.2847247	0.0290217	0.001041031	-0.001016361	0.111597	-0.2122728	-0.000404589	-0.0003214789	
0.001041031	-0.001016361	-0.2773878	0.04383467	-1.692358e-05	-0.0002889448	0.1272269	-0.2176529	
0.111597	-0.2122728	-1.692358e-05	-0.0002889448	-0.1970218	0.3855119	-0.0007204884	0.000181509	
-0.000404589	-0.0003214789	0.1272269	-0.2176529	-0.0007204884	0.000181509	-0.2031403	0.3848014	

4.618e+10	-0.285553	0.03652952	0.0006692178	-0.001223771	0.1077946	-0.2124473	-0.0004209297	-0.0001323956	
0.0006692178	-0.001223771	-0.2748733	0.04896239	-4.395748e-05	-0.0002178086	0.1213737	-0.2212441	
0.1077946	-0.2124473	-4.395748e-05	-0.0002178086	-0.1849996	0.3731698	-0.0006238917	0.0003878853	
-0.0004209297	-0.0001323956	0.1213737	-0.2212441	-0.0006238917	0.0003878853	-0.1921585	0.3750262	

4.62e+10	-0.2845702	0.0440538	0.0002722021	-0.001294491	0.1036963	-0.2127879	-0.0003527029	2.34265e-05	
0.0002722021	-0.001294491	-0.2714271	0.05339948	-2.03808e-05	-0.0001637667	0.1145615	-0.2241622	
0.1036963	-0.2127879	-2.03808e-05	-0.0001637667	-0.1754513	0.3589332	-0.0004878197	0.000543493	
-0.0003527029	2.34265e-05	0.1145615	-0.2241622	-0.0004878197	0.000543493	-0.1826189	0.3637297	

4.622e+10	-0.2817829	0.05110702	-0.0001011226	-0.00123898	0.09904682	-0.2130081	-0.0002314673	0.0001120452	
-0.0001011226	-0.00123898	-0.2671314	0.05702422	3.286317e-05	-0.0001547286	0.106874	-0.2261039	
0.09904682	-0.2130081	3.286317e-05	-0.0001547286	-0.1686698	0.3432359	-0.0003332634	0.0006568981	
-0.0002314673	0.0001120452	0.106874	-0.2261039	-0.0003332634	0.0006568981	-0.1746646	0.3509363	

4.624e+10	-0.2773759	0.05713893	-0.0004154201	-0.001082206	0.09377102	-0.2127079	-9.850795e-05	0.0001205248	
-0.0004154201	-0.001082206	-0.2621592	0.0595611	8.306083e-05	-0.0002018806	0.0985035	-0.2267265	
0.09377102	-0.2127079	8.306083e-05	-0.0002018806	-0.164733	0.3265406	-0.0001640597	0.000740637	
-9.850795e-05	0.0001205248	0.0985035	-0.2267265	-0.0001640597	0.000740637	-0.1684005	0.3367283	

4.626e+10	-0.271655	0.06181824	-0.000649638	-0.0008552464	0.08801147	-0.2114444	6.424598e-06	5.693567e-05	
-0.000649638	-0.0008552464	-0.2566512	0.06095362	9.708844e-05	-0.0002970776	0.08975954	-0.2257392	
0.08801147	-0.2114444	9.708844e-05	-0.0002970776	-0.1637873	0.3092099	2.758671e-05	0.000797563	
6.424598e-06	5.693567e-05	0.08975954	-0.2257392	2.758671e-05	0.000797563	-0.1643711	0.3210711	

4.628e+10	-0.2649611	0.06488458	-0.0007944295	-0.0005880615	0.08212996	-0.2088731	5.31839e-05	-5.518716e-05	
-0.0007944295	-0.0005880615	-0.2508383	0.0609623	4.936078e-05	-0.0004171095	0.08108049	-0.2229121	
0.08212996	-0.2088731	4.936078e-05	-0.0004171095	-0.166153	0.2916519	0.000250432	0.0008164243	
5.31839e-05	-5.518716e-05	0.08108049	-0.2229121	0.000250432	0.0008164243	-0.1630336	0.3041839	

4.63e+10	-0.2577649	0.06603894	-0.0008471167	-0.0003084927	0.07667643	-0.2047753	2.438292e-05	-0.0001823773	
-0.0008471167	-0.0003084927	-0.2450579	0.05946688	-7.280298e-05	-0.000527843	0.07302957	-0.2181611	
0.07667643	-0.2047753	-7.280298e-05	-0.000527843	-0.172088	0.2744382	0.0005037045	0.0007730351	
2.438292e-05	-0.0001823773	0.07302957	-0.2181611	0.0005037045	0.0007730351	-0.1650401	0.2864348	

4.632e+10	-0.2506031	0.06513711	-0.0008108893	-4.377426e-05	0.07230001	-0.1992267	-8.161424e-05	-0.0002859407	
-0.0008108893	-4.377426e-05	-0.2396654	0.05643372	-0.0002646928	-0.0005903456	0.06623387	-0.2115854	
0.07230001	-0.1992267	-0.0002646928	-0.0005903456	-0.1818821	0.2584084	0.000767428	0.000639465	
-8.161424e-05	-0.0002859407	0.06623387	-0.2115854	0.000767428	0.000639465	-0.1709717	0.2685787	

4.634e+10	-0.2440152	0.06228941	-0.0006953909	0.0001793225	0.06963903	-0.1925647	-0.0002485066	-0.0003284655	
-0.0006953909	0.0001793225	-0.2351263	0.05182494	-0.0005029819	-0.0005691178	0.06134225	-0.2035476	
0.06963903	-0.1925647	-0.0005029819	-0.0005691178	-0.1954221	0.2446259	0.001000891	0.0003976758	
-0.0002485066	-0.0003284655	0.06134225	-0.2035476	0.001000891	0.0003976758	-0.1811875	0.2516853	

4.636e+10	-0.2385775	0.05771798	-0.0005197159	0.0003358334	0.06915448	-0.1854454	-0.0004425851	-0.0002818492	
-0.0005197159	0.0003358334	-0.2319094	0.04596136	-0.0007468904	-0.0004411821	0.05885464	-0.1946781	
0.06915448	-0.1854454	-0.0007468904	-0.0004411821	-0.2122626	0.2342573	0.00114967	5.31935e-05	
-0.0004425851	-0.0002818492	0.05885464	-0.1946781	0.00114967	5.31935e-05	-0.1957501	0.2370421	

4.638e+10	-0.2347566	0.0518294	-0.0003123814	0.0004076924	0.07104535	-0.1787379	-0.0006181512	-0.0001360225	
-0.0003123814	0.0004076924	-0.2303962	0.03921682	-0.0009460047	-0.0002041878	0.05904063	-0.1858158	
0.07104535	-0.1787379	-0.0009460047	-0.0002041878	-0.2314754	0.2283455	0.001161351	-0.0003570563	
-0.0006181512	-0.0001360225	0.05904063	-0.1858158	0.001161351	-0.0003570563	-0.2140637	0.2261288	

4.64e+10	-0.2328597	0.04522116	-0.0001099389	0.0003890343	0.07506282	-0.1733023	-0.0007268454	9.478776e-05	
-0.0001099389	0.0003890343	-0.2308624	0.03207587	-0.001050628	0.0001185896	0.06177659	-0.1778779	
0.07506282	-0.1733023	-0.001050628	0.0001185896	-0.2516036	0.2275807	0.00100493	-0.0007666886	
-0.0007268454	9.478776e-05	0.06177659	-0.1778779	0.00100493	-0.0007666886	-0.2349897	0.2201304	

4.642e+10	-0.2329494	0.03856453	5.018464e-05	0.0002905985	0.08062435	-0.1698787	-0.0007320928	0.0003731809	
5.018464e-05	0.0002905985	-0.2333261	0.02526492	-0.001026385	0.0004812308	0.0665974	-0.1717072	
0.08062435	-0.1698787	-0.001026385	0.0004812308	-0.2710523	0.2320739	0.0006879912	-0.001096539	
-0.0007320928	0.0003731809	0.0665974	-0.1717072	0.0006879912	-0.001096539	-0.2569779	0.2197903	

4.644e+10	-0.2347932	0.0324132	0.0001388745	0.0001400624	0.0868959	-0.1688636	-0.000621023	0.0006471444	
0.0001388745	0.0001400624	-0.2375521	0.01936339	-0.0008652447	0.0008254024	0.0727028	-0.1678294	
0.0868959	-0.1688636	-0.0008652447	0.0008254024	-0.2883506	0.2411841	0.0002602492	-0.001278481	
-0.000621023	0.0006471444	0.0727028	-0.1678294	0.0002602492	-0.001278481	-0.2782818	0.225107	

4.646e+10	-0.2380309	0.02728854	0.0001431418	-2.546909e-05	0.09299105	-0.1702606	-0.0004078195	0.0008674463	
0.0001431418	-2.546909e-05	-0.2431708	0.01478776	-0.0005870759	0.001098572	0.07920671	-0.1664115	
0.09299105	-0.1702606	-0.0005870759	0.001098572	-0.3023321	0.2539566	-0.0002012197	-0.001280284	
-0.0004078195	0.0008674463	0.07920671	-0.1664115	-0.0002012197	-0.001280284	-0.2972471	0.2355951	

4.648e+10	-0.2421699	0.02331831	6.778785e-05	-0.0001690879	0.09816381	-0.1737586	-0.0001257524	0.001000629	
6.778785e-05	-0.0001690879	-0.2496226	0.0117719	-0.0002293306	0.001265692	0.08528894	-0.1672374	
0.09816381	-0.1737586	-0.0002293306	0.001265692	-0.3123895	0.269172	-0.0006171631	-0.001111561	
-0.0001257524	0.001000629	0.08528894	-0.1672374	-0.0006171631	-0.001111561	-0.3127574	0.2501181	

4.65e+10	-0.2467787	0.02063584	-6.859079e-05	-0.0002616386	0.1018853	-0.178856	0.0001860101	0.001033697	
-6.859079e-05	-0.0002616386	-0.256436	0.01047885	0.0001652182	0.001312442	0.0903708	-0.1698555	
0.1018853	-0.178856	0.0001652182	0.001312442	-0.3184641	0.2855409	-0.0009275266	-0.0008154259	
0.0001860101	0.001033697	0.0903708	-0.1698555	-0.0009275266	-0.0008154259	-0.3240423	0.2675	

4.652e+10	-0.2514669	0.01908445	-0.0002408894	-0.0002849532	0.1038789	-0.1849663	0.0004935132	0.0009697455	
-0.0002408894	-0.0002849532	-0.2631204	0.010752	0.0005601889	0.001238721	0.09412806	-0.1736947	
0.1038789	-0.1849663	0.0005601889	0.001238721	-0.3206876	0.302095	-0.001102513	-0.0004497026	
0.0004935132	0.0009697455	0.09412806	-0.1736947	-0.001102513	-0.0004497026	-0.3307993	0.2865473	

4.654e+10	-0.2559803	0.01852853	-0.0004208035	-0.0002301923	0.1040603	-0.1915037	0.0007711561	0.0008199351	
-0.0004208035	-0.0002301923	-0.2693516	0.01246673	0.000924597	0.001051114	0.09650034	-0.1781985	
0.1040603	-0.1915037	0.000924597	0.001051114	-0.3194236	0.3180884	-0.001139059	-7.306078e-05	
0.0007711561	0.0008199351	0.09650034	-0.1781985	-0.001139059	-7.306078e-05	-0.3331025	0.3060889	

4.656e+10	-0.2601857	0.0186047	-0.0005791481	-9.733185e-05	0.1025163	-0.1979939	0.001001042	0.0005974988	
-0.0005791481	-9.733185e-05	-0.2748362	0.01526949	0.001230332	0.0007585936	0.09760685	-0.1829397	
0.1025163	-0.1979939	0.001230332	0.0007585936	-0.3152552	0.3329072	-0.001056351	0.0002667093	
0.001001042	0.0005974988	0.09760685	-0.1829397	-0.001056351	0.0002667093	-0.3312469	0.3251747	

4.658e+10	-0.2639925	0.01934008	-0.0006865561	0.000104077	0.0994111	-0.2039856	0.001169055	0.0003159607	
-0.0006865561	0.000104077	-0.2794181	0.01895083	0.001448359	0.0003753264	0.09766579	-0.1876222	
0.0994111	-0.2039856	0.001448359	0.0003753264	-0.3086547	0.3461831	-0.0008880964	0.0005363684	
0.001169055	0.0003159607	0.09766579	-0.1876222	-0.0008880964	0.0005363684	-0.3255229	0.3430295	

4.66e+10	-0.2674139	0.02038859	-0.0007174384	0.0003542686	0.0950125	-0.2091724	0.001262845	-1.176616e-05	
-0.0007174384	0.0003542686	-0.2829354	0.02326152	0.0015499	-7.67681e-05	0.09691254	-0.1921208	
0.0950125	-0.2091724	0.0015499	-7.67681e-05	-0.2999302	0.3578232	-0.0006750347	0.0007243929	
0.001262845	-1.176616e-05	0.09691254	-0.1921208	-0.0006750347	0.0007243929	-0.3163949	0.3590059	

4.662e+10	-0.2704835	0.02166756	-0.0006538037	0.000623262	0.08960751	-0.2133242	0.00126969	-0.000370706	
-0.0006538037	0.000623262	-0.2853813	0.02788131	0.001508949	-0.0005636927	0.09554339	-0.1964148	
0.08960751	-0.2133242	0.001508949	-0.0005636927	-0.2896679	0.3674419	-0.0004529282	0.0008397739	
0.00126969	-0.000370706	0.09554339	-0.1964148	-0.0004529282	0.0008397739	-0.3046022	0.3724164	

4.664e+10	-0.2732979	0.02318967	-0.0004890663	0.0008757989	0.08349272	-0.2162304	0.001175959	-0.000742032	
-0.0004890663	0.0008757989	-0.2868059	0.032576	0.001308934	-0.001039682	0.09365012	-0.2005408	
0.08349272	-0.2162304	0.001308934	-0.001039682	-0.2781097	0.3750217	-0.0002399886	0.0009070383	
0.001175959	-0.000742032	0.09365012	-0.2005408	-0.0002399886	0.0009070383	-0.2907641	0.3829288	

4.666e+10	-0.2759203	0.02477086	-0.0002297036	0.001074215	0.07702864	-0.2178	0.0009695084	-0.001098841	
-0.0002297036	0.001074215	-0.2872998	0.03705881	0.0009494754	-0.001448797	0.09124626	-0.2045292	
0.07702864	-0.2178	0.0009494754	-0.001448797	-0.2654414	0.3805013	-3.283797e-05	0.0009498625	
0.0009695084	-0.001098841	0.09124626	-0.2045292	-3.283797e-05	0.0009498625	-0.275499	0.3904001	

4.668e+10	-0.2783905	0.02651175	0.0001041839	0.001183925	0.07058751	-0.2179967	0.0006445291	-0.001404469	
0.0001041839	0.001183925	-0.2869946	0.04115206	0.0004516276	-0.001732709	0.08829935	-0.2083842	
0.07058751	-0.2179967	0.0004516276	-0.001732709	-0.2521683	0.3835977	0.0001897434	0.0009768732	
0.0006445291	-0.001404469	0.08829935	-0.2083842	0.0001897434	0.0009768732	-0.2596614	0.394696	

4.67e+10	-0.2807255	0.02851506	0.0004790304	0.001177057	0.06458314	-0.2168887	0.0002095295	-0.001612847	
0.0004790304	0.001177057	-0.2860461	0.04484477	-0.0001383891	-0.0018388	0.08476854	-0.2120331	
0.06458314	-0.2168887	-0.0001383891	-0.0018388	-0.2386315	0.384274	0.0004495975	0.0009721714	
0.0002095295	-0.001612847	0.08476854	-0.2120331	0.0004495975	0.0009721714	-0.2438336	0.3960361	

4.672e+10	-0.2829109	0.030684	0.0008498861	0.001040135	0.05938339	-0.2146678	-0.0003048578	-0.001677524	
0.0008498861	0.001040135	-0.2846033	0.04798378	-0.0007521783	-0.001734858	0.08062091	-0.2153325	
0.05938339	-0.2146678	-0.0007521783	-0.001734858	-0.2254196	0.3823813	0.0007517122	0.0009003462	
-0.0003048578	-0.001677524	0.08062091	-0.2153325	0.0007517122	0.0009003462	-0.2284923	0.394646	

4.674e+10	-0.2848804	0.03321374	0.001167941	0.000779185	0.05531536	-0.2116923	-0.0008445435	-0.001563254	
0.001167941	0.000779185	-0.2828125	0.05058031	-0.001309591	-0.0014177	0.07591818	-0.2181789	
0.05531536	-0.2116923	-0.001309591	-0.0014177	-0.2129568	0.3780917	0.001074761	0.0007208216	
-0.0008445435	-0.001563254	0.07591818	-0.2181789	0.001074761	0.0007208216	-0.2140462	0.3908014	

4.676e+10	-0.2865542	0.03594619	0.001390426	0.00042043	0.05253723	-0.2084204	-0.001339403	-0.001259544	
0.001390426	0.00042043	-0.2807958	0.05260023	-0.001733048	-0.0009172143	0.07073463	-0.2204183	
0.05253723	-0.2084204	-0.001733048	-0.0009172143	-0.2019707	0.3715197	0.001369432	0.0004051243	
-0.001339403	-0.001259544	0.07073463	-0.2204183	0.001369432	0.0004051243	-0.2008876	0.384753	

4.678e+10	-0.2878973	0.03887408	0.001490495	3.951022e-06	0.05104367	-0.2053203	-0.001716359	-0.0007879857	
0.001490495	3.951022e-06	-0.2786828	0.05401904	-0.001961815	-0.0002924952	0.06519432	-0.2219116	
0.05104367	-0.2053203	-0.001961815	-0.0002924952	-0.1928894	0.3632309	0.001568264	-4.806e-05	
-0.001716359	-0.0007879857	0.06519432	-0.2219116	0.001568264	-4.806e-05	-0.1891221	0.3768463	

4.68e+10	-0.288862	0.04193448	0.00145844	-0.0004260632	0.05064961	-0.2028729	-0.001915122	-0.0002006115	
0.00145844	-0.0004260632	-0.2765614	0.05491113	-0.001962312	0.0003785922	0.05949462	-0.2226275	
0.05064961	-0.2028729	-0.001962312	0.0003785922	-0.1861002	0.3538682	0.001601156	-0.0006031749	
-0.001915122	-0.0002006115	0.05949462	-0.2226275	0.001601156	-0.0006031749	-0.1790763	0.3673234	

4.682e+10	-0.28948	0.04502084	0.001300232	-0.0008280204	0.05099318	-0.2014048	-0.001902585	0.0004287661	
0.001300232	-0.0008280204	-0.2745735	0.05521413	-0.001733639	0.001010217	0.0538132	-0.2225051	
0.05099318	-0.2014048	-0.001733639	0.001010217	-0.181758	0.3441521	0.001418298	-0.001186891	
-0.001902585	0.0004287661	0.0538132	-0.2225051	0.001418298	-0.001186891	-0.1709409	0.3564618	

4.684e+10	-0.2897453	0.04827882	0.001032647	-0.001167155	0.05160886	-0.2011344	-0.001677452	0.00102111	
0.001032647	-0.001167155	-0.2728489	0.05506554	-0.001307139	0.001525604	0.04836849	-0.2216335	
0.05160886	-0.2011344	-0.001307139	0.001525604	-0.179473	0.3348561	0.001007961	-0.001705048	
-0.001677452	0.00102111	0.04836849	-0.2216335	0.001007961	-0.001705048	-0.1648979	0.3446315	

4.686e+10	-0.289631	0.05159114	0.0006806303	-0.001416902	0.05201319	-0.2020217	-0.001269331	0.001505244	
0.0006806303	-0.001416902	-0.2714464	0.05463459	-0.0007386895	0.001867621	0.04333442	-0.2200843	
0.05201319	-0.2020217	-0.0007386895	0.001867621	-0.1787344	0.326465	0.0004041221	-0.002064213	
-0.001269331	0.001505244	0.04333442	-0.2200843	0.0004041221	-0.002064213	-0.1610397	0.3322382	

4.688e+10	-0.2890865	0.05498934	0.0002732398	-0.001559646	0.05175699	-0.2038831	-0.0007284479	0.00182865	
0.0002732398	-0.001559646	-0.270472	0.05389838	-9.664199e-05	0.002004672	0.03883847	-0.2180379	
0.05175699	-0.2038831	-9.664199e-05	0.002004672	-0.1790601	0.3190814	-0.0003224749	-0.002194129	
-0.0007284479	0.00182865	0.03883847	-0.2180379	-0.0003224749	-0.002194129	-0.1596273	0.3196039	

4.69e+10	-0.2880015	0.05838521	-0.0001588516	-0.001586165	0.05051668	-0.2063978	-0.0001161321	0.001961665	
-0.0001588516	-0.001586165	-0.2699258	0.05310413	0.0005499183	0.001930503	0.03494693	-0.2156973	
0.05051668	-0.2063978	0.0005499183	0.001930503	-0.1797946	0.3126723	-0.00107946	-0.00205956	
-0.0001161321	0.001961665	0.03494693	-0.2156973	-0.00107946	-0.00205956	-0.1603427	0.3073602	

4.692e+10	-0.2863195	0.06164297	-0.000584699	-0.001494279	0.04811166	-0.2091271	0.0005041786	0.001894976	
-0.000584699	-0.001494279	-0.2697996	0.05239486	0.00113722	0.001658569	0.0316444	-0.2132651	
0.04811166	-0.2091271	0.00113722	0.001658569	-0.1805636	0.3069035	-0.001769644	-0.001661807	
0.0005041786	0.001894976	0.0316444	-0.2132651	-0.001769644	-0.001661807	-0.1631689	0.2958239	

4.694e+10	-0.2839671	0.06472426	-0.0009740603	-0.001287939	0.04451494	-0.2116596	0.001071417	0.001637297	
-0.0009740603	-0.001287939	-0.2699782	0.05189188	0.001609849	0.001217342	0.02881886	-0.2109304	
0.04451494	-0.2116596	0.001609849	0.001217342	-0.1813442	0.3013306	-0.00230374	-0.001034859	
0.001071417	0.001637297	0.02881886	-0.2109304	-0.00230374	-0.001034859	-0.1678366	0.2853854	

4.696e+10	-0.2809489	0.067398	-0.001295629	-0.0009788109	0.03984978	-0.2135538	0.001529365	0.001214117	
-0.001295629	-0.0009788109	-0.2703467	0.0516692	0.001922359	0.0006494487	0.02630475	-0.2088097	
0.03984978	-0.2135538	0.001922359	0.0006494487	-0.1821343	0.2955925	-0.002607845	-0.0002414634	
0.001529365	0.001214117	0.02630475	-0.2088097	-0.002607845	-0.0002414634	-0.1739465	0.2763294	

4.698e+10	-0.2773277	0.06940267	-0.001522505	-0.0005868754	0.03436158	-0.2144546	0.001832095	0.0006666106	
-0.001522505	-0.0005868754	-0.2706921	0.05183316	0.002043382	8.502287e-06	0.02389119	-0.206865	
0.03436158	-0.2144546	0.002043382	8.502287e-06	-0.1832338	0.2893997	-0.002633761	0.0006323101	
0.001832095	0.0006666106	0.02389119	-0.206865	-0.002633761	0.0006323101	-0.1811127	0.2687129	

4.7e+10	-0.2731892	0.07070241	-0.001631666	-0.0001404569	0.02839659	-0.2141051	0.00194651	4.791502e-05	
-0.001631666	-0.0001404569	-0.2708361	0.0523019	0.001957545	-0.0006441381	0.02139975	-0.2050162	
0.02839659	-0.2141051	0.001957545	-0.0006441381	-0.1852025	0.2825883	-0.002363822	0.001490307	
0.00194651	4.791502e-05	0.02139975	-0.2050162	-0.002363822	0.001490307	-0.1891939	0.2624203	

4.702e+10	-0.2687479	0.07100626	-0.00160831	0.000326922	0.02237926	-0.212354	0.001856247	-0.000580503	
-0.00160831	0.000326922	-0.2706769	0.05285944	0.00166711	-0.001244845	0.01876796	-0.2030445	
0.02237926	-0.212354	0.00166711	-0.001244845	-0.1883825	0.2753319	-0.001812024	0.002232083	
0.001856247	-0.000580503	0.01876796	-0.2030445	-0.001812024	0.002232083	-0.1978058	0.2575062	

4.704e+10	-0.2641808	0.07024371	-0.001446219	0.0007754558	0.01676563	-0.2091993	0.001562782	-0.001152182	
-0.001446219	0.0007754558	-0.2701143	0.05333712	0.001192278	-0.001730178	0.01605427	-0.200719	
0.01676563	-0.2091993	0.001192278	-0.001730178	-0.1932466	0.267943	-0.001024353	0.002764736	
0.001562782	-0.001152182	0.01605427	-0.200719	-0.001024353	0.002764736	-0.2070908	0.2538279	

4.706e+10	-0.2598014	0.06830304	-0.001150782	0.001160869	0.01201184	-0.204778	0.001089752	-0.001598595	
-0.001150782	0.001160869	-0.2691672	0.05358952	0.0005740347	-0.00203987	0.01342731	-0.197875	
0.01201184	-0.204778	0.0005740347	-0.00203987	-0.2002095	0.260918	-8.062264e-05	0.00300862	
0.001089752	-0.001598595	0.01342731	-0.197875	-8.062264e-05	0.00300862	-0.217029	0.2515192	

4.708e+10	-0.2558977	0.0652275	-0.0007433741	0.001437797	0.008539426	-0.1993372	0.0004864667	-0.001857867	
-0.0007433741	0.001437797	-0.2679613	0.05339807	-0.0001232736	-0.00212633	0.01116251	-0.1944198	
0.008539426	-0.1993372	-0.0001232736	-0.00212633	-0.2093276	0.2550211	0.0009082588	0.002915187	
0.0004864667	-0.001857867	0.01116251	-0.1944198	0.0009082588	0.002915187	-0.2277003	0.2507664	

4.71e+10	-0.2527876	0.06115576	-0.0002650874	0.001568456	0.006687542	-0.1933444	-0.000171588	-0.001888722	
-0.0002650874	0.001568456	-0.26668	0.05261062	-0.0008146192	-0.001967636	0.009585223	-0.1903989	
0.006687542	-0.1933444	-0.0008146192	-0.001967636	-0.2205726	0.2510725	0.001812895	0.00248264	
-0.000171588	-0.001888722	0.009585223	-0.1903989	0.001812895	0.00248264	-0.2389914	0.2520205	

4.712e+10	-0.2508202	0.05624884	0.0002258863	0.001531734	0.006627274	-0.1873428	-0.0007920346	-0.001683159	
0.0002258863	0.001531734	-0.2656288	0.05110396	-0.001406554	-0.001579236	0.009004111	-0.1860322	
0.006627274	-0.1873428	-0.001406554	-0.001579236	-0.2333907	0.2499308	0.002508039	0.001767195	
-0.0007920346	-0.001683159	0.009004111	-0.1860322	0.002508039	0.001767195	-0.2504795	0.2557812	

4.714e+10	-0.2501925	0.0508113	0.0006662708	0.001334524	0.008317314	-0.18197	-0.001286955	-0.001274438	
0.0006662708	0.001334524	-0.2650437	0.04902725	-0.001820048	-0.001016357	0.009627178	-0.1816951	
0.008317314	-0.18197	-0.001820048	-0.001016357	-0.2470672	0.2522086	0.002907353	0.000873022	
-0.001286955	-0.001274438	0.009627178	-0.1816951	0.002907353	0.000873022	-0.2616241	0.2623557	

4.716e+10	-0.2510249	0.04530222	0.0009994706	0.00101038	0.01143566	-0.1778026	-0.001589852	-0.0007315867	
0.0009994706	0.00101038	-0.2652083	0.04647707	-0.002007084	-0.0003633018	0.01145	-0.1778318	
0.01143566	-0.1778026	-0.002007084	-0.0003633018	-0.2603466	0.2583549	0.002979451	-7.111479e-05	
-0.001589852	-0.0007315867	0.01145	-0.1778318	0.002979451	-7.111479e-05	-0.2714332	0.2719074	

4.718e+10	-0.2533026	0.04011918	0.001191192	0.0006126361	0.01549413	-0.1752665	-0.001672515	-0.0001416209	
0.001191192	0.0006126361	-0.2663021	0.04379956	-0.001961432	0.0002889396	0.01430063	-0.1748763	
0.01549413	-0.1752665	-0.001961432	0.0002889396	-0.2720906	0.2682241	0.002749355	-0.0009461421	
-0.001672515	-0.0001416209	0.01430063	-0.1748763	0.002749355	-0.0009461421	-0.2788687	0.2841754	

4.72e+10	-0.2568094	0.03563525	0.00123295	0.000201457	0.01985786	-0.174534	-0.001545803	0.0004078416	
0.00123295	0.000201457	-0.2683329	0.04134833	-0.001712625	0.000860612	0.01784669	-0.1731125	
0.01985786	-0.174534	-0.001712625	0.000860612	-0.2810758	0.2812721	0.002282862	-0.001664081	
-0.001545803	0.0004078416	0.01784669	-0.1731125	0.002282862	-0.001664081	-0.2829679	0.2983945	

4.722e+10	-0.2612666	0.03217209	0.001140999	-0.0001679917	0.02387352	-0.175534	-0.001253116	0.0008471479	
0.001140999	-0.0001679917	-0.2712467	0.03937723	-0.001313926	0.001294803	0.02165752	-0.1726973	
0.02387352	-0.175534	-0.001313926	0.001294803	-0.286508	0.2965842	0.001661906	-0.002178959	
-0.001253116	0.0008471479	0.02165752	-0.1726973	0.001661906	-0.002178959	-0.2833445	0.3133636	

4.724e+10	-0.2663601	0.02978293	0.0009508947	-0.000456511	0.02703439	-0.1779583	-0.0008584253	0.001135042	
0.0009508947	-0.000456511	-0.2748134	0.03823129	-0.0008290079	0.001563743	0.02534245	-0.1736101	
0.02703439	-0.1779583	-0.0008290079	0.001563743	-0.2879508	0.3129248	0.0009637612	-0.002479589	
-0.0008584253	0.001135042	0.02534245	-0.1736101	0.0009637612	-0.002479589	-0.2799965	0.3278338	

4.726e+10	-0.271768	0.02861193	0.0007064964	-0.0006462287	0.02901725	-0.1813026	-0.0004289837	0.001262298	
0.0007064964	-0.0006462287	-0.278747	0.03803492	-0.0003175926	0.001664879	0.02856618	-0.1756928	
0.02901725	-0.1813026	-0.0003175926	0.001664879	-0.285256	0.3291924	0.0002489735	-0.002577202	
-0.0004289837	0.001262298	0.02856618	-0.1756928	0.0002489735	-0.002577202	-0.2733095	0.3407802	

4.728e+10	-0.2772386	0.02850312	0.0004494789	-0.0007381596	0.02971774	-0.1850996	-2.210114e-05	0.001245004	
0.0004494789	-0.0007381596	-0.2826828	0.0389238	0.0001685653	0.00161191	0.03109296	-0.1787255	
0.02971774	-0.1850996	0.0001685653	0.00161191	-0.2787163	0.3443088	-0.0004382527	-0.00248952	
-2.210114e-05	0.001245004	0.03109296	-0.1787255	-0.0004382527	-0.00248952	-0.2640434	0.3514172	

4.73e+10	-0.2826295	0.02935649	0.000211181	-0.0007482913	0.02924854	-0.1888687	0.0003222933	0.001115369	
0.000211181	-0.0007482913	-0.2863885	0.04065712	0.0005908431	0.001430374	0.03279046	-0.1824976	
0.02924854	-0.1888687	0.0005908431	0.001430374	-0.2689807	0.3573386	-0.001060405	-0.002235222	
0.0003222933	0.001115369	0.03279046	-0.1824976	-0.001060405	-0.002235222	-0.2532973	0.359338	

4.732e+10	-0.2878077	0.03116427	1.03985e-05	-0.0006992327	0.02786622	-0.1923318	0.0005831188	0.0009113068	
1.03985e-05	-0.0006992327	-0.2896112	0.04323101	0.0009210385	0.001151579	0.03358637	-0.1868149	
0.02786622	-0.1923318	0.0009210385	0.001151579	-0.2566957	0.3676911	-0.001582343	-0.001835103	
0.0005831188	0.0009113068	0.03358637	-0.1868149	-0.001582343	-0.001835103	-0.2417271	0.3646564	

4.734e+10	-0.2926675	0.03386278	-0.0001451765	-0.0006136613	0.02587387	-0.1952935	0.0007536566	0.0006695277	
-0.0001451765	-0.0006136613	-0.2922031	0.04643727	0.001140577	0.0008121848	0.03342454	-0.1914745	
0.02587387	-0.1952935	0.001140577	0.0008121848	-0.2427235	0.3749063	-0.001967885	-0.001320371	
0.0007536566	0.0006695277	0.03342454	-0.1914745	-0.001967885	-0.001320371	-0.2302004	0.3675406	

4.736e+10	-0.2970755	0.03747668	-0.0002577984	-0.0005114626	0.02358834	-0.1977884	0.0008409974	0.0004221871	
-0.0002577984	-0.0005114626	-0.2940988	0.05000712	0.001244375	0.0004519318	0.03229499	-0.1963113	
0.02358834	-0.1977884	0.001244375	0.0004519318	-0.2280496	0.3787891	-0.002190082	-0.000734917	
0.0008409974	0.0004221871	0.03229499	-0.1963113	-0.002190082	-0.000734917	-0.2191811	0.3684103	

4.738e+10	-0.3008307	0.04201132	-0.0003351506	-0.0004064256	0.02123042	-0.199946	0.0008609155	0.0001928003	
-0.0003351506	-0.0004064256	-0.2952071	0.05391439	0.001241684	0.0001094718	0.03018583	-0.2011375	
0.02123042	-0.199946	0.001241684	0.0001094718	-0.2134697	0.3794669	-0.002238107	-0.0001337521	
0.0008609155	0.0001928003	0.03018583	-0.2011375	-0.002238107	-0.0001337521	-0.2087202	0.3677127	

4.74e+10	-0.3037386	0.04723838	-0.0003877701	-0.000304488	0.01886633	-0.202031	0.0008346557	-6.370633e-06	
-0.0003877701	-0.000304488	-0.2955659	0.0578806	0.001156203	-0.0001861977	0.02712467	-0.2058103	
0.01886633	-0.202031	0.001156203	-0.0001861977	-0.1996416	0.3773758	-0.00212484	0.0004268994	
0.0008346557	-6.370633e-06	0.02712467	-0.2058103	-0.00212484	0.0004268994	-0.1989443	0.3658006	

4.742e+10	-0.3056169	0.05300896	-0.0004238068	-0.000204785	0.01642046	-0.2042209	0.0007822378	-0.0001754387	
-0.0004238068	-0.000204785	-0.2952156	0.06172754	0.001018337	-0.0004217048	0.02314611	-0.2101592	
0.01642046	-0.2042209	0.001018337	-0.0004217048	-0.1872629	0.3729794	-0.001883906	0.0009054479	
0.0007822378	-0.0001754387	0.02314611	-0.2101592	-0.001883906	0.0009054479	-0.1900009	0.362821	

4.744e+10	-0.3062715	0.05914491	-0.0004456812	-0.0001042874	0.01368433	-0.2066274	0.0007153755	-0.0003222832	
-0.0004456812	-0.0001042874	-0.2941807	0.0654338	0.0008552743	-0.0005980023	0.01831564	-0.2140378	
0.01368433	-0.2066274	0.0008552743	-0.0005980023	-0.1765903	0.3669276	-0.00155777	0.001280478	
0.0007153755	-0.0003222832	0.01831564	-0.2140378	-0.00155777	0.001280478	-0.1816076	0.3590547	

4.746e+10	-0.3056714	0.06530709	-0.0004520398	-3.944793e-07	0.01042343	-0.2092305	0.0006368159	-0.0004571437	
-0.0004520398	-3.944793e-07	-0.292532	0.06882825	0.0006857402	-0.0007267744	0.01270122	-0.2173091	
0.01042343	-0.2092305	0.0006857402	-0.0007267744	-0.1674902	0.3598396	-0.001185603	0.001551826	
0.0006368159	-0.0004571437	0.01270122	-0.2173091	-0.001185603	0.001551826	-0.1738117	0.3544806	

4.748e+10	-0.3038594	0.07115768	-0.0004392018	0.0001064164	0.006427661	-0.2118325	0.0005419866	-0.0005855587	
-0.0004392018	0.0001064164	-0.2903538	0.07180153	0.0005171541	-0.0008217991	0.006412645	-0.2198165	
0.006427661	-0.2118325	0.0005171541	-0.0008217991	-0.1600057	0.3520771	-0.0007949635	0.001730761	
0.0005419866	-0.0005855587	0.006412645	-0.2198165	-0.0007949635	0.001730761	-0.1665303	0.349138	

4.75e+10	-0.3009619	0.07649051	-0.0004040765	0.0002125949	0.00162623	-0.2141938	0.0004237028	-0.0007073953	
-0.0004040765	0.0002125949	-0.287724	0.07424978	0.0003488027	-0.000893941	-0.0004135208	-0.2214296	
0.00162623	-0.2141938	0.0003488027	-0.000893941	-0.1538303	0.343892	-0.0003996024	0.001832742	
0.0004237028	-0.0007073953	-0.0004135208	-0.2214296	-0.0003996024	0.001832742	-0.1598934	0.3428925	

4.752e+10	-0.29715	0.08106811	-0.0003446903	0.000313644	-0.003997358	-0.216043	0.0002754874	-0.0008172256	
-0.0003446903	0.000313644	-0.2847429	0.07619011	0.0001751991	-0.0009487085	-0.007617986	-0.2220394	
-0.003997358	-0.216043	0.0001751991	-0.0009487085	-0.1486969	0.3353955	-3.456815e-06	0.001868497	
0.0002754874	-0.0008172256	-0.007617986	-0.2220394	-3.456815e-06	0.001868497	-0.1538078	0.3357904	

4.754e+10	-0.2925691	0.08483309	-0.0002601821	0.0004041882	-0.01031769	-0.217095	9.329432e-05	-0.0009057278	
-0.0002601821	0.0004041882	-0.2815062	0.07753973	-1.094023e-05	-0.0009855393	-0.01499907	-0.2215529	
-0.01031769	-0.217095	-1.094023e-05	-0.0009855393	-0.144615	0.3264962	0.0003960391	0.001841085	
9.329432e-05	-0.0009057278	-0.01499907	-0.2215529	0.0003960391	0.001841085	-0.1487087	0.3276745	

4.756e+10	-0.2874366	0.08760397	-0.000149942	0.0004784656	-0.01717413	-0.2171519	-0.0001245257	-0.0009607637	
-0.000149942	0.0004784656	-0.2781465	0.07823584	-0.000215826	-0.0009982349	-0.02236072	-0.2199463	
-0.01717413	-0.2171519	-0.000215826	-0.0009982349	-0.1415365	0.3171509	0.0008000865	0.001744804	
-0.0001245257	-0.0009607637	-0.02236072	-0.2199463	0.0008000865	0.001744804	-0.1446689	0.3186251	

4.758e+10	-0.2819122	0.08937367	-1.459984e-05	0.0005282983	-0.02430652	-0.2160168	-0.0003748962	-0.0009665401	
-1.459984e-05	0.0005282983	-0.2747791	0.07827289	-0.0004419391	-0.0009742494	-0.02946321	-0.2172008	
-0.02430652	-0.2160168	-0.0004419391	-0.0009742494	-0.1394764	0.3073314	0.001204087	0.001565629	
-0.0003748962	-0.0009665401	-0.02946321	-0.2172008	0.001204087	0.001565629	-0.1419457	0.308754	

4.76e+10	-0.2761845	0.09000431	0.000143265	0.0005436189	-0.03144613	-0.2135976	-0.0006479195	-0.0009053382	
0.000143265	0.0005436189	-0.2715146	0.07765046	-0.0006846917	-0.0008978107	-0.03609787	-0.2133781	
-0.03144613	-0.2135976	-0.0006846917	-0.0008978107	-0.1387808	0.2969395	0.001591252	0.001286411	
-0.0006479195	-0.0009053382	-0.03609787	-0.2133781	0.001591252	0.001286411	-0.1409861	0.2981237	

4.762e+10	-0.2704377	0.08949109	0.000315864	0.000512948	-0.0382466	-0.2098328	-0.0009252158	-0.0007602513	
0.000315864	0.000512948	-0.268493	0.0764316	-0.000930327	-0.0007525578	-0.04201125	-0.2085404	
-0.0382466	-0.2098328	-0.000930327	-0.0007525578	-0.139686	0.2861453	0.001932033	0.0008931747	
-0.0009252158	-0.0007602513	-0.04201125	-0.2085404	0.001932033	0.0008931747	-0.14187	0.2871783	

4.764e+10	-0.2648986	0.08786336	0.0004893182	0.0004256428	-0.04438823	-0.2047845	-0.001177281	-0.0005199793	
0.0004893182	0.0004256428	-0.2658445	0.0746254	-0.001154648	-0.0005266903	-0.04698545	-0.2028701	
-0.04438823	-0.2047845	-0.001154648	-0.0005266903	-0.1426021	0.2751074	0.002182236	0.000384206	
-0.001177281	-0.0005199793	-0.04698545	-0.2028701	0.002182236	0.000384206	-0.1450603	0.2761821	

4.766e+10	-0.2597885	0.08506255	0.0006434604	0.0002757077	-0.04944	-0.1985883	-0.001366697	-0.0001845418	
0.0006434604	0.0002757077	-0.2636662	0.07237829	-0.001325651	-0.0002182717	-0.05084216	-0.1965921	
-0.04944	-0.1985883	-0.001325651	-0.0002182717	-0.1477141	0.2643033	0.002291398	-0.0002206809	
-0.001366697	-0.0001845418	-0.05084216	-0.1965921	0.002291398	-0.0002206809	-0.1505352	0.2657453	

4.768e+10	-0.2553843	0.08125803	0.0007534622	6.522378e-05	-0.05313636	-0.1914737	-0.001453149	0.0002291163	
0.0007534622	6.522378e-05	-0.2620375	0.06982074	-0.001407677	0.000159638	-0.05342803	-0.189949	
-0.05313636	-0.1914737	-0.001407677	0.000159638	-0.1552088	0.2542728	0.00221292	-0.0008773634	
-0.001453149	0.0002291163	-0.05342803	-0.189949	0.00221292	-0.0008773634	-0.1582824	0.2564812	

4.77e+10	-0.2519328	0.07649501	0.0007927551	-0.0001928718	-0.05515598	-0.1838444	-0.001400593	0.0006849315	
0.0007927551	-0.0001928718	-0.2610255	0.06697139	-0.001367877	0.0005775325	-0.05476584	-0.183241	
-0.05515598	-0.1838444	-0.001367877	0.0005775325	-0.1652006	0.2456592	0.001917436	-0.001515768	
-0.001400593	0.0006849315	-0.05476584	-0.183241	0.001917436	-0.001515768	-0.1682535	0.2488834	

4.772e+10	-0.2496929	0.07103266	0.000738823	-0.0004725697	-0.05531313	-0.1761811	-0.001188298	0.001128835	
0.000738823	-0.0004725697	-0.2606316	0.06406548	-0.001186076	0.0009882014	-0.05484121	-0.1767265	
-0.05531313	-0.1761811	-0.001186076	0.0009882014	-0.1773768	0.2392741	0.001407943	-0.002048876	
-0.001188298	0.001128835	-0.05484121	-0.1767265	0.001407943	-0.002048876	-0.1798623	0.2436921	

4.774e+10	-0.2487909	0.06526908	0.0005801668	-0.0007368899	-0.0536548	-0.169039	-0.0008202641	0.001497002	
0.0005801668	-0.0007368899	-0.2608403	0.06122757	-0.0008635387	0.001334828	-0.05369814	-0.1707243	
-0.0536548	-0.169039	-0.0008635387	0.001334828	-0.1913053	0.2358213	0.0007293852	-0.002391233	
-0.0008202641	0.001497002	-0.05369814	-0.1707243	0.0007293852	-0.002391233	-0.1927507	0.2412819	

4.776e+10	-0.2493309	0.05949098	0.0003222456	-0.000942007	-0.05035065	-0.1629587	-0.0003305272	0.001727769	
0.0003222456	-0.000942007	-0.2616331	0.05852987	-0.0004289515	0.001561556	-0.05156097	-0.1654415	
-0.05035065	-0.1629587	-0.0004289515	0.001561556	-0.2060727	0.235976	-3.343323e-05	-0.002481175	
-0.0003305272	0.001727769	-0.05156097	-0.1654415	-3.343323e-05	-0.002481175	-0.206112	0.2420951	

4.778e+10	-0.251253	0.05409335	-8.80041e-06	-0.001048263	-0.04581769	-0.1584277	0.0002204121	0.001779703	
-8.80041e-06	-0.001048263	-0.2629359	0.05608064	6.445547e-05	0.001629626	-0.0486296	-0.161069	
-0.04581769	-0.1584277	6.445547e-05	0.001629626	-0.2207859	0.2399348	-0.0007717801	-0.0023026	
0.0002204121	0.001779703	-0.0486296	-0.161069	-0.0007717801	-0.0023026	-0.2190881	0.246245	

4.78e+10	-0.2543396	0.04943861	-0.0003702538	-0.001029547	-0.0405927	-0.1557264	0.0007595626	0.001641812	
-0.0003702538	-0.001029547	-0.2646396	0.05398586	0.0005506215	0.001528657	-0.04511096	-0.1577361	
-0.0405927	-0.1557264	0.0005506215	0.001528657	-0.2342714	0.2476484	-0.001381419	-0.001892316	
0.0007595626	0.001641812	-0.04511096	-0.1577361	-0.001381419	-0.001892316	-0.2307895	0.2536343	

4.782e+10	-0.2582968	0.04582364	-0.0007111964	-0.0008810806	-0.03533704	-0.1549107	0.001216698	0.001336946	
-0.0007111964	-0.0008810806	-0.2666467	0.05231399	0.0009672456	0.001278047	-0.04128098	-0.1554729	
-0.03533704	-0.1549107	0.0009672456	0.001278047	-0.2453701	0.2587469	-0.001787944	-0.001331721	
0.001216698	0.001336946	-0.04128098	-0.1554729	-0.001787944	-0.001331721	-0.2402836	0.2638831	

4.784e+10	-0.2627962	0.04336428	-0.0009841931	-0.00061906	-0.03055106	-0.155864	0.001543132	0.0009124239	
-0.0009841931	-0.00061906	-0.2689449	0.05101215	0.001270648	0.000919931	-0.03730893	-0.1543345	
-0.03055106	-0.155864	0.001270648	0.000919931	-0.2533436	0.272344	-0.00196806	-0.0007202076	
0.001543132	0.0009124239	-0.03730893	-0.1543345	-0.00196806	-0.0007202076	-0.2469836	0.2762361	

4.786e+10	-0.2674879	0.04203099	-0.001152356	-0.0002770817	-0.02679285	-0.1582073	0.001716796	0.000426168	
-0.001152356	-0.0002770817	-0.2714232	0.05010935	0.001439876	0.000505705	-0.033488	-0.1542364	
-0.02679285	-0.1582073	0.001439876	0.000505705	-0.2575526	0.2875515	-0.001945904	-0.0001476795	
0.001716796	0.000426168	-0.033488	-0.1542364	-0.001945904	-0.0001476795	-0.2501768	0.2899349	

4.788e+10	-0.272098	0.04173406	-0.001195703	0.0001014569	-0.02431203	-0.1614801	0.00173944	-6.880191e-05	
-0.001195703	0.0001014569	-0.274038	0.04965294	0.001476882	8.454099e-05	-0.03000866	-0.1551037	
-0.02431203	-0.1614801	0.001476882	8.454099e-05	-0.2579906	0.3031379	-0.001778691	0.0003264508	
0.00173944	-6.880191e-05	-0.03000866	-0.1551037	-0.001778691	0.0003264508	-0.2497519	0.3038367	

4.79e+10	-0.2763854	0.04234228	-0.001111891	0.0004701386	-0.02318097	-0.1651713	0.001628095	-0.0005313257	
-0.001111891	0.0004701386	-0.2767228	0.04964072	0.001399703	-0.0003047752	-0.02698625	-0.1568048	
-0.02318097	-0.1651713	0.001399703	-0.0003047752	-0.254583	0.3182266	-0.001532016	0.0006820974	
0.001628095	-0.0005313257	-0.02698625	-0.1568048	-0.001532016	0.0006820974	-0.2459292	0.3168216	

4.792e+10	-0.2802905	0.04359165	-0.0009150539	0.0007867927	-0.02329934	-0.16884	0.001405051	-0.0009331603	
-0.0009150539	0.0007867927	-0.2794482	0.05007928	0.001234377	-0.0006386379	-0.024551	-0.1591778	
-0.02329934	-0.16884	0.001234377	-0.0006386379	-0.2479479	0.3318008	-0.001261097	0.0009321409	
0.001405051	-0.0009331603	-0.024551	-0.1591778	-0.001261097	0.0009321409	-0.2392945	0.3280345	

4.794e+10	-0.2837413	0.0453972	-0.0006335784	0.001018282	-0.02442339	-0.1721461	0.001093588	-0.001253912	
-0.0006335784	0.001018282	-0.2821441	0.05101997	0.001006646	-0.0009074702	-0.02275434	-0.1621109	
-0.02442339	-0.1721461	0.001006646	-0.0009074702	-0.2384213	0.343299	-0.00099722	0.001108303	
0.001093588	-0.001253912	-0.02275434	-0.1621109	-0.00099722	0.001108303	-0.2306003	0.3369093	

4.796e+10	-0.2867618	0.04762738	-0.0003029543	0.001145826	-0.02627746	-0.1748869	0.0007167046	-0.001478884	
-0.0003029543	0.001145826	-0.2847277	0.0525142	0.0007347162	-0.001110203	-0.02165674	-0.1654587	
-0.02627746	-0.1748869	0.0007347162	-0.001110203	-0.227039	0.3520257	-0.0007431777	0.001244716	
0.0007167046	-0.001478884	-0.02165674	-0.1654587	-0.0007431777	0.001244716	-0.2209077	0.3431762	

4.798e+10	-0.2894078	0.05014547	3.863904e-05	0.001164759	-0.02845971	-0.1770269	0.0002988032	-0.001595562	
3.863904e-05	0.001164759	-0.287111	0.05445781	0.0004282408	-0.001245325	-0.02121081	-0.1691352	
-0.02845971	-0.1770269	0.0004282408	-0.001245325	-0.2143906	0.3577952	-0.000480671	0.001359635	
0.0002988032	-0.001595562	-0.02121081	-0.1691352	-0.000480671	0.001359635	-0.210911	0.347024	

4.8e+10	-0.2916727	0.05300592	0.0003567611	0.001082738	-0.03074306	-0.1786338	-0.0001299767	-0.001594913	
0.0003567611	0.001082738	-0.2891669	0.05694196	9.703821e-05	-0.001305499	-0.02148774	-0.1730309	
-0.03074306	-0.1786338	9.703821e-05	-0.001305499	-0.2013602	0.3605871	-0.0001872562	0.001446933	
-0.0001299767	-0.001594913	-0.02148774	-0.1730309	-0.0001872562	0.001446933	-0.2013191	0.3488355	

4.802e+10	-0.2935566	0.05615824	0.000622646	0.0009179524	-0.03286534	-0.1799535	-0.0005347363	-0.001477193	
0.000622646	0.0009179524	-0.2907752	0.05984626	-0.0002432456	-0.001279992	-0.02244626	-0.1771335	
-0.03286534	-0.1799535	-0.0002432456	-0.001279992	-0.1888994	0.3605645	0.0001466691	0.001480151	
-0.0005347363	-0.001477193	-0.02244626	-0.1771335	0.0001466691	0.001480151	-0.1924826	0.3491135	

4.804e+10	-0.2950304	0.05964935	0.0008173299	0.0006965867	-0.03485838	-0.1811873	-0.0008798663	-0.001256579	
0.0008173299	0.0006965867	-0.2918564	0.06310158	-0.0005674991	-0.00116303	-0.02418417	-0.1813243	
-0.03485838	-0.1811873	-0.0005674991	-0.00116303	-0.1775329	0.3582654	0.000507831	0.001428838	
-0.0008798663	-0.001256579	-0.02418417	-0.1813243	0.000507831	0.001428838	-0.1843924	0.3484038	

4.806e+10	-0.2959737	0.06350529	0.000933982	0.0004485319	-0.03675981	-0.1826374	-0.001138255	-0.0009625812	
0.000933982	0.0004485319	-0.2922722	0.06667089	-0.0008461338	-0.0009617789	-0.02673722	-0.1855435	
-0.03675981	-0.1826374	-0.0008461338	-0.0009617789	-0.1677055	0.3543036	0.0008621997	0.001274565	
-0.001138255	-0.0009625812	-0.02673722	-0.1855435	0.0008621997	0.001274565	-0.1771215	0.3470215	

4.808e+10	-0.2962675	0.06763666	0.0009787389	0.0001996782	-0.03879069	-0.184394	-0.001299601	-0.0006296516	
0.0009787389	0.0001996782	-0.2920023	0.07031919	-0.00105461	-0.000694595	-0.03014447	-0.1896391	
-0.03879069	-0.184394	-0.00105461	-0.000694595	-0.1595069	0.3493594	0.001169786	0.001018278	
-0.001299601	-0.0006296516	-0.03014447	-0.1896391	0.001169786	0.001018278	-0.170337	0.3452573	

4.81e+10	-0.2958384	0.07189886	0.0009644499	-3.3167e-05	-0.04124232	-0.1864942	-0.001367905	-0.0002885122	
0.0009644499	-3.3167e-05	-0.2909955	0.07401157	-0.001178725	-0.0003875452	-0.03446132	-0.1934647	
-0.04124232	-0.1864942	-0.001178725	-0.0003875452	-0.1526795	0.3440544	0.001395686	0.0006799379	
-0.001367905	-0.0002885122	-0.03446132	-0.1934647	0.001395686	0.0006799379	-0.1638475	0.343205	

4.812e+10	-0.2945916	0.07613171	0.0009044805	-0.0002408158	-0.04428865	-0.1888256	-0.001353885	3.734447e-05	
0.0009044805	-0.0002408158	-0.2893025	0.07741015	-0.00121422	-6.937362e-05	-0.03962088	-0.1968523	
-0.04428865	-0.1888256	-0.00121422	-6.937362e-05	-0.1471	0.3386299	0.001516245	0.0002930258	
-0.001353885	3.734447e-05	-0.03962088	-0.1968523	0.001516245	0.0002930258	-0.1575386	0.3407885	

4.814e+10	-0.2924943	0.08023692	0.0008103866	-0.0004198313	-0.048093	-0.1911838	-0.001272712	0.0003331776	
0.0008103866	-0.0004198313	-0.2868962	0.08058886	-0.001167765	0.0002346145	-0.04554072	-0.1996417	
-0.048093	-0.1911838	-0.001167765	0.0002346145	-0.1422451	0.3333277	0.001525878	-0.0001052012	
-0.001272712	0.0003331776	-0.04554072	-0.1996417	0.001525878	-0.0001052012	-0.1512941	0.3379058	

4.816e+10	-0.2895918	0.08396978	0.0006913223	-0.0005688898	-0.05281005	-0.1933061	-0.001138932	0.00058961	
0.0006913223	-0.0005688898	-0.283905	0.08328864	-0.001052627	0.0005052383	-0.05225974	-0.2016378	
-0.05281005	-0.1933061	-0.001052627	0.0005052383	-0.137779	0.3280839	0.001432935	-0.0004815956	
-0.001138932	0.00058961	-0.05225974	-0.2016378	0.001432935	-0.0004815956	-0.1449979	0.3344296	

4.818e+10	-0.2859196	0.08719616	0.0005547038	-0.0006891238	-0.05839547	-0.1948894	-0.0009669318	0.0008033326	
0.0005547038	-0.0006891238	-0.2803825	0.08540058	-0.0008855224	0.0007315272	-0.05954133	-0.2026959	
-0.05839547	-0.1948894	-0.0008855224	0.0007315272	-0.1335319	0.3226931	0.001255186	-0.0008126689	
-0.0009669318	0.0008033326	-0.05954133	-0.2026959	0.001255186	-0.0008126689	-0.1388425	0.3301318	

4.82e+10	-0.2816156	0.08971257	0.0004052218	-0.0007833911	-0.06472326	-0.1957051	-0.0007672431	0.0009760432	
0.0004052218	-0.0007833911	-0.2764193	0.08694256	-0.0006805532	0.000910708	-0.06724259	-0.2027292	
-0.06472326	-0.1957051	-0.0006805532	0.000910708	-0.1295826	0.3168999	0.001010978	-0.00108718	
-0.0007672431	0.0009760432	-0.06724259	-0.2027292	0.001010978	-0.00108718	-0.1327998	0.3249296	

4.822e+10	-0.2767545	0.09147422	0.0002441709	-0.0008533235	-0.07161819	-0.1954944	-0.0005454194	0.001108927	
0.0002441709	-0.0008533235	-0.2721412	0.08768944	-0.0004469603	0.00104133	-0.07520291	-0.2015682	
-0.07161819	-0.1954944	-0.0004469603	0.00104133	-0.1258222	0.3104843	0.000715017	-0.001296963	
-0.0005454194	0.001108927	-0.07520291	-0.2015682	0.000715017	-0.001296963	-0.1271828	0.3186245	

4.824e+10	-0.2715284	0.0922772	7.09535e-05	-0.0008983423	-0.07884533	-0.1940755	-0.000303244	0.001201936	
7.09535e-05	-0.0008983423	-0.2676574	0.08763907	-0.0001915001	0.001121264	-0.08325921	-0.1991352	
-0.07884533	-0.1940755	-0.0001915001	0.001121264	-0.1225376	0.3032911	0.0003789351	-0.001435632	
-0.000303244	0.001201936	-0.08325921	-0.1991352	0.0003789351	-0.001435632	-0.1222102	0.311204	

4.826e+10	-0.2660759	0.09208503	-0.0001132886	-0.0009146104	-0.08614774	-0.1913301	-4.481184e-05	0.001250697	
-0.0001132886	-0.0009146104	-0.2630895	0.08680482	7.806991e-05	0.001146645	-0.09111227	-0.1953909	
-0.08614774	-0.1913301	7.806991e-05	0.001146645	-0.1200347	0.2951663	1.704726e-05	-0.001495703	
-4.481184e-05	0.001250697	-0.09111227	-0.1953909	1.704726e-05	-0.001495703	-0.118157	0.3025888	

4.828e+10	-0.2606007	0.09075075	-0.0003060566	-0.0008980078	-0.09320643	-0.1871886	0.0002253149	0.001250869	
-0.0003060566	-0.0008980078	-0.2586257	0.0849818	0.0003533279	0.001113696	-0.0985498	-0.1902844	
-0.09320643	-0.1871886	0.0003533279	0.001113696	-0.1187013	0.2861465	-0.0003565188	-0.001471425	
0.0002253149	0.001250869	-0.0985498	-0.1902844	-0.0003565188	-0.001471425	-0.1154842	0.2928738	

4.83e+10	-0.2552934	0.08835336	-0.0005033523	-0.0008440464	-0.09961474	-0.1816489	0.0005000699	0.001197804	
-0.0005033523	-0.0008440464	-0.254442	0.08223157	0.0006243446	0.001019517	-0.1052049	-0.1838468	
-0.09961474	-0.1816489	0.0006243446	0.001019517	-0.1189516	0.2763354	-0.0007243606	-0.001359461	
0.0005000699	0.001197804	-0.1052049	-0.1838468	-0.0007243606	-0.001359461	-0.1145298	0.2821943	

4.832e+10	-0.2504181	0.08481058	-0.000699604	-0.0007476132	-0.1050674	-0.1747924	0.0007719311	0.001086253	
-0.000699604	-0.0007476132	-0.2507457	0.07857895	0.0008801727	0.0008601851	-0.11081	-0.1761678	
-0.1050674	-0.1747924	0.0008801727	0.0008601851	-0.1211974	0.2660665	-0.00107012	-0.001155625	
0.0007719311	0.001086253	-0.11081	-0.1761678	-0.00107012	-0.001155625	-0.1157047	0.2708729	

4.834e+10	-0.2463192	0.08008148	-0.0008860065	-0.0006025817	-0.1090567	-0.1669102	0.001028323	0.0009100714	
-0.0008860065	-0.0006025817	-0.2478252	0.07397409	0.001104515	0.000632306	-0.1149438	-0.167432	
-0.1090567	-0.1669102	0.001104515	0.000632306	-0.1257394	0.2558742	-0.001369463	-0.0008577311	
0.001028323	0.0009100714	-0.1149438	-0.167432	-0.001369463	-0.0008577311	-0.1193261	0.2594336	

4.836e+10	-0.2432197	0.07445257	-0.001049247	-0.0004044502	-0.1113521	-0.1582619	0.001251755	0.0006655698	
-0.001049247	-0.0004044502	-0.2459027	0.06870353	0.00127585	0.0003369749	-0.1173467	-0.1579499	
-0.1113521	-0.1582619	0.00127585	0.0003369749	-0.1328835	0.2463793	-0.001592011	-0.0004712728	
0.001251755	0.0006655698	-0.1173467	-0.1579499	-0.001592011	-0.0004712728	-0.1258296	0.2484535	

4.838e+10	-0.2414296	0.06813569	-0.001170824	-0.000153934	-0.1116577	-0.1494189	0.001419416	0.0003560851	
-0.001170824	-0.000153934	-0.2452065	0.06295833	0.001368913	-1.539286e-05	-0.1177012	-0.148183	
-0.1116577	-0.1494189	0.001368913	-1.539286e-05	-0.1425472	0.2384623	-0.001705047	-1.339169e-05	
0.001419416	0.0003560851	-0.1177012	-0.148183	-0.001705047	-1.339169e-05	-0.1351972	0.2388629	

4.84e+10	-0.2411396	0.0614657	-0.001231508	0.0001405303	-0.109865	-0.1409755	0.001508393	-4.655316e-06	
-0.001231508	0.0001405303	-0.2458907	0.05708485	0.001360982	-0.0004023145	-0.1158936	-0.1387056	
-0.109865	-0.1409755	0.001360982	-0.0004023145	-0.1544697	0.2329364	-0.001680249	0.0004808517	
0.001508393	-4.655316e-06	-0.1158936	-0.1387056	-0.001680249	0.0004808517	-0.1472384	0.2315636	

4.842e+10	-0.2424701	0.05486538	-0.001213999	0.000463581	-0.1061715	-0.1335237	0.001499992	-0.0003948869	
-0.001213999	0.000463581	-0.2480298	0.05149995	0.001236398	-0.0007927174	-0.1120269	-0.1301054	
-0.1061715	-0.1335237	0.001236398	-0.0007927174	-0.1679073	0.2305964	-0.001501422	0.0009664882	
0.001499992	-0.0003948869	-0.1120269	-0.1301054	-0.001501422	0.0009664882	-0.1613118	0.2274919	

4.844e+10	-0.2453643	0.04885052	-0.00110441	0.0007933066	-0.1009359	-0.1276695	0.00138247	-0.0007860225	
-0.00110441	0.0007933066	-0.2515068	0.04661403	0.0009898146	-0.001148534	-0.1063601	-0.1230022	
-0.1009359	-0.1276695	0.0009898146	-0.001148534	-0.1818679	0.2320281	-0.001169273	0.001390526	
0.00138247	-0.0007860225	-0.1063601	-0.1230022	-0.001169273	0.001390526	-0.176413	0.2274303	

4.846e+10	-0.2495765	0.04373764	-0.000894995	0.001100898	-0.09480065	-0.1238149	0.001153219	-0.001143159	
-0.000894995	0.001100898	-0.2560669	0.04280497	0.0006293357	-0.001426221	-0.09947434	-0.1178371	
-0.09480065	-0.1238149	0.0006293357	-0.001426221	-0.1951452	0.2373202	-0.0007051008	0.001696399	
0.001153219	-0.001143159	-0.09947434	-0.1178371	-0.0007051008	0.001696399	-0.1913056	0.23166	

4.848e+10	-0.2547315	0.03998099	-0.0005886997	0.001351336	-0.08838977	-0.1221057	0.0008234533	-0.001429718	
-0.0005886997	0.001351336	-0.2613116	0.04035977	0.0001820605	-0.001583669	-0.09190552	-0.1148811	
-0.08838977	-0.1221057	0.0001820605	-0.001583669	-0.2065963	0.2461247	-0.0001560809	0.001837182	
0.0008234533	-0.001429718	-0.09190552	-0.1148811	-0.0001560809	0.001837182	-0.2045233	0.2400593	

4.85e+10	-0.2604102	0.03766488	-0.0002021115	0.00150953	-0.0824133	-0.122413	0.0004188206	-0.00161446	
-0.0002021115	0.00150953	-0.2667771	0.03939421	-0.0003069779	-0.001589631	-0.08436939	-0.1141436	
-0.0824133	-0.122413	-0.0003069779	-0.001589631	-0.2151868	0.257726	0.0004110143	0.001787556	
0.0004188206	-0.00161446	-0.08436939	-0.1141436	0.0004110143	0.001787556	-0.2147735	0.2519123	

4.852e+10	-0.2661692	0.03679199	0.0002325898	0.001546507	-0.07747604	-0.1243253	-2.482408e-05	-0.001679117	
0.0002325898	0.001546507	-0.2720463	0.03978426	-0.0007797128	-0.001434261	-0.07746615	-0.1154123	
-0.07747604	-0.1243253	-0.0007797128	-0.001434261	-0.2203266	0.2711118	0.0009228291	0.001556262	
-2.482408e-05	-0.001679117	-0.07746615	-0.1154123	0.0009228291	0.001556262	-0.2212331	0.2660039	

4.854e+10	-0.2716169	0.03725519	0.0006731771	0.001446862	-0.07381018	-0.1273805	-0.0004709407	-0.001619933	
0.0006731771	0.001446862	-0.2767563	0.04136151	-0.00117925	-0.001131651	-0.07156571	-0.1183554	
-0.07381018	-0.1273805	-0.00117925	-0.001131651	-0.2217244	0.2851254	0.001320455	0.001181536	
-0.0004709407	-0.001619933	-0.07156571	-0.1183554	0.001320455	0.001181536	-0.2233536	0.2809952	

4.856e+10	-0.2764995	0.03881026	0.001072865	0.001211417	-0.07158306	-0.1310204	-0.0008879363	-0.001442756	
0.001072865	0.001211417	-0.2806651	0.04385061	-0.001458942	-0.0007178885	-0.06701826	-0.1225637	
-0.07158306	-0.1310204	-0.001458942	-0.0007178885	-0.2195351	0.2987515	0.001570859	0.0007190296	
-0.0008879363	-0.001442756	-0.06701826	-0.1225637	0.001570859	0.0007190296	-0.2213718	0.2954836	

4.858e+10	-0.2806432	0.04119156	0.001386508	0.000857027	-0.07064558	-0.1347886	-0.001247689	-0.001156587	
0.001386508	0.000857027	-0.2836576	0.04690834	-0.001588877	-0.0002419972	-0.06391761	-0.1276405	
-0.07064558	-0.1347886	-0.001588877	-0.0002419972	-0.2142348	0.3110153	0.001664725	0.0002237928	
-0.001247689	-0.001156587	-0.06391761	-0.1276405	0.001664725	0.0002237928	-0.2160133	0.3082698	

4.86e+10	-0.2839564	0.04416179	0.001575817	0.0004175554	-0.07081582	-0.1383267	-0.001520727	-0.0007745148	
0.001575817	0.0004175554	-0.2857015	0.05032547	-0.001560425	0.0002401724	-0.06235732	-0.1331186	
-0.07081582	-0.1383267	-0.001560425	0.0002401724	-0.2064354	0.3213093	0.001610588	-0.0002559595	
-0.001520727	-0.0007745148	-0.06235732	-0.1331186	0.001610588	-0.0002559595	-0.2081683	0.3187212	

4.862e+10	-0.2864725	0.04747659	0.001616658	-6.077767e-05	-0.07172938	-0.1415087	-0.00167574	-0.0003193613	
0.001616658	-6.077767e-05	-0.2868902	0.05379371	-0.001386772	0.0006751757	-0.06224389	-0.1386931	
-0.07172938	-0.1415087	-0.001386772	0.0006751757	-0.1969318	0.3291795	0.001428042	-0.000681447	
-0.00167574	-0.0003193613	-0.06224389	-0.1386931	0.001428042	-0.000681447	-0.1988558	0.3265465	

4.864e+10	-0.2881872	0.05097078	0.001503819	-0.0005240089	-0.07317423	-0.1442967	-0.001686213	0.0001703873	
0.001503819	-0.0005240089	-0.2873112	0.05714976	-0.001099515	0.00102209	-0.06345471	-0.1440753	
-0.07317423	-0.1442967	-0.001099515	0.00102209	-0.1864952	0.3345159	0.001144887	-0.001023827	
-0.001686213	0.0001703873	-0.06345471	-0.1440753	0.001144887	-0.001023827	-0.1888533	0.3319023	

4.866e+10	-0.2891627	0.05453332	0.001253103	-0.0009193853	-0.07498046	-0.1467773	-0.001541168	0.0006421575	
0.001253103	-0.0009193853	-0.287078	0.06028753	-0.0007375271	0.001257587	-0.06576758	-0.1490446	
-0.07498046	-0.1467773	-0.0007375271	0.001257587	-0.1758813	0.3374333	0.0007912049	-0.001265406	
-0.001541168	0.0006421575	-0.06576758	-0.1490446	0.0007912049	-0.001265406	-0.1789629	0.335027	

4.868e+10	-0.2894566	0.05804931	0.0008990553	-0.001205078	-0.07703946	-0.1490697	-0.001253077	0.001038848	
0.0008990553	-0.001205078	-0.2862968	0.06315599	-0.0003393233	0.001373197	-0.06904989	-0.1534281	
-0.07703946	-0.1490697	-0.0003393233	0.001373197	-0.1656265	0.3382351	0.0003968869	-0.001396705	
-0.001253077	0.001038848	-0.06904989	-0.1534281	0.0003968869	-0.001396705	-0.1692812	0.336432	

4.87e+10	-0.2891404	0.0614587	0.0004886189	-0.001356374	-0.07939186	-0.1512834	-0.0008596496	0.001312182	
0.0004886189	-0.001356374	-0.2851042	0.06571666	6.072652e-05	0.001370555	-0.07308366	-0.1571579	
-0.07939186	-0.1512834	6.072652e-05	0.001370555	-0.1562299	0.3373391	-8.782545e-06	-0.001413473	
-0.0008596496	0.001312182	-0.07308366	-0.1571579	-8.782545e-06	-0.001413473	-0.1602867	0.3363502	

4.872e+10	-0.2882505	0.06464295	7.318317e-05	-0.001367643	-0.08212148	-0.153413	-0.000415783	0.001433936	
7.318317e-05	-0.001367643	-0.2835711	0.06787005	0.0004315525	0.001256453	-0.07768432	-0.160198	
-0.08212148	-0.153413	0.0004315525	0.001256453	-0.1477339	0.3352745	-0.0003963266	-0.001316017	
-0.000415783	0.001433936	-0.07768432	-0.160198	-0.0003963266	-0.001316017	-0.1519096	0.3351937	

4.874e+10	-0.2868431	0.06759542	-0.0003002781	-0.001253639	-0.08531125	-0.1554375	1.750149e-05	0.001402391	
-0.0003002781	-0.001253639	-0.2817577	0.06978017	0.0007430494	0.00104507	-0.08270916	-0.1625362	
-0.08531125	-0.1554375	0.0007430494	0.00104507	-0.1400786	0.3324216	-0.000731749	-0.001111443	
1.750149e-05	0.001402391	-0.08270916	-0.1625362	-0.000731749	-0.001111443	-0.1441766	0.3331725	

4.876e+10	-0.2849595	0.07020376	-0.0005954086	-0.001044286	-0.08900063	-0.1573081	0.0003858097	0.001241745	
-0.0005954086	-0.001044286	-0.2797258	0.07130121	0.0009686357	0.0007599989	-0.0880885	-0.1642155	
-0.08900063	-0.1573081	0.0009686357	0.0007599989	-0.13333	0.3290108	-0.0009814344	-0.0008206065	
0.0003858097	0.001241745	-0.0880885	-0.1642155	-0.0009814344	-0.0008206065	-0.1370357	0.330507	

4.878e+10	-0.2826385	0.07246408	-0.0007920646	-0.0007783597	-0.09325674	-0.1588252	0.0006534732	0.0009944017	
-0.0007920646	-0.0007783597	-0.2775078	0.07249229	0.001090713	0.0004345766	-0.09368502	-0.1652511	
-0.09325674	-0.1588252	0.001090713	0.0004345766	-0.1271843	0.3252043	-0.001120109	-0.0004789227	
0.0006534732	0.0009944017	-0.09368502	-0.1652511	-0.001120109	-0.0004789227	-0.1304406	0.3272837	

4.88e+10	-0.2799434	0.07427795	-0.0008876721	-0.0004954934	-0.09805565	-0.159887	0.0008075718	0.0007095441	
-0.0008876721	-0.0004954934	-0.2750729	0.07344835	0.001104988	0.0001064099	-0.09953111	-0.1656476	
-0.09805565	-0.159887	0.001104988	0.0001064099	-0.121509	0.3210556	-0.001138718	-0.0001307473	
0.0008075718	0.0007095441	-0.09953111	-0.1656476	-0.001138718	-0.0001307473	-0.1243269	0.3235449	

4.882e+10	-0.2769316	0.07565601	-0.0008933919	-0.0002305479	-0.1032469	-0.1603922	0.0008567293	0.0004327463	
-0.0008933919	-0.0002305479	-0.2725046	0.0739868	0.001023557	-0.0001875624	-0.1055229	-0.1653829	
-0.1032469	-0.1603922	0.001023557	-0.0001875624	-0.1161549	0.3165519	-0.001050003	0.0001792916	
0.0008567293	0.0004327463	-0.1055229	-0.1653829	-0.001050003	0.0001792916	-0.1185808	0.319366	

4.884e+10	-0.2737078	0.0764721	-0.0008310689	-8.268059e-06	-0.1087692	-0.1602294	0.0008252213	0.0001976459	
-0.0008310689	-8.268059e-06	-0.2697798	0.07420844	0.0008708137	-0.000419937	-0.1115818	-0.1644962	
-0.1087692	-0.1602294	0.0008708137	-0.000419937	-0.1113071	0.3115539	-0.0008832264	0.0004171221	
0.0008252213	0.0001976459	-0.1115818	-0.1644962	-0.0008832264	0.0004171221	-0.1132292	0.3146785	

4.886e+10	-0.270303	0.07679385	-0.0007271282	0.0001594704	-0.1145522	-0.1592989	0.0007455487	2.119881e-05	
-0.0007271282	0.0001594704	-0.2669578	0.07398378	0.0006787499	-0.0005772326	-0.1177697	-0.162872	
-0.1145522	-0.1592989	0.0006787499	-0.0005772326	-0.106889	0.3060831	-0.0006786029	0.0005671989	
0.0007455487	2.119881e-05	-0.1177697	-0.162872	-0.0006786029	0.0005671989	-0.1083624	0.3094346	

4.888e+10	-0.2668233	0.07656074	-0.0006077066	0.0002720949	-0.1203844	-0.1576273	0.0006503776	-9.60371e-05	
-0.0006077066	0.0002720949	-0.264067	0.07333153	0.0004798987	-0.0006613489	-0.1238715	-0.1605604	
-0.1203844	-0.1576273	0.0004798987	-0.0006613489	-0.1029232	0.3001012	-0.000476356	0.000634908	
0.0006503776	-9.60371e-05	-0.1238715	-0.1605604	-0.000476356	0.000634908	-0.1039018	0.3036453	

4.89e+10	-0.2632873	0.07579488	-0.0004930769	0.0003393894	-0.1262435	-0.1551212	0.0005646168	-0.0001671185	
-0.0004930769	0.0003393894	-0.2611306	0.07231976	0.0002989186	-0.0006871049	-0.1299103	-0.1574818	
-0.1262435	-0.1551212	0.0002989186	-0.0006871049	-0.09963659	0.2935199	-0.0003062225	0.0006420089	
0.0005646168	-0.0001671185	-0.1299103	-0.1574818	-0.0003062225	0.0006420089	-0.1000807	0.2972122	

4.892e+10	-0.2597714	0.07448824	-0.0003947935	0.0003767459	-0.1319398	-0.1518329	0.0005012376	-0.0002131345	
-0.0003947935	0.0003767459	-0.2582452	0.0707448	0.0001482266	-0.0006764811	-0.1357633	-0.1536145	
-0.1319398	-0.1518329	0.0001482266	-0.0006764811	-0.09695016	0.2864269	-0.0001799666	0.000619853	
0.0005012376	-0.0002131345	-0.1357633	-0.1536145	-0.0001799666	0.000619853	-0.09687995	0.2902168	

4.894e+10	-0.2563318	0.07258292	-0.0003147451	0.0003999697	-0.1374318	-0.1476873	0.0004597612	-0.0002548708	
-0.0003147451	0.0003999697	-0.2554156	0.06872515	2.710379e-05	-0.0006504756	-0.1413276	-0.1489803	
-0.1374318	-0.1476873	2.710379e-05	-0.0006504756	-0.09507257	0.2787953	-9.186813e-05	0.000596669	
0.0004597612	-0.0002548708	-0.1413276	-0.1489803	-9.186813e-05	0.000596669	-0.09450746	0.2826169	

4.896e+10	-0.2530475	0.07003362	-0.0002476183	0.0004210444	-0.1425168	-0.1427159	0.0004301579	-0.0003074748	
-0.0002476183	0.0004210444	-0.2527643	0.06612289	-7.436998e-05	-0.0006235003	-0.1464811	-0.1435451	
-0.1425168	-0.1427159	-7.436998e-05	-0.0006235003	-0.09419937	0.2706558	-2.337497e-05	0.0005907277	
0.0004301579	-0.0003074748	-0.1464811	-0.1435451	-2.337497e-05	0.0005907277	-0.09307342	0.2745002	

4.898e+10	-0.2499877	0.06684372	-0.0001840724	0.0004454892	-0.1470724	-0.1368595	0.0003970566	-0.0003766741	
-0.0001840724	0.0004454892	-0.2503104	0.06301298	-0.0001703257	-0.0005999196	-0.1511081	-0.137257	
-0.1470724	-0.1368595	-0.0001703257	-0.0005999196	-0.09459091	0.2620187	4.88991e-05	0.0006052479	
0.0003970566	-0.0003766741	-0.1511081	-0.137257	4.88991e-05	0.0006052479	-0.09284089	0.2658555	

4.9e+10	-0.2472844	0.06298605	-0.0001150003	0.0004728258	-0.1508691	-0.1301808	0.0003459314	-0.0004595002	
-0.0001150003	0.0004728258	-0.2481916	0.05931071	-0.0002730069	-0.0005752103	-0.1549869	-0.1301878	
-0.1508691	-0.1301808	-0.0002730069	-0.0005752103	-0.09635035	0.2531116	0.0001447309	0.0006305121	
0.0003459314	-0.0004595002	-0.1549869	-0.1301878	0.0001447309	0.0006305121	-0.09394953	0.2568681	

4.902e+10	-0.2450997	0.0584814	-3.326925e-05	0.0004976091	-0.1537016	-0.1226984	0.0002655787	-0.0005460401	
-3.326925e-05	0.0004976091	-0.2465456	0.05501911	-0.0003892925	-0.0005379842	-0.1579537	-0.1222567	
-0.1537016	-0.1226984	-0.0003892925	-0.0005379842	-0.09991118	0.2440939	0.000275795	0.0006472183	
0.0002655787	-0.0005460401	-0.1579537	-0.1222567	0.000275795	0.0006472183	-0.0967182	0.2476861	

4.904e+10	-0.2436282	0.05329775	6.437524e-05	0.0005112328	-0.1552645	-0.1146383	0.0001505944	-0.0006218654	
6.437524e-05	0.0005112328	-0.2455538	0.05013703	-0.0005185198	-0.0004736396	-0.1596939	-0.1136564	
-0.1552645	-0.1146383	-0.0005185198	-0.0004736396	-0.1053699	0.2354472	0.0004424492	0.0006314841	
0.0001505944	-0.0006218654	-0.1596939	-0.1136564	0.0004424492	0.0006314841	-0.1013166	0.2386869	

4.906e+10	-0.2430647	0.04764334	0.0001762974	0.0005033701	-0.1553338	-0.1062398	2.667073e-06	-0.0006702247	
0.0001762974	0.0005033701	-0.2454108	0.04481997	-0.0006511446	-0.0003673505	-0.1599521	-0.1045501	
-0.1553338	-0.1062398	-0.0006511446	-0.0003673505	-0.1129951	0.2276272	0.0006325658	0.0005590174	
2.667073e-06	-0.0006702247	-0.1599521	-0.1045501	0.0006325658	0.0005590174	-0.1080771	0.2303013	

4.908e+10	-0.2436068	0.04164047	0.0002957263	0.0004644656	-0.1537254	-0.09785845	-0.0001690106	-0.0006753532	
0.0002957263	0.0004644656	-0.2463257	0.03910231	-0.0007688265	-0.0002087414	-0.1584313	-0.0952704	
-0.1537254	-0.09785845	-0.0007688265	-0.0002087414	-0.1227391	0.2213361	0.0008212438	0.0004118759	
-0.0001690106	-0.0006753532	-0.1584313	-0.0952704	0.0008212438	0.0004118759	-0.1170141	0.2231628	

4.91e+10	-0.2454262	0.03549763	0.000410069	0.0003877152	-0.1503587	-0.08998783	-0.0003474393	-0.000625252	
0.000410069	0.0003877152	-0.2484984	0.03337751	-0.0008452638	3.245596e-06	-0.1549747	-0.08629322	
-0.1503587	-0.08998783	-0.0008452638	3.245596e-06	-0.1342959	0.2173588	0.0009731111	0.000183924	
-0.0003474393	-0.000625252	-0.1549747	-0.08629322	0.0009731111	0.000183924	-0.1279304	0.2180521	

4.912e+10	-0.2485639	0.02968345	0.0005031808	0.0002727729	-0.1453075	-0.08311737	-0.0005100677	-0.000516518	
0.0005031808	0.0002727729	-0.2520091	0.0279111	-0.0008521106	0.0002553212	-0.1494978	-0.07818877	
-0.1453075	-0.08311737	-0.0008521106	0.0002553212	-0.1471615	0.2163791	0.001049161	-0.0001127268	
-0.0005100677	-0.000516518	-0.1494978	-0.07818877	0.001049161	-0.0001127268	-0.1403244	0.2157507	

4.914e+10	-0.2529927	0.0245387	0.0005580392	0.0001280848	-0.1388839	-0.07777873	-0.0006332169	-0.0003566538	
0.0005580392	0.0001280848	-0.2568349	0.02319303	-0.0007661113	0.0005181115	-0.1422426	-0.07154057	
-0.1388839	-0.07777873	-0.0007661113	0.0005181115	-0.1604109	0.2189331	0.001015762	-0.0004455923	
-0.0006332169	-0.0003566538	-0.1422426	-0.07154057	0.001015762	-0.0004455923	-0.1534033	0.2168197	

4.916e+10	-0.258537	0.02039271	0.0005630503	-2.964125e-05	-0.1315456	-0.0744249	-0.0006983974	-0.0001639362	
0.0005630503	-2.964125e-05	-0.2627751	0.01966592	-0.0005808643	0.0007488457	-0.1335846	-0.06701087	
-0.1315456	-0.0744249	-0.0005808643	0.0007488457	-0.1728578	0.2252727	0.0008571196	-0.0007661111	
-0.0006983974	-0.0001639362	-0.1335846	-0.06701087	0.0008571196	-0.0007661111	-0.1659884	0.2215586	

4.918e+10	-0.2648864	0.01759373	0.0005153913	-0.0001786012	-0.1239291	-0.07317474	-0.0006967616	3.712547e-05	
0.0005153913	-0.0001786012	-0.2694879	0.0175687	-0.000312123	0.0009018665	-0.1241862	-0.06489537	
-0.1239291	-0.07317474	-0.000312123	0.0009018665	-0.183258	0.2350665	0.0005808452	-0.001019322	
-0.0006967616	3.712547e-05	-0.1241862	-0.06489537	0.0005808452	-0.001019322	-0.1768567	0.2296531	

4.92e+10	-0.2716425	0.01628128	0.0004242431	-0.0002977982	-0.1166861	-0.07405126	-0.0006319596	0.0002197007	
0.0004242431	-0.0002977982	-0.2764655	0.01719997	-1.809988e-07	0.00094277	-0.1147723	-0.06546495	
-0.1166861	-0.07405126	-1.809988e-07	0.00094277	-0.1905168	0.2475699	0.0002217408	-0.001157248	
-0.0006319596	0.0002197007	-0.1147723	-0.06546495	0.0002217408	-0.001157248	-0.1850517	0.2403813	

4.922e+10	-0.278372	0.01648959	0.0003076853	-0.0003741427	-0.1104005	-0.07670176	-0.0005187192	0.0003626717	
0.0003076853	-0.0003741427	-0.2831724	0.0185601	0.0003002699	0.0008616281	-0.1061613	-0.06849501	
-0.1104005	-0.07670176	0.0003002699	0.0008616281	-0.1940178	0.2615311	-0.0001644211	-0.001151824	
-0.0005187192	0.0003626717	-0.1061613	-0.06849501	-0.0001644211	-0.001151824	-0.1900254	0.2526306	

4.924e+10	-0.2846782	0.01820975	0.0001865559	-0.0004059561	-0.1054137	-0.08076994	-0.0003785095	0.0004551082	
0.0001865559	-0.0004059561	-0.2891128	0.02148479	0.0005364184	0.0006778603	-0.09894881	-0.07370046	
-0.1054137	-0.08076994	0.0005364184	0.0006778603	-0.1934636	0.2756798	-0.000514121	-0.001004248	
-0.0003785095	0.0004551082	-0.09894881	-0.07370046	-0.000514121	-0.001004248	-0.1916419	0.2653275	

4.926e+10	-0.2902396	0.02116108	7.710387e-05	-0.0004015647	-0.1019098	-0.08575526	-0.0002329553	0.0004970804	
7.710387e-05	-0.0004015647	-0.2939252	0.02550837	0.0006736707	0.0004346339	-0.09363717	-0.08054067	
-0.1019098	-0.08575526	0.0006736707	0.0004346339	-0.1893651	0.2887198	-0.0007714567	-0.0007470715	
-0.0002329553	0.0004970804	-0.09363717	-0.08054067	-0.0007714567	-0.0007470715	-0.1903391	0.2775674	

4.928e+10	-0.294762	0.02511455	-1.278043e-05	-0.0003740317	-0.09989824	-0.09121963	-9.872046e-05	0.000497663	
-1.278043e-05	-0.0003740317	-0.2973639	0.03036244	0.0007049052	0.0001836666	-0.0904674	-0.08837596	
-0.09989824	-0.09121963	0.0007049052	0.0001836666	-0.1824351	0.2998172	-0.0009038562	-0.0004348023	
-9.872046e-05	0.000497663	-0.0904674	-0.08837596	-0.0009038562	-0.0004348023	-0.1866031	0.2887758	

4.93e+10	-0.2981286	0.02975719	-8.329305e-05	-0.0003345677	-0.09932187	-0.09685649	1.625705e-05	0.0004692985	
-8.329305e-05	-0.0003345677	-0.2993878	0.03554086	0.0006485302	-3.119425e-05	-0.08956346	-0.09658439	
-0.09932187	-0.09685649	0.0006485302	-3.119425e-05	-0.1737017	0.3085226	-0.0009111333	-0.000127565	
1.625705e-05	0.0004692985	-0.08956346	-0.09658439	-0.0009111333	-0.000127565	-0.1809783	0.2987129	

4.932e+10	-0.3002248	0.0348434	-0.0001385121	-0.0002893562	-0.100027	-0.1025015	0.0001110802	0.0004221814	
-0.0001385121	-0.0002893562	-0.3000484	0.04072813	0.0005383352	-0.0001852271	-0.09073262	-0.1047077	
-0.100027	-0.1025015	0.0005383352	-0.0001852271	-0.1640902	0.3148118	-0.0008208028	0.0001276538	
0.0001110802	0.0004221814	-0.09073262	-0.1047077	-0.0008208028	0.0001276538	-0.1738354	0.307253	

4.934e+10	-0.3010234	0.04000469	-0.0001818844	-0.0002402328	-0.1019829	-0.107957	0.0001870339	0.0003627287	
-0.0001818844	-0.0002402328	-0.2994843	0.04556011	0.0004096967	-0.0002742577	-0.0938049	-0.112269	
-0.1019829	-0.107957	0.0004096967	-0.0002742577	-0.154091	0.3190367	-0.000674071	0.0003070498	
0.0001870339	0.0003627287	-0.0938049	-0.112269	-0.000674071	0.0003070498	-0.1654644	0.314363	

4.936e+10	-0.300566	0.04502716	-0.0002143059	-0.0001871486	-0.105136	-0.1130606	0.0002450481	0.0002941263	
-0.0002143059	-0.0001871486	-0.2978791	0.04990132	0.0002896256	-0.0003102271	-0.09852043	-0.1189216	
-0.105136	-0.1130606	0.0002896256	-0.0003102271	-0.1441681	0.3215388	-0.0005114	0.0004105887	
0.0002450481	0.0002941263	-0.09852043	-0.1189216	-0.0005114	0.0004105887	-0.1561981	0.3199701	

4.938e+10	-0.2990004	0.0494992	-0.0002348465	-0.0001310362	-0.1094331	-0.1175993	0.0002846554	0.0002193092	
-0.0002348465	-0.0001310362	-0.2954396	0.05353068	0.0001920811	-0.0003116868	-0.1045567	-0.1244735	
-0.1094331	-0.1175993	0.0001920811	-0.0003116868	-0.1343752	0.322657	-0.0003606466	0.0004545337	
0.0002846554	0.0002193092	-0.1045567	-0.1244735	-0.0003606466	0.0004545337	-0.1461844	0.324064	

4.94e+10	-0.2964895	0.0534003	-0.0002424227	-7.425486e-05	-0.1147637	-0.1214016	0.0003050243	0.000142313	
-0.0002424227	-7.425486e-05	-0.292329	0.05645246	0.0001194527	-0.0002963405	-0.1116484	-0.1287541	
-0.1147637	-0.1214016	0.0001194527	-0.0002963405	-0.1248427	0.3225314	-0.0002348664	0.0004601568	
0.0003050243	0.000142313	-0.1116484	-0.1287541	-0.0002348664	0.0004601568	-0.1356666	0.3265604	

4.942e+10	-0.2932227	0.05641272	-0.0002373522	-2.043173e-05	-0.1209744	-0.1242705	0.0003069442	6.810971e-05	
-0.0002373522	-2.043173e-05	-0.2887566	0.05848582	6.743572e-05	-0.0002764437	-0.1194846	-0.1316808	
-0.1209744	-0.1242705	6.743572e-05	-0.0002764437	-0.1153715	0.3213363	-0.000135481	0.000445641	
0.0003069442	6.810971e-05	-0.1194846	-0.1316808	-0.000135481	0.000445641	-0.1247902	0.3274792	

4.944e+10	-0.2894235	0.05856831	-0.0002213934	2.737983e-05	-0.1278663	-0.1260493	0.0002928876	1.179975e-06	
-0.0002213934	2.737983e-05	-0.2848682	0.05966774	2.906409e-05	-0.0002585012	-0.1278137	-0.1332363	
-0.1278663	-0.1260493	2.906409e-05	-0.0002585012	-0.1061737	0.3189841	-5.765605e-05	0.0004233722	
0.0002928876	1.179975e-06	-0.1278137	-0.1332363	-5.765605e-05	0.0004233722	-0.1137977	0.3267826	

4.946e+10	-0.2852799	0.059702	-0.0001972866	6.723871e-05	-0.1352622	-0.1266647	0.0002667001	-5.562912e-05	
-0.0001972866	6.723871e-05	-0.2807929	0.05999176	-1.94991e-06	-0.0002444622	-0.136436	-0.1334215	
-0.1352622	-0.1266647	-1.94991e-06	-0.0002444622	-0.09706859	0.3155264	5.273632e-06	0.0003996552	
0.0002667001	-5.562912e-05	-0.136436	-0.1334215	5.273632e-06	0.0003996552	-0.102864	0.324465	

4.948e+10	-0.28095	0.05997407	-0.0001680343	9.827001e-05	-0.1429262	-0.1260064	0.000232528	-0.0001009854	
-0.0001680343	9.827001e-05	-0.2766614	0.05951312	-3.015697e-05	-0.000233793	-0.14515	-0.1322153	
-0.1429262	-0.1260064	-3.015697e-05	-0.000233793	-0.08842143	0.3108176	5.911913e-05	0.0003768813	
0.000232528	-0.0001009854	-0.14515	-0.1322153	5.911913e-05	0.0003768813	-0.09227178	0.3205228	

4.95e+10	-0.2766149	0.05930109	-0.0001361094	0.0001209286	-0.1506336	-0.1240845	0.0001939744	-0.0001352479	
-0.0001361094	0.0001209286	-0.272608	0.0581933	-5.844806e-05	-0.0002248682	-0.1537202	-0.1296739	
-0.1506336	-0.1240845	-5.844806e-05	-0.0002248682	-0.08026326	0.3048612	0.0001084059	0.0003549341	
0.0001939744	-0.0001352479	-0.1537202	-0.1296739	0.0001084059	0.0003549341	-0.08216357	0.31498	

4.952e+10	-0.2724053	0.05775247	-0.0001033837	0.0001359073	-0.15816	-0.1209225	0.0001536484	-0.0001595305	
-0.0001033837	0.0001359073	-0.2687285	0.05604241	-8.838353e-05	-0.0002157158	-0.1620046	-0.1258449	
-0.15816	-0.1209225	-8.838353e-05	-0.0002157158	-0.07273018	0.2976738	0.0001561577	0.0003326504	
0.0001536484	-0.0001595305	-0.1620046	-0.1258449	0.0001561577	0.0003326504	-0.0727294	0.307907	

4.954e+10	-0.2684434	0.05529886	-7.094377e-05	0.0001443039	-0.1653653	-0.1164795	0.0001131736	-0.0001753018	
-7.094377e-05	0.0001443039	-0.2651495	0.05307835	-0.0001207038	-0.0002043431	-0.1698563	-0.1207106	
-0.1653653	-0.1164795	-0.0001207038	-0.0002043431	-0.06618337	0.2892037	0.0002043643	0.0003081761	
0.0001131736	-0.0001753018	-0.1698563	-0.1207106	0.0002043643	0.0003081761	-0.06432305	0.2992756	

4.956e+10	-0.2648713	0.05201368	-3.947639e-05	0.0001468153	-0.1719496	-0.1108989	7.327702e-05	-0.0001837262	
-3.947639e-05	0.0001468153	-0.261972	0.04940542	-0.0001554893	-0.0001886236	-0.1770182	-0.1143868	
-0.1719496	-0.1108989	-0.0001554893	-0.0001886236	-0.06075283	0.2795752	0.0002541492	0.000279091	
7.327702e-05	-0.0001837262	-0.1770182	-0.1143868	0.0002541492	0.000279091	-0.05706032	0.2892353	

4.958e+10	-0.2617958	0.04800128	-9.255437e-06	0.0001439828	-0.1777746	-0.1042163	3.418705e-05	-0.0001855773	
-9.255437e-06	0.0001439828	-0.2593103	0.04502375	-0.0001921455	-0.0001664417	-0.1833591	-0.106889	
-0.1777746	-0.1042163	-0.0001921455	-0.0001664417	-0.05680983	0.2688841	0.0003056967	0.000242579	
3.418705e-05	-0.0001855773	-0.1833591	-0.106889	0.0003056967	0.000242579	-0.05134518	0.2778456	

4.96e+10	-0.2593543	0.04321491	1.925321e-05	0.0001359434	-0.1826261	-0.09649157	-3.8999e-06	-0.000181048	
1.925321e-05	0.0001359434	-0.2573277	0.03988242	-0.0002292629	-0.0001356938	-0.1886424	-0.09832657	
-0.1826261	-0.09649157	-0.0002292629	-0.0001356938	-0.05459512	0.2572915	0.0003579929	0.0001955084	
-3.8999e-06	-0.000181048	-0.1886424	-0.09832657	0.0003579929	0.0001955084	-0.04739497	0.2652693	

4.962e+10	-0.2576825	0.03786744	4.544343e-05	0.0001225668	-0.186269	-0.08792965	-4.059278e-05	-0.0001697335	
4.544343e-05	0.0001225668	-0.2561539	0.03422373	-0.000264511	-9.439626e-05	-0.1926535	-0.08881448	
-0.186269	-0.08792965	-0.000264511	-9.439626e-05	-0.05437561	0.2450701	0.0004085791	0.0001345711	
-4.059278e-05	-0.0001697335	-0.1926535	-0.08881448	0.0004085791	0.0001345711	-0.04556902	0.251749	

4.964e+10	-0.2569147	0.03200042	6.833894e-05	0.0001037084	-0.1884881	-0.07873035	-7.496926e-05	-0.0001508923	
6.833894e-05	0.0001037084	-0.2559297	0.02802887	-0.0002945846	-4.082459e-05	-0.195143	-0.0785261	
-0.1884881	-0.07873035	-0.0002945846	-4.082459e-05	-0.05639835	0.2325899	0.0004534071	5.654958e-05	
-7.496926e-05	-0.0001508923	-0.195143	-0.0785261	0.0004534071	5.654958e-05	-0.04614194	0.2376011	

4.966e+10	-0.257183	0.02576095	8.609453e-05	7.937344e-05	-0.1891228	-0.06909686	-0.0001049372	-0.0001238253	
8.609453e-05	7.937344e-05	-0.2568124	0.02161028	-0.0003145213	2.558205e-05	-0.195895	-0.06771989	
-0.1891228	-0.06909686	-0.0003145213	2.558205e-05	-0.06096734	0.220289	0.0004859082	-4.046296e-05	
-0.0001049372	-0.0001238253	-0.195895	-0.06771989	0.0004859082	-4.046296e-05	-0.04949758	0.2232691	

4.968e+10	-0.2586068	0.01935396	9.656532e-05	5.055827e-05	-0.1880125	-0.05942444	-0.0001275456	-8.881164e-05	
9.656532e-05	5.055827e-05	-0.2589473	0.01497615	-0.0003184308	0.0001033416	-0.1946981	-0.05674932	
-0.1880125	-0.05942444	-0.0003184308	0.0001033416	-0.06819122	0.2087547	0.0004975026	-0.0001557744	
-0.0001275456	-8.881164e-05	-0.1946981	-0.05674932	0.0004975026	-0.0001557744	-0.05585913	0.2093458	

4.97e+10	-0.2612664	0.01300661	9.726462e-05	1.937714e-05	-0.1850384	-0.05013512	-0.0001391598	-4.742808e-05	
9.726462e-05	1.937714e-05	-0.2624087	0.008613295	-0.0002998737	0.0001881834	-0.1913869	-0.04605394	
-0.1850384	-0.05013512	-0.0002998737	0.0001881834	-0.07799065	0.1987024	0.0004783552	-0.0002850777	
-0.0001391598	-4.742808e-05	-0.1913869	-0.04605394	0.0004783552	-0.0002850777	-0.06535555	0.1965806	

4.972e+10	-0.2651967	0.007037054	8.678134e-05	-1.017665e-05	-0.1802852	-0.04158898	-0.0001367573	-3.796091e-06	
8.678134e-05	-1.017665e-05	-0.2672363	0.002705301	-0.0002542001	0.0002721198	-0.1859756	-0.03611631	
-0.1802852	-0.04158898	-0.0002542001	0.0002721198	-0.09024428	0.190827	0.0004200918	-0.0004183796	
-0.0001367573	-3.796091e-06	-0.1859756	-0.03611631	0.0004200918	-0.0004183796	-0.07791452	0.1858051	

4.974e+10	-0.2703244	0.001745703	6.534399e-05	-3.287318e-05	-0.1738961	-0.03436928	-0.0001188523	3.615542e-05	
6.534399e-05	-3.287318e-05	-0.2733204	-0.002289817	-0.0001797547	0.0003442779	-0.1785577	-0.02754646	
-0.1738961	-0.03436928	-0.0001797547	0.0003442779	-0.104351	0.1859513	0.0003177143	-0.0005410764	
-0.0001188523	3.615542e-05	-0.1785577	-0.02754646	0.0003177143	-0.0005410764	-0.09306227	0.1780117	

4.976e+10	-0.2764982	-0.002557749	3.643717e-05	-4.335339e-05	-0.1662031	-0.02891742	-8.750966e-05	6.553708e-05	
3.643717e-05	-4.335339e-05	-0.2804543	-0.006070563	-8.066055e-05	0.0003925997	-0.1694627	-0.0209275	
-0.1662031	-0.02891742	-8.066055e-05	0.0003925997	-0.1196436	0.1846581	0.0001733069	-0.0006358136	
-8.750966e-05	6.553708e-05	-0.1694627	-0.0209275	0.0001733069	-0.0006358136	-0.1101821	0.1740217	

4.978e+10	-0.2834539	-0.005640556	6.758525e-06	-3.829823e-05	-0.1576995	-0.0255135	-4.843399e-05	7.875913e-05	
6.758525e-06	-3.829823e-05	-0.2882719	-0.008253575	3.324432e-05	0.0004074059	-0.1592218	-0.0166506	
-0.1576995	-0.0255135	3.324432e-05	0.0004074059	-0.134992	0.1873778	-3.233347e-06	-0.0006861324	
-4.843399e-05	7.875913e-05	-0.1592218	-0.0166506	-3.233347e-06	-0.0006861324	-0.1281286	0.1744897	

4.98e+10	-0.2908606	-0.007210072	-1.524467e-05	-1.822595e-05	-0.1490096	-0.02437455	-1.007502e-05	7.350171e-05	
-1.524467e-05	-1.822595e-05	-0.2963211	-0.00874284	0.000147841	0.0003841966	-0.1485058	-0.01508467	
-0.1490096	-0.02437455	0.000147841	0.0003841966	-0.149329	0.1941179	-0.0001947729	-0.0006805985	
-1.007502e-05	7.350171e-05	-0.1485058	-0.01508467	-0.0001947729	-0.0006805985	-0.1455932	0.1797285	

4.982e+10	-0.2982909	-0.007290073	-2.182351e-05	1.114363e-05	-0.1407572	-0.02545304	1.861002e-05	5.24832e-05	
-2.182351e-05	1.114363e-05	-0.3040879	-0.007484853	0.0002483474	0.0003256605	-0.1380876	-0.016246	
-0.1407572	-0.02545304	0.0002483474	0.0003256605	-0.1613516	0.2045266	-0.0003807482	-0.0006157624	
1.861002e-05	5.24832e-05	-0.1380876	-0.016246	-0.0003807482	-0.0006157624	-0.1611278	0.1894584	

4.984e+10	-0.3053527	-0.005916385	-9.267983e-06	4.014405e-05	-0.1335608	-0.02851106	3.108886e-05	2.26945e-05	
-9.267983e-06	4.014405e-05	-0.311085	-0.004669683	0.0003231905	0.0002407759	-0.1287133	-0.01994887	
-0.1335608	-0.02851106	0.0003231905	0.0002407759	-0.1700939	0.2177886	-0.0005407264	-0.0004968751	
3.108886e-05	2.26945e-05	-0.1287133	-0.01994887	-0.0005407264	-0.0004968751	-0.1734186	0.2029753	

4.986e+10	-0.3116929	-0.00326416	1.973004e-05	5.783417e-05	-0.1278556	-0.03313714	2.564013e-05	-6.118273e-06	
1.973004e-05	5.783417e-05	-0.3169393	-0.0006637971	0.0003671287	0.0001417957	-0.1209932	-0.02578411	
-0.1278556	-0.03313714	0.0003671287	0.0001417957	-0.1748756	0.2327432	-0.0006591028	-0.0003361195	
2.564013e-05	-6.118273e-06	-0.1209932	-0.02578411	-0.0006591028	-0.0003361195	-0.1815447	0.2190604	

4.988e+10	-0.3170298	0.000331993	5.692094e-05	5.634763e-05	-0.1238998	-0.03875661	5.475029e-06	-2.467181e-05	
5.692094e-05	5.634763e-05	-0.3214446	0.004039605	0.0003799101	4.019029e-05	-0.1153821	-0.03315068	
-0.1238998	-0.03875661	0.0003799101	4.019029e-05	-0.1754262	0.2481304	-0.0007252126	-0.0001493925	
5.475029e-06	-2.467181e-05	-0.1153821	-0.03315068	-0.0007252126	-0.0001493925	-0.1849786	0.2363365	

4.99e+10	-0.3211955	0.004709309	9.067834e-05	3.347818e-05	-0.1217882	-0.04480935	-2.148065e-05	-2.630975e-05	
9.067834e-05	3.347818e-05	-0.3245186	0.009234679	0.0003653169	-5.477168e-05	-0.1121254	-0.04138748	
-0.1217882	-0.04480935	0.0003653169	-5.477168e-05	-0.1720266	0.262684	-0.0007349401	4.456462e-05	
-2.148065e-05	-2.630975e-05	-0.1121254	-0.04138748	-0.0007349401	4.456462e-05	-0.1839855	0.2533272	

4.992e+10	-0.3241472	0.009280729	0.0001099812	-6.274647e-06	-0.1214078	-0.0509105	-4.440902e-05	-9.577234e-06	
0.0001099812	-6.274647e-06	-0.3262592	0.01424478	0.0003287633	-0.0001365414	-0.1112223	-0.04989198	
-0.1214078	-0.0509105	0.0003287633	-0.0001365414	-0.1652963	0.2754259	-0.0006910633	0.0002274774	
-4.440902e-05	-9.577234e-06	-0.1112223	-0.04989198	-0.0006910633	0.0002274774	-0.179077	0.2689211	

4.994e+10	-0.3259018	0.01394425	0.0001075608	-5.349664e-05	-0.1225764	-0.0566642	-5.263346e-05	2.080719e-05	
0.0001075608	-5.349664e-05	-0.3268073	0.01901528	0.0002771413	-0.0002007496	-0.1125446	-0.05806374	
-0.1225764	-0.0566642	0.0002771413	-0.0002007496	-0.1561518	0.2856903	-0.0006033515	0.0003836375	
-5.263346e-05	2.080719e-05	-0.1125446	-0.05806374	-0.0006033515	0.0003836375	-0.1710111	0.2823728	

4.996e+10	-0.3265768	0.01831565	8.227019e-05	-9.643502e-05	-0.1250401	-0.06182582	-3.973811e-05	5.439477e-05	
8.227019e-05	-9.643502e-05	-0.3264048	0.02322521	0.0002179899	-0.0002458561	-0.1157802	-0.06545192	
-0.1250401	-0.06182582	0.0002179899	-0.0002458561	-0.1454913	0.2932187	-0.0004864252	0.0005035321	
-3.973811e-05	5.439477e-05	-0.1157802	-0.06545192	-0.0004864252	0.0005035321	-0.1606843	0.2932528	

4.998e+10	-0.3263226	0.02224644	3.885857e-05	-0.0001245384	-0.1286105	-0.06618199	-6.031758e-06	7.824686e-05	
3.885857e-05	-0.0001245384	-0.3252426	0.02673981	0.0001586182	-0.0002738841	-0.1205951	-0.07166106	
-0.1286105	-0.06618199	0.0001586182	-0.0002738841	-0.1341517	0.2980836	-0.0003564076	0.0005857268	
-6.031758e-06	7.824686e-05	-0.1205951	-0.07166106	-0.0003564076	0.0005857268	-0.1489168	0.3014427	

5e+10	-0.3253883	0.02555147	-1.396183e-05	-0.0001313601	-0.1330116	-0.06968463	4.110335e-05	8.191716e-05	
-1.396183e-05	-0.0001313601	-0.3235975	0.02950663	0.0001038827	-0.0002899736	-0.1265437	-0.07657721	
-0.1330116	-0.06968463	0.0001038827	-0.0002899736	-0.1227861	0.3005781	-0.0002255818	0.0006363174	
4.110335e-05	8.191716e-05	-0.1265437	-0.07657721	-0.0002255818	0.0006363174	-0.1363834	0.307043	

