!
#	Hz	S	RI	R	50
0	0.056222	7.916307e-20	6.0234e-07	1.90282e-23	0.046999	1.143234e-20	1.6642e-07	7.88186e-23	
6.0234e-07	1.90282e-23	0.054679	2.633661e-19	1.4903e-07	4.275369e-23	0.047295	2.501949e-21	
0.046999	1.143234e-20	1.4903e-07	4.275369e-23	0.056387	4.051011e-20	-3.2229e-07	3.946914e-23	
1.6642e-07	7.88186e-23	0.047295	2.501949e-21	-3.2229e-07	3.946914e-23	0.055796	1.444473e-19	

2e+07	0.07127041	0.005725267	1.385749e-05	2.29673e-05	0.0593784	0.07312767	1.216456e-05	1.881866e-05	
1.385749e-05	2.29673e-05	0.07126746	0.005686974	1.02342e-05	1.562343e-05	0.05938093	0.07313078	
0.0593784	0.07312767	1.02342e-05	1.562343e-05	0.0712642	0.005740165	8.342208e-06	1.105201e-05	
1.216456e-05	1.881866e-05	0.05938093	0.07313078	8.342208e-06	1.105201e-05	0.0712715	0.005761537	

4e+07	0.0815858	-0.02933088	2.56479e-05	3.284672e-05	0.142645	0.04528255	2.15033e-05	2.595058e-05	
2.56479e-05	3.284672e-05	0.08169573	-0.02942999	1.741209e-05	2.103937e-05	0.1426538	0.04528807	
0.142645	0.04528255	1.741209e-05	2.103937e-05	0.08175942	-0.02932081	1.266748e-05	1.34072e-05	
2.15033e-05	2.595058e-05	0.1426538	0.04528807	1.266748e-05	1.34072e-05	0.08166405	-0.02926087	

6e+07	0.0499793	-0.06099975	3.498899e-05	4.630404e-05	0.1420361	-0.03969996	2.788654e-05	3.684454e-05	
3.498899e-05	4.630404e-05	0.05019089	-0.0614481	2.112971e-05	3.058013e-05	0.1420472	-0.03969769	
0.1420361	-0.03969996	2.112971e-05	3.058013e-05	0.05036944	-0.06136005	1.275836e-05	2.031021e-05	
2.788654e-05	3.684454e-05	0.1420472	-0.03969769	1.275836e-05	2.031021e-05	0.05020124	-0.06099218	

8e+07	0.004692362	-0.05105683	5.835119e-05	6.691987e-05	0.06338736	-0.06446292	4.592181e-05	5.509555e-05	
5.835119e-05	6.691987e-05	0.004599595	-0.05200901	3.49974e-05	4.817333e-05	0.06340758	-0.06446548	
0.06338736	-0.06446292	3.49974e-05	4.817333e-05	0.004849095	-0.05199538	2.055519e-05	3.589865e-05	
4.592181e-05	5.509555e-05	0.06340758	-0.06446548	2.055519e-05	3.589865e-05	0.00500865	-0.05119256	

1e+08	-0.00731973	-0.01063436	0.0001075266	7.114059e-05	0.01834454	0.001698414	8.730559e-05	6.044875e-05	
0.0001075266	7.114059e-05	-0.008184741	-0.01167601	7.123339e-05	5.547564e-05	0.01836993	0.001684532	
0.01834454	0.001698414	7.123339e-05	5.547564e-05	-0.007921829	-0.01170049	4.8493e-05	4.503725e-05	
8.730559e-05	6.044875e-05	0.01836993	0.001684532	4.8493e-05	4.503725e-05	-0.00699475	-0.01089963	

1.2e+08	0.02036683	0.0054329	0.0001477555	3.278908e-05	0.07725572	0.04945651	0.0001216062	2.773988e-05	
0.0001477555	3.278908e-05	0.01892841	0.005040351	0.0001020053	2.712434e-05	0.07728572	0.04942818	
0.07725572	0.04945651	0.0001020053	2.712434e-05	0.01928889	0.00512841	7.30476e-05	2.30865e-05	
0.0001216062	2.773988e-05	0.07728572	0.04942818	7.30476e-05	2.30865e-05	0.02075994	0.005132567	

1.4e+08	0.03262474	-0.007664681	0.0001589869	-7.203148e-06	0.1225732	0.0246639	0.0001297166	-5.65924e-06	
0.0001589869	-7.203148e-06	0.03135379	-0.007477044	0.0001080498	-1.483898e-06	0.1226031	0.02461649	
0.1225732	0.0246639	0.0001080498	-1.483898e-06	0.03193037	-0.007348231	7.57674e-05	2.007859e-06	
0.0001297166	-5.65924e-06	0.1226031	0.02461649	7.57674e-05	2.007859e-06	0.03314655	-0.008058198	

1.6e+08	0.0320456	-0.02936026	0.0001507488	-4.199908e-05	0.1375767	-0.03627999	0.0001209237	-3.320577e-05	
0.0001507488	-4.199908e-05	0.03134382	-0.02918566	9.843158e-05	-2.36804e-05	0.1375905	-0.03634528	
0.1375767	-0.03627999	9.843158e-05	-2.36804e-05	0.03221687	-0.02910813	6.555526e-05	-1.180116e-05	
0.0001209237	-3.320577e-05	0.1375905	-0.03634528	6.555526e-05	-1.180116e-05	0.03272693	-0.02991628	

1.8e+08	0.002769377	-0.02811293	0.0001543307	-5.257452e-05	0.06929194	-0.06105039	0.0001241322	-3.817618e-05	
0.0001543307	-5.257452e-05	0.001884495	-0.02849275	0.0001010548	-2.318361e-05	0.06929386	-0.06113591	
0.06929194	-0.06105039	0.0001010548	-2.318361e-05	0.002968176	-0.02866373	6.817257e-05	-4.137249e-06	
0.0001241322	-3.817618e-05	0.06929386	-0.06113591	6.817257e-05	-4.137249e-06	0.00348124	-0.0290008	

2e+08	-0.009267297	0.002264265	0.0001807546	-7.933818e-05	0.02389413	-0.003891834	0.0001494912	-5.72257e-05	
0.0001807546	-7.933818e-05	-0.01112045	0.001960835	0.0001266236	-3.491837e-05	0.02387031	-0.003993107	
0.02389413	-0.003891834	0.0001266236	-3.491837e-05	-0.009980743	0.00155402	9.392166e-05	-6.638808e-06	
0.0001494912	-5.72257e-05	0.02387032	-0.003993066	9.392166e-05	-6.638808e-06	-0.00873166	0.001093777	

2.2e+08	0.01238634	0.02615977	0.0001953055	-0.0001479711	0.06345186	0.05597972	0.00016661	-0.0001148507	
0.0001953055	-0.0001479711	0.00997912	0.02703506	0.000147377	-8.394988e-05	0.06339669	0.05587597	
0.06345186	0.05597972	0.000147377	-8.394988e-05	0.01115547	0.02652355	0.0001190308	-4.38184e-05	
0.00016661	-0.0001148507	0.06339669	0.05587597	0.0001190308	-4.38184e-05	0.01269908	0.02492657	

2.4e+08	0.03904786	0.01848453	0.0001543586	-0.000226468	0.129643	0.03711087	0.0001339755	-0.0001835445	
0.0001543586	-0.000226468	0.03731533	0.02056094	0.0001216881	-0.0001458267	0.1295592	0.03700372	
0.129643	0.03711087	0.0001216881	-0.0001458267	0.03869906	0.01999204	0.0001033556	-9.557102e-05	
0.0001339755	-0.0001835445	0.1295592	0.03700372	0.0001033556	-9.557102e-05	0.03933052	0.01727963	

2.6e+08	0.03492723	-0.004729609	7.621828e-05	-0.0002519226	0.1204479	-0.03357528	6.747196e-05	-0.0002039805	
7.621828e-05	-0.0002519226	0.03434841	-0.00255084	6.338369e-05	-0.0001618193	0.1203146	-0.03368075	
0.1204479	-0.03357528	6.338369e-05	-0.0001618193	0.03608824	-0.003431299	5.837408e-05	-0.0001062391	
6.747196e-05	-0.0002039805	0.1203146	-0.03368075	5.837408e-05	-0.0001062391	0.03528911	-0.006132536	

2.8e+08	0.02293439	-0.00759415	1.977516e-05	-0.0002516041	0.07407084	-0.05231902	2.273428e-05	-0.0002018538	
1.977516e-05	-0.0002516041	0.02285958	-0.006020131	2.778812e-05	-0.000156492	0.07389479	-0.05239986	
0.07407084	-0.05231902	2.778812e-05	-0.000156492	0.02478355	-0.0073624	3.664682e-05	-9.907987e-05	
2.273428e-05	-0.0002018538	0.07389479	-0.05239986	3.664682e-05	-9.907987e-05	0.02318489	-0.009231077	

3e+08	0.01289067	0.00825439	-8.167207e-06	-0.0002412418	0.03117389	-0.01010255	5.086242e-06	-0.0001933331	
-8.167207e-06	-0.0002412418	0.01223676	0.009414052	1.999932e-05	-0.0001467031	0.03096422	-0.01013921	
0.03117389	-0.01010255	1.999932e-05	-0.0001467031	0.01413025	0.007539781	4.185775e-05	-9.168726e-05	
5.086242e-06	-0.0001933331	0.03096422	-0.01013921	4.185775e-05	-9.168726e-05	0.01285818	0.006431598	

3.2e+08	0.03048658	0.02783027	-2.703191e-05	-0.0002645626	0.06176045	0.04811903	-5.037003e-06	-0.0002177718	
-2.703191e-05	-0.0002645626	0.02933405	0.02993822	2.057179e-05	-0.0001709466	0.06153006	0.04813138	
0.06176045	0.04811903	2.057179e-05	-0.0001709466	0.03104291	0.02772146	5.391001e-05	-0.0001189102	
-5.037003e-06	-0.0002177718	0.06153006	0.04813138	5.391001e-05	-0.0001189102	0.03010362	0.02610509	

3.4e+08	0.0581974	0.0210373	-9.131217e-05	-0.0003028225	0.1263353	0.0384607	-5.751584e-05	-0.0002579454	
-9.131217e-05	-0.0003028225	0.05796448	0.02439817	-1.932793e-05	-0.0002136174	0.1260975	0.0385206	
0.1263353	0.0384607	-1.932793e-05	-0.0002136174	0.05963029	0.02197631	2.762146e-05	-0.0001662713	
-5.751584e-05	-0.0002579454	0.1260975	0.0385206	2.762146e-05	-0.0001662713	0.05773373	0.01959684	

3.6e+08	0.06690501	-0.004527106	-0.000199565	-0.0002931005	0.1392137	-0.02413322	-0.0001522231	-0.0002555594	
-0.000199565	-0.0002931005	0.0684579	-0.001175755	-0.000101534	-0.000217939	0.1389677	-0.02403011	
0.1392137	-0.02413322	-0.000101534	-0.000217939	0.07025167	-0.003974418	-4.00673e-05	-0.0001807319	
-0.0001522231	-0.0002555594	0.1389677	-0.02403011	-4.00673e-05	-0.0001807319	0.06661393	-0.005869321	

3.8e+08	0.05153495	-0.02058747	-0.0002822635	-0.000208483	0.08310243	-0.05355997	-0.0002241015	-0.0001848008	
-0.0002822635	-0.000208483	0.05412429	-0.01860585	-0.0001626303	-0.0001574347	0.08283886	-0.05338191	
0.08310243	-0.05355997	-0.0001626303	-0.0001574347	0.0558752	-0.0221	-8.962364e-05	-0.000136855	
-0.0002241015	-0.0001848008	0.08283886	-0.05338191	-8.962364e-05	-0.000136855	0.05128815	-0.02207225	

4e+08	0.03894042	-0.008674962	-0.0002844854	-0.0001189445	0.04524365	-0.007407309	-0.000223652	-0.0001125831	
-0.0002844854	-0.0001189445	0.04094184	-0.007830812	-0.0001547901	-9.83086e-05	0.0450182	-0.00713429	
0.04524365	-0.007407309	-0.0001547901	-9.83086e-05	0.04217672	-0.01199048	-7.859635e-05	-9.845595e-05	
-0.000223652	-0.0001125831	0.0450182	-0.00713429	-7.859635e-05	-9.845595e-05	0.03849259	-0.01019965	

4.2e+08	0.04491345	0.001544632	-0.0002691476	-6.935577e-05	0.0610161	0.03851467	-0.000211041	-7.781528e-05	
-0.0002691476	-6.935577e-05	0.04613686	0.002580986	-0.0001376458	-7.73696e-05	0.06085899	0.03884616	
0.0610161	0.03851467	-0.0001376458	-7.73696e-05	0.04672853	-0.00194527	-6.452497e-05	-9.631351e-05	
-0.000211041	-7.781528e-05	0.06085899	0.03884616	-6.452497e-05	-9.631351e-05	0.04433169	0.0001661215	

4.4e+08	0.06478276	-0.003514179	-0.0002798227	-6.218894e-05	0.1185619	0.03618239	-0.0002256365	-8.021246e-05	
-0.0002798227	-6.218894e-05	0.06650731	-0.001444807	-0.0001491157	-9.335886e-05	0.1184699	0.03655025	
0.1185619	0.03618239	-0.0001491157	-9.335886e-05	0.06655713	-0.006010795	-8.172176e-05	-0.0001261294	
-0.0002256365	-8.021246e-05	0.1184699	0.03655025	-8.172176e-05	-0.0001261294	0.06427479	-0.004555183	

4.6e+08	0.07194431	-0.02830481	-0.0003404492	-2.422454e-05	0.1373285	-0.02049889	-0.000287354	-5.305044e-05	
-0.0003404492	-2.422454e-05	0.07544472	-0.02643515	-0.0002085479	-8.265418e-05	0.137287	-0.02009604	
0.1373285	-0.02049889	-0.0002085479	-8.265418e-05	0.07520965	-0.03109443	-0.0001454591	-0.0001297816	
-0.000287354	-5.305044e-05	0.137287	-0.02009604	-0.0001454591	-0.0001297816	0.07185211	-0.02918196	

4.8e+08	0.05499946	-0.04919074	-0.0003811806	9.235815e-05	0.09094088	-0.05823742	-0.0003329003	4.755658e-05	
-0.0003811806	9.235815e-05	0.05952815	-0.04927923	-0.0002568041	-1.748037e-06	0.09097444	-0.05779429	
0.09094088	-0.05823742	-0.0002568041	-1.748037e-06	0.05890738	-0.05430299	-0.0002022479	-6.720053e-05	
-0.0003329003	4.755658e-05	0.09097444	-0.05779429	-0.0002022479	-6.720053e-05	0.05527236	-0.0502975	

5e+08	0.03125274	-0.04580964	-0.0003202469	0.0002282613	0.04010207	-0.02690077	-0.0002863232	0.000167582	
-0.0003202469	0.0002282613	0.0347883	-0.04791364	-0.0002197831	9.914351e-05	0.04024888	-0.02641545	
0.04010207	-0.02690077	-0.0002197831	9.914351e-05	0.03334688	-0.05326682	-0.0001834237	1.611201e-05	
-0.0002863232	0.000167582	0.04024888	-0.02641545	-0.0001834237	1.611201e-05	0.03156981	-0.04721009	

5.2e+08	0.02989176	-0.02769558	-0.0001927535	0.000264719	0.0607728	0.03432621	-0.0001809412	0.0001976703	
-0.0001927535	0.000264719	0.03153871	-0.02996366	-0.000129352	0.0001146826	0.06107024	0.03477878	
0.0607728	0.03432621	-0.000129352	0.0001146826	0.02903851	-0.03510278	-0.0001193337	2.378025e-05	
-0.0001809412	0.0001976703	0.06107024	0.03477878	-0.0001193337	2.378025e-05	0.03012113	-0.02914764	

5.4e+08	0.04401921	-0.02922969	-0.0001399311	0.0002347366	0.1137244	0.02719158	-0.0001461112	0.0001719839	
-0.0001399311	0.0002347366	0.04541002	-0.03028587	-0.0001090336	7.924661e-05	0.1141076	0.02756549	
0.1137244	0.02719158	-0.0001090336	7.924661e-05	0.0422435	-0.03478325	-0.0001221922	-8.094575e-06	
-0.0001461112	0.0001719839	0.1141076	0.02756549	-0.0001221922	-8.094575e-06	0.04439554	-0.03056015	

5.6e+08	0.04903756	-0.0419472	-0.0001293911	0.0002283259	0.1335217	-0.01327499	-0.0001484428	0.0001720941	
-0.0001293911	0.0002283259	0.05160136	-0.04284332	-0.0001264818	6.97929e-05	0.1339745	-0.01296093	
0.1335217	-0.01327499	-0.0001264818	6.97929e-05	0.04805919	-0.04671757	-0.0001582904	-1.03749e-05	
-0.0001484428	0.0001720941	0.1339745	-0.01296093	-0.0001582904	-1.03749e-05	0.04974892	-0.04329641	

5.8e+08	0.0336386	-0.05843321	-0.000126432	0.0002921672	0.09542442	-0.05182633	-0.0001556609	0.0002387833	
-0.000126432	0.0002921672	0.03696815	-0.06114761	-0.0001525965	0.0001257908	0.09596945	-0.05157488	
0.09542442	-0.05182633	-0.0001525965	0.0001257908	0.03318322	-0.06464802	-0.000200201	5.114224e-05	
-0.0001556609	0.0002387833	0.09596945	-0.05157488	-0.000200201	5.114224e-05	0.03474474	-0.06021605	

6e+08	0.00836287	-0.05340417	-2.940874e-05	0.000376784	0.04425991	-0.02859578	-7.478485e-05	0.0003273153	
-2.940874e-05	0.000376784	0.01013438	-0.05820532	-9.778564e-05	0.0002089398	0.0448957	-0.02846311	
0.04425991	-0.02859578	-9.778564e-05	0.0002089398	0.005849396	-0.06133169	-0.0001659352	0.0001421232	
-7.478485e-05	0.0003273153	0.0448957	-0.02846311	-0.0001659352	0.0001421232	0.009420604	-0.0558105	

6.2e+08	0.0008864867	-0.02986885	0.0001335847	0.0003571555	0.04939457	0.02866183	6.973181e-05	0.0003218424	
0.0001335847	0.0003571555	-7.293685e-05	-0.03453692	1.968261e-05	0.0002079104	0.05008894	0.02864443	
0.04939457	0.02866183	1.968261e-05	0.0002079104	-0.004970774	-0.0368664	-7.01548e-05	0.0001595144	
6.973181e-05	0.0003218424	0.05008894	0.02864443	-7.01548e-05	0.0001595144	0.001573008	-0.03258205	

6.4e+08	0.01647194	-0.01683645	0.0002189441	0.0002297132	0.1059236	0.04211786	0.0001448468	0.0002186075	
0.0002189441	0.0002297132	0.01437432	-0.01948332	7.223435e-05	0.0001158915	0.106615	0.0419194	
0.1059236	0.04211786	7.223435e-05	0.0001158915	0.009269865	-0.02056204	-3.0648e-05	9.609079e-05	
0.0001448468	0.0002186075	0.106615	0.0419194	-3.0648e-05	9.609079e-05	0.01691111	-0.01949796	

6.6e+08	0.02965707	-0.02993582	0.0001778534	0.0001285553	0.1379698	-0.01127773	0.0001076495	0.000142173	
0.0001778534	0.0001285553	0.0286276	-0.03129414	1.827663e-05	5.200066e-05	0.1385846	-0.01160926	
0.1379698	-0.01127773	1.827663e-05	5.200066e-05	0.02401726	-0.03119943	-8.352192e-05	6.211937e-05	
0.0001076495	0.000142173	0.1385846	-0.01160926	-8.352192e-05	6.211937e-05	0.03025874	-0.03252811	

6.8e+08	0.01903927	-0.04068885	0.0001507209	0.0001322857	0.1018712	-0.04576776	8.904545e-05	0.0001620803	
0.0001507209	0.0001322857	0.01888602	-0.04312373	-1.92662e-05	8.318608e-05	0.1024396	-0.04621023	
0.1018712	-0.04576776	-1.92662e-05	8.318608e-05	0.014875	-0.04232945	-0.0001140578	0.0001163907	
8.904545e-05	0.0001620803	0.1024396	-0.04621023	-0.0001140578	0.0001163907	0.01976644	-0.04365993	

7e+08	0.003891225	-0.03743732	0.0001884635	0.0001481943	0.05954154	-0.03039948	0.0001352949	0.0001910202	
0.0001884635	0.0001481943	0.002491635	-0.04145018	5.869838e-06	0.0001303179	0.06004348	-0.03099606	
0.05954154	-0.03039948	5.869838e-06	0.0001303179	-0.0009637604	-0.04006441	-7.948023e-05	0.0001839321	
0.0001352949	0.0001910202	0.06004348	-0.03099606	-7.948023e-05	0.0001839321	0.004389884	-0.0408679	

7.2e+08	-0.0007022868	-0.01564024	0.0002866051	9.407578e-05	0.05947359	0.02151623	0.0002403004	0.0001515538	
0.0002866051	9.407578e-05	-0.004852509	-0.01900943	9.41971e-05	0.0001187833	0.05982421	0.02079086	
0.05947359	0.02151623	9.41971e-05	0.0001187833	-0.007852641	-0.01697133	1.866965e-05	0.0001932201	
0.0002403004	0.0001515538	0.05982421	0.02079086	1.866965e-05	0.0001932201	-0.0008460455	-0.01920838	

7.4e+08	0.01806069	-0.0009565407	0.000311813	-5.79375e-05	0.1112094	0.0401936	0.0002795186	1.788216e-05	
0.000311813	-5.79375e-05	0.01288375	-0.001440204	0.0001274056	1.618883e-05	0.1113949	0.03940762	
0.1112094	0.0401936	0.0001274056	1.618883e-05	0.0106025	0.001477839	6.937392e-05	0.0001137197	
0.0002795186	1.788216e-05	0.1113949	0.03940762	6.937392e-05	0.0001137197	0.01747071	-0.004111554	

7.6e+08	0.03877762	-0.01015793	0.0002106161	-0.0001795465	0.1489236	-0.001378789	0.0002029989	-8.986349e-05	
0.0002106161	-0.0001795465	0.03520432	-0.008466108	5.211897e-05	-6.300102e-05	0.1489338	-0.002194378	
0.1489236	-0.001378789	5.211897e-05	-6.300102e-05	0.03420653	-0.004787995	2.220252e-05	5.278677e-05	
0.0002029989	-8.986349e-05	0.1489338	-0.002194378	2.220252e-05	5.278677e-05	0.03825953	-0.01283488	

7.8e+08	0.03949817	-0.02999595	7.686559e-05	-0.0001792113	0.1242097	-0.05214153	9.998101e-05	-8.751134e-05	
7.686559e-05	-0.0001792113	0.03793098	-0.02862666	-4.653387e-05	-3.530833e-05	0.1240452	-0.05294049	
0.1242097	-0.05214153	-4.653387e-05	-3.530833e-05	0.03853891	-0.02479096	-4.153685e-05	8.731903e-05	
9.998101e-05	-8.751134e-05	0.1240452	-0.05294049	-4.153685e-05	8.731903e-05	0.03930468	-0.03256422	

8e+08	0.02133782	-0.03491858	3.670059e-05	-9.940115e-05	0.0709713	-0.04361916	8.670792e-05	-2.015683e-05	
3.670059e-05	-9.940115e-05	0.01950596	-0.03516651	-5.580154e-05	5.780438e-05	0.07065571	-0.04439789	
0.0709713	-0.04361916	-5.580154e-05	5.780438e-05	0.02149293	-0.03180108	-1.734154e-05	0.0001723397	
8.670792e-05	-2.015683e-05	0.07065571	-0.04439789	-1.734154e-05	0.0001723397	0.02118305	-0.03775547	

8.2e+08	0.01843235	-0.02175931	7.104494e-05	-9.698178e-05	0.06833179	-0.0001703892	0.0001383025	-3.223744e-05	
7.104494e-05	-9.698178e-05	0.01467813	-0.02148108	6.666598e-06	7.739742e-05	0.06782237	-0.0008742401	
0.06833179	-0.0001703892	6.666598e-06	7.739742e-05	0.0176797	-0.01859603	7.021268e-05	0.0001790237	
0.0001383025	-3.223744e-05	0.06782237	-0.0008742401	7.021268e-05	0.0001790237	0.01795919	-0.02445742	

8.4e+08	0.0322621	-0.01367584	6.268379e-05	-0.0001704705	0.1107785	0.01709656	0.0001444343	-0.0001187917	
6.268379e-05	-0.0001704705	0.02797607	-0.01069309	3.497851e-05	1.946959e-05	0.1101241	0.01654482	
0.1107785	0.01709656	3.497851e-05	1.946959e-05	0.03193254	-0.008213737	0.0001200462	0.0001071491	
0.0001444343	-0.0001187917	0.1101241	0.01654482	0.0001200462	0.0001071491	0.03172757	-0.01579321	

8.6e+08	0.05090786	-0.02555502	-4.844767e-05	-0.0002299007	0.1475601	-0.01978047	5.117279e-05	-0.0001926598	
-4.844767e-05	-0.0002299007	0.04898235	-0.02037233	-3.041454e-05	-3.401682e-05	0.1468292	-0.02018386	
0.1475601	-0.01978047	-3.041454e-05	-3.401682e-05	0.05415812	-0.01830202	7.813116e-05	3.759359e-05	
5.117279e-05	-0.0001926598	0.1468292	-0.02018386	7.813116e-05	3.759359e-05	0.05092255	-0.0270646	

8.8e+08	0.05144715	-0.05050052	-0.0001930258	-0.0001726456	0.1292725	-0.07150363	-7.447621e-05	-0.0001600063	
-0.0001930258	-0.0001726456	0.05253658	-0.04591947	-0.0001267148	1.260315e-05	0.1284692	-0.07177549	
0.1292725	-0.07150363	-0.0001267148	1.260315e-05	0.05917786	-0.04478834	6.012548e-06	5.811279e-05	
-7.447621e-05	-0.0001600063	0.1284692	-0.07177549	6.012548e-06	5.811279e-05	0.05233986	-0.05191226	

9e+08	0.03202576	-0.06532941	-0.0002485656	-2.026112e-05	0.0760215	-0.07773638	-0.0001198451	-4.435582e-05	
-0.0002485656	-2.026112e-05	0.03398858	-0.0630867	-0.0001423835	0.0001371144	0.07515373	-0.07782668	
0.0760215	-0.07773638	-0.0001423835	0.0001371144	0.04176957	-0.06360503	6.518359e-06	0.0001438224	
-0.0001198451	-4.435582e-05	0.07515373	-0.07782668	6.518359e-06	0.0001438224	0.03362406	-0.06713106	

9.2e+08	0.01370876	-0.05712307	-0.0001662197	0.0001001514	0.05163486	-0.0311592	-4.611272e-05	3.566568e-05	
-0.0001662197	0.0001001514	0.01417545	-0.05592234	-3.864018e-05	0.0002240525	0.05076353	-0.03103729	
0.05163486	-0.0311592	-3.864018e-05	0.0002240525	0.02228465	-0.05833329	0.0001080805	0.0001861714	
-4.611272e-05	3.566568e-05	0.05076353	-0.03103729	0.0001080805	0.0001861714	0.01555227	-0.0593915	

9.4e+08	0.01870535	-0.04452655	-8.529999e-05	7.618667e-05	0.09090378	-0.005630783	1.240745e-05	-1.523093e-05	
-8.529999e-05	7.618667e-05	0.01835549	-0.041443	5.594603e-05	0.0001766316	0.0900929	-0.005305798	
0.09090378	-0.005630783	5.594603e-05	0.0001766316	0.02625076	-0.04523943	0.0001844348	0.000105123	
1.240745e-05	-1.523093e-05	0.0900929	-0.005305798	0.0001844348	0.000105123	0.02072254	-0.0467807	

9.6e+08	0.02726077	-0.05238084	-0.0001144863	5.397082e-05	0.1193636	-0.03446607	-3.522969e-05	-5.592214e-05	
-0.0001144863	5.397082e-05	0.02917152	-0.04782065	4.627483e-05	0.0001281192	0.11867	-0.03398325	
0.1193636	-0.03446607	4.627483e-05	0.0001281192	0.03710418	-0.0527665	0.000157945	3.187885e-05	
-3.522969e-05	-5.592214e-05	0.11867	-0.03398325	0.000157945	3.187885e-05	0.03004471	-0.0546873	

9.8e+08	0.02215108	-0.0718782	-0.0001830588	0.0001196079	0.1020304	-0.08072054	-0.0001202193	-1.098313e-05	
-0.0001830588	0.0001196079	0.02713297	-0.06860002	-4.170839e-06	0.0001572847	0.1014517	-0.08013035	
0.1020304	-0.08072054	-4.170839e-06	0.0001572847	0.0352819	-0.07496427	9.168273e-05	3.522859e-05	
-0.0001202193	-1.098313e-05	0.1014517	-0.08013035	9.168273e-05	3.522859e-05	0.02595351	-0.0748099	

1e+09	-0.002667012	-0.08315524	-0.0001699559	0.0002733645	0.04816041	-0.0885051	-0.0001322423	0.0001168336	
-0.0001699559	0.0002733645	0.00313753	-0.08330193	1.442599e-05	0.0002628845	0.04769333	-0.08779268	
0.04816041	-0.0885051	1.442599e-05	0.0002628845	0.01115405	-0.09163565	8.585834e-05	0.0001102145	
-0.0001322423	0.0001168336	0.04769333	-0.08779268	8.585834e-05	0.0001102145	0.001827733	-0.08732788	

1.02e+09	-0.02940432	-0.07067411	-1.458028e-05	0.0003914686	0.01578199	-0.04564781	-1.880529e-05	0.0002142563	
-1.458028e-05	0.0003914686	-0.02567836	-0.07312125	0.0001520724	0.000333461	0.01551125	-0.04480395	
0.01578199	-0.04564781	0.0001520724	0.000333461	-0.01873138	-0.08352542	0.0001822371	0.0001547234	
-1.880529e-05	0.0002142563	0.01551125	-0.04480395	0.0001822371	0.0001547234	-0.02487325	-0.07628011	

1.04e+09	-0.03517848	-0.04626204	0.0001795821	0.0003503007	0.03906421	-0.003591903	0.0001228538	0.0001727252	
0.0001795821	0.0003503007	-0.03357418	-0.04798454	0.0003140639	0.0002646631	0.03904417	-0.002722839	
0.03906421	-0.003591903	0.0003140639	0.0002646631	-0.02844241	-0.05968436	0.0002909456	7.903726e-05	
0.0001228538	0.0001727252	0.03904417	-0.002722839	0.0002909456	7.903726e-05	-0.03113363	-0.05291775	

1.06e+09	-0.02254326	-0.03687388	0.0002444703	0.0002062791	0.08278234	-0.01412051	0.0001444024	5.083795e-05	
0.0002444703	0.0002062791	-0.02027424	-0.03698566	0.0003557189	0.0001112847	0.08297596	-0.01331822	
0.08278234	-0.01412051	0.0003557189	0.0001112847	-0.01669837	-0.0490231	0.0002858522	-5.811571e-05	
0.0001444024	5.083795e-05	0.08297596	-0.01331822	0.0002858522	-5.811571e-05	-0.01876258	-0.04407348	

1.08e+09	-0.02403636	-0.04693075	0.0001976717	0.0001757295	0.07027752	-0.05823786	7.105685e-05	4.281689e-05	
0.0001976717	0.0001757295	-0.01932757	-0.04820035	0.0002965938	6.309165e-05	0.07064041	-0.05752673	
0.07027752	-0.05823786	0.0002965938	6.309165e-05	-0.01665397	-0.06075165	0.0001959127	-8.694748e-05	
7.105685e-05	4.281689e-05	0.07064041	-0.05752673	0.0001959127	-8.694748e-05	-0.02008268	-0.05520669	

1.1e+09	-0.04185538	-0.04566113	0.000238112	0.0002241972	0.02382034	-0.0588273	8.28479e-05	0.0001109387	
0.000238112	0.0002241972	-0.03720311	-0.05044264	0.0003120388	8.825692e-05	0.02432975	-0.05823065	
0.02382034	-0.0588273	0.0003120388	8.825692e-05	-0.0358054	-0.06385669	0.0001794847	-4.412886e-05	
8.28479e-05	0.0001109387	0.02432975	-0.05823065	0.0001794847	-4.412886e-05	-0.03838707	-0.05550003	

1.12e+09	-0.06127635	-0.02444679	0.0003874806	0.0002388274	-0.006036937	-0.01313732	0.0001982777	0.0001520394	
0.0003874806	0.0002388274	-0.05987109	-0.03156645	0.0004206409	8.613861e-05	-0.005383752	-0.01267717	
-0.006036937	-0.01313732	0.0004206409	8.613861e-05	-0.06040181	-0.04574785	0.000251756	-2.18217e-05	
0.0001982777	0.0001520394	-0.005383752	-0.01267717	0.000251756	-2.18217e-05	-0.059106	-0.03582407	

1.14e+09	-0.05938191	0.008959468	0.0005577156	0.0001007911	0.01757603	0.03634642	0.0003370716	5.802792e-05	
0.0005577156	0.0001007911	-0.06155747	0.002989124	0.0005437064	-4.481258e-05	0.01835444	0.03659394	
0.01757603	0.03634642	0.0005437064	-4.481258e-05	-0.06453804	-0.01105488	0.0003406277	-0.0001114922	
0.0003370716	5.802792e-05	0.01835444	0.03659394	0.0003406277	-0.0001114922	-0.0591462	-0.003223951	

1.16e+09	-0.03657944	0.02880587	0.000585882	-0.0001406578	0.06529054	0.03843604	0.0003511013	-0.0001243453	
0.000585882	-0.0001406578	-0.03939206	0.02556196	0.0005415647	-0.0002587425	0.06608615	0.03841675	
0.06529054	0.03843604	0.0005415647	-0.0002587425	-0.04434023	0.01276462	0.0003201009	-0.0002687489	
0.0003511013	-0.0001243453	0.06608615	0.03841675	0.0003201009	-0.0002687489	-0.03811022	0.01671335	

1.18e+09	-0.01730211	0.02632993	0.0004577977	-0.000306145	0.07886931	0.001358121	0.0002333067	-0.0002311585	
0.0004577977	-0.000306145	-0.01847609	0.02368238	0.0004054826	-0.0004003909	0.07958619	0.001115209	
0.07886931	0.001358121	0.0004054826	-0.0004003909	-0.02432635	0.01225084	0.0001894043	-0.0003519973	
0.0002333067	-0.0002311585	0.07958619	0.001115209	0.0001894043	-0.0003519973	-0.01995781	0.01444704	

1.2e+09	-0.01848522	0.01976757	0.0003344427	-0.0003181406	0.04321298	-0.01519905	0.0001346493	-0.0001995507	
0.0003344427	-0.0003181406	-0.01950071	0.01490403	0.0002776872	-0.0004048846	0.04381728	-0.01562849	
0.04321298	-0.01519905	0.0002776872	-0.0004048846	-0.0259313	0.004186022	8.314539e-05	-0.0003114113	
0.0001346493	-0.0001995507	0.04381728	-0.01562849	8.314539e-05	-0.0003114113	-0.02231612	0.007588335	

1.22e+09	-0.02356025	0.0375874	0.0003562369	-0.0003249357	0.01947332	0.02760826	0.0001767726	-0.0001703143	
0.0003562369	-0.0003249357	-0.02803229	0.03140752	0.0002776223	-0.0004029027	0.01991824	0.02702237	
0.01947332	0.02760826	0.0002776223	-0.0004029027	-0.03572355	0.02136317	0.0001021703	-0.0002727733	
0.0001767726	-0.0001703143	0.01991824	0.02702237	0.0001021703	-0.0002727733	-0.02952793	0.025407	

1.24e+09	-0.007048254	0.0604817	0.000378335	-0.0004573447	0.05081855	0.07088585	0.0002254376	-0.0002620677	
0.000378335	-0.0004573447	-0.01506168	0.05672547	0.0002804818	-0.0005078196	0.05106804	0.07019376	
0.05081855	0.07088585	0.0002804818	-0.0005078196	-0.02405147	0.04813455	0.00013038	-0.0003378878	
0.0002254376	-0.0002620677	0.05106804	0.07019376	0.00013038	-0.0003378878	-0.01525539	0.04940429	

1.26e+09	0.02634307	0.07049901	0.0002865315	-0.0006534495	0.1055101	0.07056089	0.0001727296	-0.0004177484	
0.0002865315	-0.0006534495	0.01797325	0.07100352	0.0001864665	-0.0006651578	0.1055443	0.06980527	
0.1055101	0.07056089	0.0001864665	-0.0006651578	0.008246769	0.06459974	7.296065e-05	-0.0004562734	
0.0001727296	-0.0004177484	0.1055443	0.06980527	7.296065e-05	-0.0004562734	0.01648208	0.06145619	

1.28e+09	0.05733574	0.05731173	5.219631e-05	-0.0007715965	0.1307207	0.0301384	-5.732166e-06	-0.0005044774	
5.219631e-05	-0.0007715965	0.05146015	0.06006293	-2.70158e-05	-0.0007532757	0.1305152	0.02937458	
0.1307207	0.0301384	-2.70158e-05	-0.0007532757	0.04214149	0.05586479	-8.817592e-05	-0.000513261	
-5.732166e-06	-0.0005044774	0.1305152	0.02937458	-8.817592e-05	-0.000513261	0.04686155	0.05047671	

1.3e+09	0.06865702	0.03536069	-0.0001950355	-0.0007188414	0.1096788	0.0005152641	-0.0001856428	-0.000441411	
-0.0001950355	-0.0007188414	0.0645124	0.03724925	-0.0002481766	-0.0006935117	0.1092199	-0.0001722333	
0.1096788	0.0005152641	-0.0002481766	-0.0006935117	0.05620031	0.0343816	-0.0002445885	-0.000442159	
-0.0001856428	-0.000441411	0.1092199	-0.0001722333	-0.0002445885	-0.000442159	0.0580311	0.03021294	

1.32e+09	0.06657953	0.02681611	-0.000310211	-0.0005742022	0.08153645	0.01697148	-0.0002394216	-0.0003110076	
-0.000310211	-0.0005742022	0.06105835	0.02772943	-0.0003522365	-0.0005550358	0.08084984	0.01644321	
0.08153645	0.01697148	-0.0003522365	-0.0005550358	0.05334569	0.02556928	-0.0002883647	-0.0003174648	
-0.0002394216	-0.0003110076	0.08084984	0.01644321	-0.0002883647	-0.0003174648	0.05550698	0.02322249	

1.34e+09	0.07495698	0.03286169	-0.0003140144	-0.0005168693	0.1025177	0.05504327	-0.0001984386	-0.0002765637	
-0.0003140144	-0.0005168693	0.06701798	0.03614131	-0.0003587346	-0.0004946631	0.1016697	0.05474119	
0.1025177	0.05504327	-0.0003587346	-0.0004946631	0.05946388	0.03496123	-0.000251191	-0.0002819306	
-0.0001984386	-0.0002765637	0.1016697	0.05474119	-0.000251191	-0.0002819306	0.06339644	0.03149786	

1.36e+09	0.1021404	0.02609034	-0.0004014679	-0.0005599382	0.1536382	0.04628956	-0.0002433044	-0.0003380955	
-0.0004014679	-0.0005599382	0.09529044	0.03380776	-0.000436317	-0.0005201667	0.152728	0.04622477	
0.1536382	0.04628956	-0.000436317	-0.0005201667	0.08837082	0.03424485	-0.0002900273	-0.0003283932	
-0.0002433044	-0.0003380955	0.152728	0.04622477	-0.0002900273	-0.0003283932	0.0910797	0.02761484	

1.38e+09	0.1234677	-0.0007467315	-0.0006008422	-0.0005411906	0.1759424	-0.001640424	-0.0003948524	-0.0003455455	
-0.0006008422	-0.0005411906	0.120584	0.009141892	-0.0006087724	-0.0004942068	0.1749936	-0.001491654	
0.1759424	-0.001640424	-0.0006087724	-0.0004942068	0.1151759	0.0109997	-0.0004205012	-0.0003295965	
-0.0003948524	-0.0003455455	0.1749936	-0.001491654	-0.0004205012	-0.0003295965	0.1140215	0.00332771	

1.4e+09	0.1262753	-0.03651913	-0.0008126646	-0.0003742996	0.153926	-0.0425544	-0.0005571631	-0.0002210466	
-0.0008126646	-0.0003742996	0.1270172	-0.02787541	-0.0007920362	-0.0003425805	0.1529338	-0.04216519	
0.153926	-0.0425544	-0.0007920362	-0.0003425805	0.1236701	-0.02544206	-0.0005602586	-0.0002189991	
-0.0005571631	-0.0002210466	0.1529338	-0.04216519	-0.0005602586	-0.0002189991	0.1190633	-0.03070984	

1.42e+09	0.1105264	-0.06147019	-0.0008859811	-9.233874e-05	0.119276	-0.04183531	-0.000594174	-4.355601e-06	
-0.0008859811	-9.233874e-05	0.1118253	-0.05509277	-0.0008574137	-9.147974e-05	0.1182988	-0.041115	
0.119276	-0.04183531	-0.0008574137	-9.147974e-05	0.1101518	-0.053048	-0.0005940003	-3.102628e-05	
-0.000594174	-4.355601e-06	0.1182988	-0.041115	-0.0005940003	-3.102628e-05	0.1054601	-0.05463032	

1.44e+09	0.09692485	-0.06742476	-0.0007862334	0.0001249492	0.1180781	-0.01510248	-0.0004890803	0.0001402415	
-0.0007862334	0.0001249492	0.09702309	-0.0607634	-0.0007730561	0.0001045213	0.1172918	-0.01404766	
0.1180781	-0.01510248	-0.0007730561	0.0001045213	0.0961832	-0.05915842	-0.0005088706	9.367067e-05	
-0.0004890803	0.0001402415	0.1172918	-0.01404766	-0.0005088706	9.367067e-05	0.0938192	-0.05963829	

1.46e+09	0.09992616	-0.07185714	-0.0006767325	0.0001828499	0.152403	-0.0112819	-0.0003949747	0.0001433688	
-0.0006767325	0.0001828499	0.1010702	-0.06258807	-0.0006803964	0.0001633487	0.1519107	-0.01000788	
0.152403	-0.0112819	-0.0006803964	0.0001633487	0.1009386	-0.0608084	-0.0004380111	9.927253e-05	
-0.0003949747	0.0001433688	0.1519107	-0.01000788	-0.0004380111	9.927253e-05	0.09913445	-0.06298304	

1.48e+09	0.1060798	-0.09450372	-0.0007142782	0.0002076522	0.1732276	-0.057464	-0.0004424784	0.0001268786	
-0.0007142782	0.0002076522	0.1115316	-0.08405727	-0.0007144403	0.0001941091	0.1730022	-0.05606499	
0.1732276	-0.057464	-0.0007144403	0.0001941091	0.1128208	-0.08194502	-0.0004906417	9.27964e-05	
-0.0004424784	0.0001268786	0.1730022	-0.05606499	-0.0004906417	9.27964e-05	0.1084325	-0.08493943	

1.5e+09	0.09205551	-0.1257825	-0.0007862996	0.0003853744	0.1426728	-0.09849688	-0.000521436	0.0002529708	
-0.0007862996	0.0003853744	0.1016144	-0.118221	-0.0007793488	0.0003554983	0.1426996	-0.09697126	
0.1426728	-0.09849688	-0.0007793488	0.0003554983	0.1048148	-0.1165926	-0.0005700489	0.0002108675	
-0.000521436	0.0002529708	0.1426996	-0.09697126	-0.0005700489	0.0002108675	0.09794059	-0.1166838	

1.52e+09	0.0599284	-0.1455558	-0.000728565	0.0006694807	0.09680657	-0.09998389	-0.0004858638	0.0004734728	
-0.000728565	0.0006694807	0.07026325	-0.1422982	-0.0007359208	0.0006122762	0.09715272	-0.09830235	
0.09680657	-0.09998389	-0.0007359208	0.0006122762	0.07499824	-0.1421145	-0.000553136	0.0004145519	
-0.0004858638	0.0004734728	0.09715272	-0.09830235	-0.000553136	0.0004145519	0.06899358	-0.1379935	

1.54e+09	0.02675695	-0.1424794	-0.0004728282	0.0008873915	0.07844279	-0.07102536	-0.0002825762	0.0006305257	
-0.0004728282	0.0008873915	0.03519604	-0.141416	-0.0005188536	0.0008188455	0.0792844	-0.0692666	
0.07844279	-0.07102536	-0.0005188536	0.0008188455	0.04037965	-0.1429462	-0.0003901049	0.0005703743	
-0.0002825762	0.0006305257	0.0792844	-0.0692666	-0.0003901049	0.0005703743	0.0382395	-0.1370139	

1.56e+09	0.01240262	-0.1293266	-0.0001792093	0.0008847936	0.0973753	-0.05588026	-6.273294e-05	0.0005979683	
-0.0001792093	0.0008847936	0.02012936	-0.1274806	-0.0002626841	0.0008361798	0.09876047	-0.05427159	
0.0973753	-0.05588026	-0.0002626841	0.0008361798	0.02513675	-0.1299105	-0.0002092208	0.0005671179	
-6.273294e-05	0.0005979683	0.09876047	-0.05427159	-0.0002092208	0.0005671179	0.02580957	-0.1259018	

1.58e+09	0.009811233	-0.1292481	-4.94265e-05	0.0007771699	0.114775	-0.08004435	5.391906e-06	0.0004911304	
-4.94265e-05	0.0007771699	0.01999022	-0.127219	-0.0001451906	0.0007618382	0.1165658	-0.07876087	
0.114775	-0.08004435	-0.0001451906	0.0007618382	0.02540216	-0.12992	-0.0001551271	0.0005048754	
5.391906e-06	0.0004911304	0.1165658	-0.07876087	-0.0001551271	0.0005048754	0.02525671	-0.1279307	

1.6e+09	-0.002881132	-0.1424109	-3.755939e-05	0.0007682324	0.09334055	-0.1160632	-2.463565e-05	0.000484474	
-3.755939e-05	0.0007682324	0.01009176	-0.1437061	-0.0001270128	0.0007731669	0.09544666	-0.115105	
0.09334055	-0.1160632	-0.0001270128	0.0007731669	0.01658225	-0.1471386	-0.0001780842	0.000533165	
-2.463565e-05	0.000484474	0.09544666	-0.115105	-0.0001780842	0.000533165	0.0147429	-0.1439168	

1.62e+09	-0.03721042	-0.1468386	6.370893e-05	0.0009186836	0.04054599	-0.1149381	2.976692e-05	0.0006240304	
6.370893e-05	0.0009186836	-0.02471079	-0.1536051	-3.180377e-05	0.0009236826	0.04298392	-0.1143266	
0.04054599	-0.1149381	-3.180377e-05	0.0009236826	-0.01739307	-0.1588406	-0.0001230507	0.0006887138	
2.976692e-05	0.0006240304	0.04298392	-0.1143266	-0.0001230507	0.0006887138	-0.01806803	-0.1523826	

1.64e+09	-0.0689911	-0.1248226	0.0003776274	0.0009812439	0.0173414	-0.07417997	0.0002748948	0.0006872511	
0.0003776274	0.0009812439	-0.06060496	-0.1347264	0.0002549698	0.001005785	0.02012174	-0.07407054	
0.0173414	-0.07417997	0.0002549698	0.001005785	-0.05368226	-0.141991	0.0001061252	0.0007838888	
0.0002748948	0.0006872511	0.02012174	-0.07407054	0.0001061252	0.0007838888	-0.0498747	-0.1347566	

1.66e+09	-0.07929756	-0.09099663	0.000711952	0.0008025112	0.03398434	-0.04215789	0.0005336167	0.0005407799	
0.000711952	0.0008025112	-0.0744331	-0.1002608	0.0005733585	0.0008752164	0.03700189	-0.04275081	
0.03398434	-0.04215789	0.0005733585	0.0008752164	-0.06879649	-0.1086153	0.000360964	0.0006942928	
0.0005336167	0.0005407799	0.03700189	-0.04275081	0.000360964	0.0006942928	-0.06144571	-0.1046898	

1.68e+09	-0.07013905	-0.07031064	0.0008287068	0.0004813512	0.05796908	-0.04879375	0.0005986189	0.0002834134	
0.0008287068	0.0004813512	-0.06542619	-0.07830437	0.0007080098	0.0006099741	0.06092951	-0.05020498	
0.05796908	-0.04879375	0.0007080098	0.0006099741	-0.06051342	-0.08661502	0.0004556551	0.0005010043	
0.0005986189	0.0002834134	0.06092951	-0.05020498	0.0004556551	0.0005010043	-0.05373881	-0.08694265	

1.7e+09	-0.06620227	-0.06829159	0.0007539983	0.0002795709	0.04860003	-0.07377585	0.0005081963	0.0001447539	
0.0007539983	0.0002795709	-0.06039538	-0.07808614	0.000676548	0.0004433617	0.05126582	-0.07587894	
0.04860003	-0.07377585	0.000676548	0.0004433617	-0.05514068	-0.08665362	0.000422829	0.0004062867	
0.0005081963	0.0001447539	0.05126582	-0.07587894	0.000422829	0.0004062867	-0.05112167	-0.0878711	

1.72e+09	-0.07971186	-0.06454939	0.0007146083	0.0002489788	0.01105772	-0.07325412	0.0004642729	0.0001566241	
0.0007146083	0.0002489788	-0.07575208	-0.07838879	0.0006788876	0.0004210758	0.01338213	-0.07597139	
0.01105772	-0.07325412	0.0006788876	0.0004210758	-0.07020064	-0.08819109	0.0004398513	0.0004331168	
0.0004642729	0.0001566241	0.01338213	-0.07597139	0.0004398513	0.0004331168	-0.0665027	-0.08764583	

1.74e+09	-0.09684539	-0.04146798	0.0008401574	0.0002195494	-0.01243632	-0.03282512	0.0005748909	0.000164489	
0.0008401574	0.0002195494	-0.09841632	-0.05725668	0.0008288254	0.0003944242	-0.01059026	-0.03619241	
-0.01243632	-0.03282512	0.0008288254	0.0003944242	-0.0935081	-0.06876394	0.0005976251	0.0004442888	
0.0005748909	0.000164489	-0.01059026	-0.03619241	0.0005976251	0.0004442888	-0.08698042	-0.06805439	

1.76e+09	-0.09026643	-0.002899818	0.001019396	-3.51011e-05	0.01173109	0.009246383	0.0007352818	-3.182023e-05	
0.001019396	-3.51011e-05	-0.0971772	-0.01596563	0.001031795	0.000163699	0.01287993	0.005318984	
0.01173109	0.009246383	0.001031795	0.000163699	-0.09408662	-0.02826314	0.0008027538	0.0002655321	
0.0007352818	-3.182023e-05	0.01287993	0.005318984	0.0008027538	0.0002655321	-0.08520061	-0.03139838	

1.78e+09	-0.06166861	0.01661638	0.0009425725	-0.0004155275	0.0504311	0.00702472	0.0006688569	-0.0003372927	
0.0009425725	-0.0004155275	-0.06968863	0.007656765	0.001011224	-0.0001952436	0.05071286	0.002687127	
0.0504311	0.00702472	0.001011224	-0.0001952436	-0.06773796	-0.004000649	0.0008105913	-2.727249e-05	
0.0006688569	-0.0003372927	0.05071286	0.002687127	0.0008105913	-2.727249e-05	-0.06091323	-0.01199487	

1.8e+09	-0.03748063	0.01311819	0.000655893	-0.000633477	0.05797061	-0.0195363	0.0004266712	-0.0004920939	
0.000655893	-0.000633477	-0.04425759	0.005426308	0.000796482	-0.0004218935	0.05723573	-0.02404675	
0.05797061	-0.0195363	0.000796482	-0.0004218935	-0.04211573	-0.005754161	0.0006577949	-0.0002008319	
0.0004266712	-0.0004920939	0.05723573	-0.02404675	0.0006577949	-0.0002008319	-0.04014393	-0.01513711	

1.82e+09	-0.03326786	0.004853255	0.0004019579	-0.0006139753	0.03351234	-0.02661778	0.0002304233	-0.0004433568	
0.0004019579	-0.0006139753	-0.04089642	-0.00434891	0.0006045486	-0.0004452883	0.03176593	-0.03102073	
0.03351234	-0.02661778	0.0006045486	-0.0004452883	-0.03833242	-0.01628694	0.0005420414	-0.0002088086	
0.0002304233	-0.0004433568	0.03176593	-0.03102073	0.0005420414	-0.0002088086	-0.03923787	-0.02330701	

1.84e+09	-0.03731214	0.01259318	0.0003322976	-0.0005393402	0.0174003	0.002317833	0.0002025585	-0.0003626439	
0.0003322976	-0.0005393402	-0.0492657	0.003444993	0.0005675404	-0.0004290873	0.01468817	-0.0018078	
0.0174003	0.002317833	0.0005675404	-0.0004290873	-0.04732902	-0.00984445	0.0005639082	-0.000206562	
0.0002025585	-0.0003626439	0.01468817	-0.0018078	0.0005639082	-0.000206562	-0.04736074	-0.01516029	

1.86e+09	-0.02673041	0.03254213	0.0003472801	-0.0005994272	0.03793011	0.03624173	0.0002434927	-0.000412019	
0.0003472801	-0.0005994272	-0.04269098	0.0278299	0.0005934625	-0.0005365168	0.03425674	0.03261542	
0.03793011	0.03624173	0.0005934625	-0.0005365168	-0.04239862	0.01387439	0.0006275369	-0.0003288916	
0.0002434927	-0.000412019	0.03425674	0.03261542	0.0006275369	-0.0003288916	-0.04137742	0.006716503	

1.88e+09	0.003265402	0.04120582	0.0002262514	-0.0007895006	0.0822899	0.03539196	0.0001569804	-0.0005800638	
0.0002262514	-0.0007895006	-0.01246579	0.04268498	0.0004898207	-0.0007627105	0.07780239	0.03250875	
0.0822899	0.03539196	0.0004898207	-0.0007627105	-0.01366376	0.02938232	0.0005629157	-0.0005606606	
0.0001569804	-0.0005800638	0.07780239	0.03250875	0.0005629157	-0.0005606606	-0.01499408	0.01906777	

1.9e+09	0.03060172	0.0227957	-0.0001059432	-0.0008465868	0.09744649	-0.0005418854	-0.0001167939	-0.0006246856	
-0.0001059432	-0.0008465868	0.01868668	0.02733519	0.000186925	-0.0008746078	0.09227954	-0.002594203	
0.09744649	-0.0005418854	0.000186925	-0.0008746078	0.0175522	0.0150069	0.0003179968	-0.0006865397	
-0.0001167939	-0.0006246856	0.09227954	-0.002594203	0.0003179968	-0.0006865397	0.01069766	0.00466858	

1.92e+09	0.0332589	-0.002113687	-0.0003862909	-0.0006434047	0.07507534	-0.02126541	-0.0003347564	-0.0004435921	
-0.0003862909	-0.0006434047	0.02343186	0.001775053	-8.513738e-05	-0.000754381	0.06930196	-0.02226911	
0.07507534	-0.02126541	-8.513738e-05	-0.000754381	0.02284493	-0.01102007	0.0001044033	-0.0006152446	
-0.0003347564	-0.0004435921	0.06930196	-0.02226911	0.0001044033	-0.0006152446	0.01240852	-0.01706571	

1.94e+09	0.02215087	-0.0111325	-0.0004351008	-0.0003671683	0.05453404	-0.005331158	-0.0003468262	-0.00021479	
-0.0004351008	-0.0003671683	0.0109453	-0.007389096	-0.0001648361	-0.000565527	0.04844685	-0.005056323	
0.05453404	-0.005331158	-0.0001648361	-0.000565527	0.009791523	-0.02145973	5.266391e-05	-0.0005016532	
-0.0003468262	-0.00021479	0.04844685	-0.005056323	5.266391e-05	-0.0005016532	0.0001765843	-0.02304632	

1.96e+09	0.0202917	-0.003619617	-0.000330196	-0.0002391099	0.06783378	0.02096952	-0.0002383179	-0.0001277314	
-0.000330196	-0.0002391099	0.007403852	0.003730552	-0.0001236893	-0.0004994315	0.06177556	0.02253943	
0.06783378	0.02096952	-0.0001236893	-0.0004994315	0.004446385	-0.01091186	8.207783e-05	-0.0005043652	
-0.0002383179	-0.0001277314	0.06177556	0.02253943	8.207783e-05	-0.0005043652	-0.002781991	-0.01176865	

1.98e+09	0.03597118	-0.001223959	-0.0002979897	-0.0002716255	0.1019534	0.01917031	-0.0002083739	-0.0001770894	
-0.0002979897	-0.0002716255	0.02533653	0.01140955	-0.0001556282	-0.0005600384	0.09618752	0.02198042	
0.1019534	0.01917031	-0.0001556282	-0.0005600384	0.02066464	-0.002377896	2.51128e-05	-0.0006065103	
-0.0002083739	-0.0001770894	0.09618752	0.02198042	2.51128e-05	-0.0006065103	0.01288404	-0.004677952	

2e+09	0.05227712	-0.01806682	-0.0004205751	-0.0002704192	0.1180708	-0.0118098	-0.0003167435	-0.0001865762	
-0.0004205751	-0.0002704192	0.04721968	-0.003229713	-0.0003264559	-0.0005793659	0.1128059	-0.007869161	
0.1180708	-0.0118098	-0.0003264559	-0.0005793659	0.04209046	-0.01561903	-0.0001600833	-0.000655197	
-0.0003167435	-0.0001865762	0.1128059	-0.007869161	-0.0001600833	-0.000655197	0.03092377	-0.01698854	

2.02e+09	0.04809154	-0.04523684	-0.0005667118	-6.968387e-05	0.09673176	-0.04163126	-0.0004411626	-1.725621e-05	
-0.0005667118	-6.968387e-05	0.0475619	-0.03228786	-0.0005246605	-0.0004145006	0.09204417	-0.03660278	
0.09673176	-0.04163126	-0.0005246605	-0.0004145006	0.04295715	-0.04430358	-0.0003679151	-0.0005335224	
-0.0004411626	-1.725621e-05	0.09204417	-0.03660278	-0.0003679151	-0.0005335224	0.02951846	-0.04095849	

2.04e+09	0.02494137	-0.05501867	-0.0004699455	0.0002287003	0.06670112	-0.03035388	-0.0003476591	0.0002294131	
-0.0004699455	0.0002287003	0.0248573	-0.04472219	-0.0005155028	-0.0001465531	0.06291841	-0.02409418	
0.06670112	-0.03035388	-0.0005155028	-0.0001465531	0.01982613	-0.0576152	-0.0003945953	-0.0003234328	
-0.0003476591	0.0002294131	0.06291841	-0.02409418	-0.0003945953	-0.0003234328	0.008882356	-0.04854407	

2.06e+09	0.01001934	-0.04317159	-0.0001913161	0.0003440098	0.06889553	-0.0021153	-0.0001071436	0.0003078476	
-0.0001913161	0.0003440098	0.009039895	-0.03203807	-0.0003445481	-2.071133e-05	0.06653395	0.005085284	
0.06889553	-0.0021153	-0.0003445481	-2.071133e-05	0.002102781	-0.04510801	-0.0002954698	-0.0002355329	
-0.0001071436	0.0003078476	0.06653395	0.005085284	-0.0002954698	-0.0002355329	-0.003700659	-0.03455943	

2.08e+09	0.01566264	-0.03094499	1.315779e-05	0.0002311458	0.09662091	0.002852282	5.410087e-05	0.0001954921	
1.315779e-05	0.0002311458	0.01677912	-0.01692974	-0.0002315736	-7.797813e-05	0.09580092	0.010476	
0.09662091	0.002852282	-0.0002315736	-7.797813e-05	0.008021163	-0.02850182	-0.0002612305	-0.00028729	
5.410087e-05	0.0001954921	0.09580092	0.010476	-0.0002612305	-0.00028729	0.004730084	-0.01999719	

2.1e+09	0.02750495	-0.03629559	1.673117e-05	9.573701e-05	0.1116272	-0.02269052	4.057673e-05	7.963976e-05	
1.673117e-05	9.573701e-05	0.03397291	-0.02183367	-0.0002818509	-0.0001420646	0.1122422	-0.01492348	
0.1116272	-0.02269052	-0.0002818509	-0.0001420646	0.02485647	-0.03121419	-0.0003647417	-0.0003184087	
4.057673e-05	7.963976e-05	0.1122422	-0.01492348	-0.0003647417	-0.0003184087	0.0204456	-0.02336304	

2.12e+09	0.02457984	-0.05241042	-4.619892e-05	0.0001129252	0.0949905	-0.04708552	-1.943986e-05	0.0001026861	
-4.619892e-05	0.0001129252	0.03545002	-0.04176427	-0.0003794016	-6.635265e-05	0.09704978	-0.03931315	
0.0949905	-0.04708552	-0.0003794016	-6.635265e-05	0.02711419	-0.04982402	-0.0004919019	-0.000213885	
-1.943986e-05	0.0001026861	0.09704978	-0.03931315	-0.0004919019	-0.000213885	0.02211806	-0.03885583	

2.14e+09	0.005873089	-0.05789989	2.400318e-05	0.000225124	0.06675579	-0.04202047	4.419681e-05	0.0002032502	
2.400318e-05	0.000225124	0.01696237	-0.05211502	-0.0003520157	0.0001033369	0.07040221	-0.03439984	
0.06675579	-0.04202047	-0.0003520157	0.0001033369	0.009026788	-0.06004831	-0.0004966056	-2.646057e-05	
4.419681e-05	0.0002032502	0.07040221	-0.03439984	-0.0004966056	-2.646057e-05	0.007635356	-0.04516211	

2.16e+09	-0.009757239	-0.04008661	0.0002728685	0.0002212407	0.06096947	-0.0112351	0.0002606359	0.0001961181	
0.0002728685	0.0002212407	-0.0008576707	-0.03615283	-0.0001514614	0.0001840644	0.06646532	-0.004185836	
0.06096947	-0.0112351	-0.0001514614	0.0001840644	-0.009859784	-0.04385837	-0.0003470873	8.320017e-05	
0.0002606359	0.0001961181	0.06646532	-0.004185836	-0.0003470873	8.320017e-05	-0.004770059	-0.02882296	

2.18e+09	0.0007912107	-0.01901254	0.0004363598	-4.677823e-05	0.0900615	0.002143334	0.0003937259	-3.783936e-05	
0.0004363598	-4.677823e-05	0.009535986	-0.0138568	-7.528625e-07	3.503591e-05	0.09716547	0.007836865	
0.0900615	0.002143334	-7.528625e-07	3.503591e-05	-0.0005725677	-0.01939455	-0.0002408681	2.396325e-06	
0.0003937259	-3.783936e-05	0.09716547	0.007836865	-0.0002408681	2.396325e-06	0.008525419	-0.008990514	

2.2e+09	0.02168951	-0.01738341	0.000346964	-0.000332901	0.1116344	-0.01814881	0.0003088726	-0.0002742107	
0.000346964	-0.000332901	0.03360304	-0.01243481	-5.350745e-05	-0.0001359061	0.1197119	-0.01401928	
0.1116344	-0.01814881	-5.350745e-05	-0.0001359061	0.02416659	-0.01516555	-0.000298539	-8.060792e-05	
0.0003088726	-0.0002742107	0.1197119	-0.01401928	-0.000298539	-8.060792e-05	0.03245631	-0.008622005	

2.22e+09	0.03068344	-0.03135588	0.0001338391	-0.0004360524	0.1016895	-0.04313531	0.0001311416	-0.0003474229	
0.0001338391	-0.0004360524	0.04543418	-0.03049253	-0.0001989698	-0.000155117	0.1104847	-0.04046007	
0.1016895	-0.04313531	-0.0001989698	-0.000155117	0.03803739	-0.03148404	-0.0004095618	-2.698768e-05	
0.0001311416	-0.0003474229	0.1104847	-0.04046007	-0.0004095618	-2.698768e-05	0.04491584	-0.02473865	

2.24e+09	0.0228111	-0.0398143	1.1346e-05	-0.000387764	0.07752096	-0.04176343	4.308397e-05	-0.0002993151	
1.1346e-05	-0.000387764	0.03635342	-0.0444516	-0.0002533234	-5.117099e-05	0.08698826	-0.04068165	
0.07752096	-0.04176343	-0.0002533234	-5.117099e-05	0.0308243	-0.04515286	-0.0004185338	0.0001195384	
4.308397e-05	-0.0002993151	0.08698826	-0.04068165	-0.0004185338	0.0001195384	0.03992228	-0.03673099	

2.26e+09	0.01586821	-0.03060372	2.432594e-05	-0.00038387	0.0727017	-0.01919504	7.001257e-05	-0.0003023908	
2.432594e-05	-0.00038387	0.02513738	-0.03759659	-0.0001757597	4.970814e-06	0.08261418	-0.0200399	
0.0727017	-0.01919504	-0.0001757597	4.970814e-06	0.02031802	-0.03826418	-0.0003067725	0.0002059095	
7.001257e-05	-0.0003023908	0.08261418	-0.0200399	-0.0003067725	0.0002059095	0.0343246	-0.03162284	

2.28e+09	0.02750445	-0.017142	8.908396e-06	-0.0005321854	0.09622047	-0.005419991	6.448656e-05	-0.0004405857	
8.908396e-06	-0.0005321854	0.03404983	-0.02280643	-0.000107244	-8.944748e-05	0.1060397	-0.008502505	
0.09622047	-0.005419991	-0.000107244	-8.944748e-05	0.02964432	-0.02231913	-0.000203032	0.0001527735	
6.448656e-05	-0.0004405857	0.1060397	-0.008502505	-0.000203032	0.0001527735	0.04612722	-0.02168222	

2.3e+09	0.05362535	-0.02060847	-0.000204439	-0.0007153189	0.1224101	-0.02445996	-0.0001161481	-0.0006031485	
-0.000204439	-0.0007153189	0.06106838	-0.02506465	-0.0002076974	-0.0002366668	0.1313346	-0.02965052	
0.1224101	-0.02445996	-0.0002076974	-0.0002366668	0.05845802	-0.02263447	-0.0002420994	5.340621e-05	
-0.0001161481	-0.0006031485	0.1313346	-0.02965052	-0.0002420994	5.340621e-05	0.07228274	-0.02776267	

2.32e+09	0.06726917	-0.04542318	-0.0005550001	-0.0006937454	0.1168905	-0.05636368	-0.0004072502	-0.0005861745	
-0.0005550001	-0.0006937454	0.07636625	-0.05228123	-0.0004295577	-0.0002241856	0.1246079	-0.06306962	
0.1168905	-0.05636368	-0.0004295577	-0.0002241856	0.07702135	-0.04924206	-0.0003696066	8.560224e-05	
-0.0004072502	-0.0005861745	0.1246079	-0.06306962	-0.0003696066	8.560224e-05	0.08655936	-0.05534425	

2.34e+09	0.06051548	-0.06804532	-0.0008034155	-0.0004702308	0.09213845	-0.06428863	-0.0006023851	-0.000405244	
-0.0008034155	-0.0004702308	0.0678732	-0.07914149	-0.0005652645	-5.263702e-05	0.09870181	-0.0723182	
0.09213845	-0.06428863	-0.0005652645	-5.263702e-05	0.07146633	-0.07717121	-0.0004095658	0.0002315325	
-0.0006023851	-0.000405244	0.09870181	-0.0723182	-0.0004095658	0.0002315325	0.0800976	-0.0817787	

2.36e+09	0.04793816	-0.07369996	-0.0008598212	-0.0002228453	0.08149644	-0.04816423	-0.0006379342	-0.0002190358	
-0.0008598212	-0.0002228453	0.05024819	-0.08640093	-0.0005405603	0.0001225147	0.08665411	-0.05757939	
0.08149644	-0.04816423	-0.0005405603	0.0001225147	0.05548147	-0.0861267	-0.0003177433	0.0003505449	
-0.0006379342	-0.0002190358	0.08665411	-0.05757939	-0.0003177433	0.0003505449	0.06624034	-0.09167239	

2.38e+09	0.04895421	-0.07083349	-0.0008477763	-0.0001012413	0.09674547	-0.03802521	-0.0006308405	-0.0001451772	
-0.0008477763	-0.0001012413	0.04738781	-0.08087078	-0.0004664028	0.0001725276	0.1000096	-0.048616	
0.09674547	-0.03802521	-0.0004664028	0.0001725276	0.05343704	-0.08159506	-0.0002045369	0.0003468193	
-0.0006308405	-0.0001451772	0.1000096	-0.048616	-0.0002045369	0.0003468193	0.06458326	-0.09191996	

2.4e+09	0.06103095	-0.08008557	-0.0009325297	-3.17499e-05	0.1136623	-0.05407538	-0.0007172374	-0.0001075758	
-0.0009325297	-3.17499e-05	0.05979606	-0.08707542	-0.0004916981	0.0001635662	0.1146766	-0.06530964	
0.1136623	-0.05407538	-0.0004916981	0.0001635662	0.06726474	-0.08808373	-0.0001913528	0.0002933107	
-0.0007172374	-0.0001075758	0.1146766	-0.06530964	-0.0001913528	0.0002933107	0.07411293	-0.1028736	

2.42e+09	0.06438753	-0.1061951	-0.001104868	0.000144674	0.1086045	-0.08396939	-0.0008785917	2.807135e-05	
-0.001104868	0.000144674	0.06492289	-0.1134811	-0.0006113254	0.0002387146	0.1073281	-0.09517654	
0.1086045	-0.08396939	-0.0006113254	0.0002387146	0.07486415	-0.1155233	-0.0002624265	0.0003088958	
-0.0008785917	2.807135e-05	0.1073281	-0.09517654	-0.0002624265	0.0003088958	0.07576345	-0.130363	

2.44e+09	0.04614945	-0.1339214	-0.001203968	0.000507091	0.07860102	-0.09677029	-0.0009735828	0.0003231132	
-0.001203968	0.000507091	0.04602483	-0.1441193	-0.0006841086	0.0004719349	0.07535386	-0.1075366	
0.07860102	-0.09677029	-0.0006841086	0.0004719349	0.05825896	-0.1487587	-0.0002955492	0.0004494177	
-0.0009735828	0.0003231132	0.07535386	-0.1075366	-0.0002955492	0.0004494177	0.05606466	-0.1602031	

2.46e+09	0.0161208	-0.1417764	-0.001065482	0.0009164591	0.0564015	-0.08208311	-0.0008703687	0.0006501718	
-0.001065482	0.0009164591	0.01166761	-0.153066	-0.0005703021	0.0007437695	0.05129265	-0.09234046	
0.0564015	-0.08208311	-0.0005703021	0.0007437695	0.02465703	-0.1611344	-0.000185922	0.0006047245	
-0.0008703687	0.0006501718	0.05129265	-0.09234046	-0.000185922	0.0006047245	0.02333125	-0.1707433	

2.48e+09	-0.00252829	-0.1338661	-0.000766822	0.001156348	0.0602965	-0.06615821	-0.0006462107	0.0008327896	
-0.000766822	0.001156348	-0.0108453	-0.1420165	-0.0003374142	0.000873068	0.05315105	-0.07560947	
0.0602965	-0.06615821	-0.0003374142	0.000873068	0.001557829	-0.1528321	-5.563778e-06	0.0006350056	
-0.0006462107	0.0008327896	0.05315105	-0.07560947	-5.563778e-06	0.0006350056	0.0005679517	-0.164349	

2.5e+09	-0.006318084	-0.1310578	-0.0005229069	0.001225938	0.0721449	-0.07304959	-0.0004801308	0.0008853961	
-0.0005229069	0.001225938	-0.01427817	-0.1348965	-0.0001685858	0.0008640776	0.06303805	-0.08108975	
0.0721449	-0.07304959	-0.0001685858	0.0008640776	-0.002447522	-0.1472897	9.629505e-05	0.0005649521	
-0.0004801308	0.0008853961	0.06303805	-0.08108975	9.629505e-05	0.0005649521	-0.007116763	-0.161193	

2.52e+09	-0.01348942	-0.1426235	-0.000389675	0.001312996	0.06407428	-0.09323563	-0.00040421	0.0009696208	
-0.000389675	0.001312996	-0.01869756	-0.1456145	-0.0001088109	0.0008819934	0.05340892	-0.09941132	
0.06407428	-0.09323563	-0.0001088109	0.0008819934	-0.006552723	-0.1596055	0.000100735	0.0005367185	
-0.00040421	0.0009696208	0.05340892	-0.09941132	0.000100735	0.0005367185	-0.0168795	-0.1719033	

2.54e+09	-0.03780156	-0.1544822	-0.0002179846	0.001510654	0.03644968	-0.09891813	-0.0002864128	0.001153885	
-0.0002179846	0.001510654	-0.04268163	-0.159736	-2.713431e-05	0.001008635	0.02471001	-0.1029563	
0.03644968	-0.09891813	-2.713431e-05	0.001008635	-0.03017081	-0.1764694	0.0001237667	0.0006077354	
-0.0002864128	0.001153885	0.02471001	-0.1029563	0.0001237667	0.0006077354	-0.04328439	-0.183535	

2.56e+09	-0.07325024	-0.1488641	0.0001269684	0.001736865	0.010478	-0.0817936	-1.888219e-05	0.001362469	
0.0001269684	0.001736865	-0.0812763	-0.1550715	0.0001933255	0.00117632	-0.001888323	-0.08366169	
0.010478	-0.0817936	0.0001933255	0.00117632	-0.06976279	-0.1753952	0.0002551707	0.000716286	
-1.888219e-05	0.001362469	-0.001888323	-0.08366169	0.0002551707	0.000716286	-0.08154745	-0.1781972	

2.58e+09	-0.09804299	-0.1216363	0.0006636356	0.00177158	0.009254887	-0.05363031	0.0004095901	0.00140991	
0.0006636356	0.00177158	-0.1097015	-0.1249585	0.0005746348	0.001199678	-0.003519951	-0.05330491	
0.009254887	-0.05363031	0.0005746348	0.001199678	-0.1009255	-0.1481734	0.000508263	0.0007117173	
0.0004095901	0.00140991	-0.003519951	-0.05330491	0.000508263	0.0007117173	-0.1104316	-0.1503894	

2.6e+09	-0.1007754	-0.09483321	0.001127734	0.001523155	0.02370878	-0.04486137	0.0007722356	0.00122938	
0.001127734	0.001523155	-0.1120989	-0.0931655	0.0008957635	0.0009991513	0.01083537	-0.04206076	
0.02370878	-0.04486137	0.0008957635	0.0009991513	-0.1064334	-0.1174621	0.0006975629	0.000543077	
0.0007722356	0.00122938	0.01083537	-0.04206076	0.0006975629	0.000543077	-0.1170732	-0.1208524	

2.62e+09	-0.09838543	-0.08426695	0.001364309	0.001210183	0.02477474	-0.05456498	0.000952343	0.001010708	
0.001364309	0.001210183	-0.1061493	-0.08063012	0.001027182	0.0007602137	0.01242667	-0.04916383	
0.02477474	-0.05456498	0.001027182	0.0007602137	-0.1024889	-0.1051711	0.0007345831	0.000371789	
0.000952343	0.001010708	0.01242667	-0.04916383	0.0007345831	0.000371789	-0.1167087	-0.1066818	

2.64e+09	-0.1089146	-0.07918919	0.001522876	0.001009346	0.005370833	-0.05525258	0.001086127	0.0008911075	
0.001522876	0.001009346	-0.114881	-0.0773424	0.001100295	0.00063303	-0.005853113	-0.04740301	
0.005370833	-0.05525258	0.001100295	0.00063303	-0.1125689	-0.1029698	0.0007423118	0.0003089034	
0.001086127	0.0008911075	-0.005853113	-0.04740301	0.0007423118	0.0003089034	-0.1281156	-0.09880485	

2.66e+09	-0.1278782	-0.05984808	0.001784196	0.0008335391	-0.01091815	-0.03264984	0.001320682	0.0007844755	
0.001784196	0.0008335391	-0.1359794	-0.05918196	0.001272782	0.0005412867	-0.02050929	-0.02265035	
-0.01091815	-0.03264984	0.001272782	0.0005412867	-0.1360963	-0.08666954	0.0008471745	0.0002771284	
0.001320682	0.0007844755	-0.02050929	-0.02265035	0.0008471745	0.0002771284	-0.1482674	-0.07734764	

2.68e+09	-0.1346448	-0.02395965	0.002122957	0.0004870022	-0.00474253	-0.00249094	0.001624606	0.0005252344	
0.002122957	0.0004870022	-0.1454668	-0.02046992	0.001528709	0.0003163578	-0.01234081	0.009248915	
-0.00474253	-0.00249094	0.001528709	0.0003163578	-0.1496092	-0.04884204	0.001026507	0.0001361776	
0.001624606	0.0005252344	-0.01234081	0.009248915	0.001026507	0.0001361776	-0.1568822	-0.03867916	

2.7e+09	-0.1187987	0.01236048	0.002344055	-9.551155e-05	0.01889997	0.0135116	0.001829223	6.561684e-05	
0.002344055	-9.551155e-05	-0.1287874	0.02069757	0.001703835	-0.0001055244	0.01350824	0.02663542	
0.01889997	0.0135116	0.001703835	-0.0001055244	-0.1372009	-0.006398234	0.001141099	-0.0001588338	
0.001829223	6.561684e-05	0.01350824	0.02663542	0.001141099	-0.0001588338	-0.1425464	0.001965569	

2.72e+09	-0.09033242	0.02766912	0.002230655	-0.0007482287	0.03779867	0.005543473	0.001757316	-0.0004487183	
0.002230655	-0.0007482287	-0.09584639	0.03860775	0.001611041	-0.0005883143	0.03492029	0.01977144	
0.03779867	0.005543473	0.001611041	-0.0005883143	-0.1067886	0.01421071	0.001045233	-0.0004876668	
0.001757316	-0.0004487183	0.03492029	0.01977144	0.001045233	-0.0004876668	-0.1134063	0.02251676	

2.74e+09	-0.07380502	0.02847899	0.001920563	-0.00118496	0.03417363	-0.001818955	0.00153752	-0.0007825268	
0.001920563	-0.00118496	-0.0756578	0.03767214	0.001366922	-0.0008883	0.03415714	0.01297645	
0.03417363	-0.001818955	0.001366922	-0.0008883	-0.08764007	0.0152326	0.0008537128	-0.0006577323	
0.00153752	-0.0007825268	0.03415714	0.01297645	0.0008537128	-0.0006577323	-0.09433328	0.02728142	

2.76e+09	-0.06936085	0.03632266	0.001660803	-0.001458024	0.02721051	0.01169675	0.001372578	-0.0009972365	
0.001660803	-0.001458024	-0.07166346	0.04331551	0.001183948	-0.001055453	0.03018956	0.02638711	
0.02721051	0.01169675	0.001183948	-0.001055453	-0.08506077	0.02179243	0.0007373079	-0.000733611	
0.001372578	-0.0009972365	0.03018956	0.02638711	0.0007373079	-0.000733611	-0.08735063	0.03749268	

2.78e+09	-0.05752269	0.05716239	0.001458791	-0.001772616	0.04112491	0.03355142	0.001251205	-0.001266895	
0.001458791	-0.001772616	-0.06163388	0.06563342	0.001064886	-0.001270297	0.04700859	0.04741897	
0.04112491	0.03355142	0.001064886	-0.001270297	-0.07767718	0.04564586	0.0006784348	-0.0008692948	
0.001251205	-0.001266895	0.04700859	0.04741897	0.0006784348	-0.0008692948	-0.07369045	0.06048695	

2.8e+09	-0.02678537	0.07423657	0.001126332	-0.002174959	0.07101359	0.03732883	0.001005276	-0.001616866	
0.001126332	-0.002174959	-0.02948215	0.08660326	0.0008432504	-0.001575758	0.07942477	0.04979602	
0.07101359	0.03732883	0.0008432504	-0.001575758	-0.04780504	0.07007957	0.0005272807	-0.001086181	
0.001005276	-0.001616866	0.07942477	0.04979602	0.0005272807	-0.001086181	-0.04084173	0.08050345	

2.82e+09	0.01113046	0.0703226	0.0005548319	-0.002489113	0.09350415	0.02013262	0.0005532876	-0.001884767	
0.0005548319	-0.002489113	0.0134006	0.08436029	0.000421765	-0.001819763	0.1040748	0.0309173	
0.09350415	0.02013262	0.000421765	-0.001819763	-0.005122553	0.0721163	0.000214961	-0.001243456	
0.0005532876	-0.001884767	0.1040748	0.0309173	0.000214961	-0.001243456	0.0007786306	0.07966219	

2.84e+09	0.03771061	0.04870042	-0.0001389582	-0.002522576	0.09514168	-0.001591955	8.774626e-06	-0.00191158	
-0.0001389582	-0.002522576	0.04463175	0.06029434	-9.976866e-05	-0.001833287	0.1076784	0.00721787	
0.09514168	-0.001591955	-9.976866e-05	-0.001833287	0.02768255	0.05131763	-0.0001579493	-0.001205597	
8.774626e-06	-0.00191158	0.1076784	0.00721787	-0.0001579493	-0.001205597	0.03262521	0.05969996	

2.86e+09	0.04390716	0.028096	-0.0007033172	-0.002263657	0.08511943	-0.006377304	-0.0004135288	-0.001706716	
-0.0007033172	-0.002263657	0.05157787	0.0356583	-0.0005028749	-0.001613553	0.09936399	-4.171514e-05	
0.08511943	-0.006377304	-0.0005028749	-0.001613553	0.03622943	0.02814803	-0.0004069345	-0.0009971626	
-0.0004135288	-0.001706716	0.09936399	-4.171514e-05	-0.0004069345	-0.0009971626	0.04402517	0.0383407	

2.88e+09	0.04828292	0.0222046	-0.00104168	-0.001954997	0.08984574	0.002253524	-0.000652791	-0.001479376	
-0.00104168	-0.001954997	0.05421351	0.02885011	-0.0007152661	-0.001372843	0.1051771	0.005673543	
0.08984574	0.002253524	-0.0007152661	-0.001372843	0.03927496	0.02262973	-0.000499694	-0.0008024797	
-0.000652791	-0.001479376	0.1051771	0.005673543	-0.000499694	-0.0008024797	0.05205677	0.03073725	

2.9e+09	0.06567863	0.01791837	-0.001302734	-0.001707609	0.1105291	-0.001549823	-0.0008408071	-0.001303678	
-0.001302734	-0.001707609	0.0722524	0.02663383	-0.0008718554	-0.001196928	0.1261846	-0.001170773	
0.1105291	-0.001549823	-0.0008718554	-0.001196928	0.05767027	0.02290666	-0.0005599562	-0.0006692252	
-0.0008408071	-0.001303678	0.1261846	-0.001170773	-0.0005599562	-0.0006692252	0.07236606	0.02523877	

2.92e+09	0.08821894	-0.002185297	-0.001586566	-0.001428049	0.1230984	-0.02588257	-0.00104256	-0.001089833	
-0.001586566	-0.001428049	0.09910775	0.007061536	-0.001052112	-0.0009980682	0.1384686	-0.0282951	
0.1230984	-0.02588257	-0.001052112	-0.0009980682	0.08645662	0.006274493	-0.0006325435	-0.0005089417	
-0.00104256	-0.001089833	0.1384686	-0.0282951	-0.0006325435	-0.0005089417	0.09851863	0.004149996	

2.94e+09	0.0967166	-0.03648637	-0.001803717	-0.001008477	0.1130349	-0.05083546	-0.001161469	-0.000761782	
-0.001803717	-0.001008477	0.1119691	-0.03103284	-0.001169884	-0.0006880145	0.1279061	-0.0558303	
0.1130349	-0.05083546	-0.001169884	-0.0006880145	0.1025442	-0.03016874	-0.0006195225	-0.0002661679	
-0.001161469	-0.000761782	0.1279061	-0.0558303	-0.0006195225	-0.0002661679	0.1115273	-0.03247769	

2.96e+09	0.08460619	-0.06722169	-0.00178892	-0.0005089123	0.09360652	-0.05974883	-0.001061449	-0.0004019351	
-0.00178892	-0.0005089123	0.1002965	-0.06745492	-0.001085099	-0.0003321622	0.1077316	-0.06744113	
0.09360652	-0.05974883	-0.001085099	-0.0003321622	0.09379558	-0.06664227	-0.0004094109	-3.200565e-05	
-0.001061449	-0.0004019351	0.1077316	-0.06744113	-0.0004094109	-3.200565e-05	0.1033206	-0.06770902	

2.98e+09	0.06436973	-0.08095865	-0.001448226	-0.0001391932	0.08171869	-0.05249671	-0.0006740916	-0.0001948215	
-0.001448226	-0.0001391932	0.07735476	-0.08464898	-0.0007209607	-0.0001110953	0.09453151	-0.06301608	
0.08171869	-0.05249671	-0.0007209607	-0.0001110953	0.07248609	-0.08449932	4.517668e-05	3.401094e-05	
-0.0006740916	-0.0001948215	0.09453151	-0.06301608	4.517668e-05	3.401094e-05	0.08486339	-0.08716035	

3e+09	0.05443237	-0.08202045	-0.0007789742	-0.0002732508	0.08634232	-0.04830257	5.160508e-05	-0.0004806577	
-0.0007789742	-0.0002732508	0.06579174	-0.08572287	-4.186245e-05	-0.0003527446	0.09723114	-0.06152162	
0.08634232	-0.04830257	-4.186245e-05	-0.0003527446	0.06146774	-0.08517698	0.0008241833	-0.000356673	
5.160508e-05	-0.0004806577	0.09723114	-0.06152162	0.0008241833	-0.000356673	0.07475295	-0.09336036	

3.02e+09	0.05560091	-0.08881096	-0.0007727395	-0.002414038	0.09077034	-0.0589447	0.0002512929	-0.003067023	
-0.0007727395	-0.002414038	0.06825728	-0.09442205	0.0001283243	-0.002686237	0.09868257	-0.07569444	
0.09077034	-0.0589447	0.0001283243	-0.002686237	0.06561986	-0.09076362	0.001264132	-0.003135136	
0.0002512929	-0.003067023	0.09868257	-0.07569444	0.001264132	-0.003135136	0.07464961	-0.1051821	

3.04e+09	0.05278022	-0.1139499	-0.004044103	-0.0005008528	0.08158357	-0.07913733	-0.003770484	-0.0014383	
-0.004044103	-0.0005008528	0.06487207	-0.1212347	-0.003502604	-0.001109073	0.08391421	-0.0949145	
0.08158357	-0.07913733	-0.003502604	-0.001109073	0.06919621	-0.1189817	-0.003094778	-0.00193233	
-0.003770484	-0.0014383	0.08391421	-0.0949145	-0.003094778	-0.00193233	0.07008289	-0.1315684	

3.06e+09	0.02555337	-0.1333232	-0.00297572	0.0008168566	0.05491719	-0.08083246	-0.002840637	3.867359e-05	
-0.00297572	0.0008168566	0.03707833	-0.1452522	-0.002565186	0.0003390797	0.05556236	-0.09574609	
0.05491719	-0.08083246	-0.002565186	0.0003390797	0.04362364	-0.1467535	-0.002294893	-0.0003376526	
-0.002840637	3.867359e-05	0.05556236	-0.09574609	-0.002294893	-0.0003376526	0.04346657	-0.1550215	

3.08e+09	-0.006018735	-0.1305814	-0.002882076	0.0002897017	0.04020388	-0.06344415	-0.00289988	-0.0005337972	
-0.002882076	0.0002897017	0.001131146	-0.1449856	-0.002256657	-5.791027e-05	0.03943716	-0.0775369	
0.04020388	-0.06344415	-0.002256657	-5.791027e-05	0.007589594	-0.1505488	-0.002106718	-0.0007977437	
-0.00289988	-0.0005337972	0.03943716	-0.0775369	-0.002106718	-0.0007977437	0.01033776	-0.1567595	

3.1e+09	-0.02332001	-0.1155503	-0.004848142	0.003561314	0.0431008	-0.04979555	-0.005145484	0.002913546	
-0.004848142	0.003561314	-0.01848268	-0.1315277	-0.004090845	0.002122305	0.04216653	-0.06718013	
0.0431008	-0.04979555	-0.004090845	0.002122305	-0.01492869	-0.1353089	-0.00420079	0.001471919	
-0.005145484	0.002913546	0.04216653	-0.06718013	-0.00420079	0.001471919	-0.00890334	-0.1487638	

3.12e+09	-0.02714294	-0.1020107	-0.001384376	0.004273356	0.04973908	-0.04854003	-0.001681859	0.003724905	
-0.001384376	0.004273356	-0.02604622	-0.1168114	-0.001551499	0.003007263	0.04261068	-0.0656498	
0.04973908	-0.04854003	-0.001551499	0.003007263	-0.01896727	-0.1207089	-0.001701973	0.00243067	
-0.001681859	0.003724905	0.04261068	-0.0656498	-0.001701973	0.00243067	-0.02069761	-0.1376526	

3.14e+09	-0.02889605	-0.1016423	-0.000285838	0.003666274	0.04435895	-0.05510639	-0.0006461913	0.003176132	
-0.000285838	0.003666274	-0.02806881	-0.1171853	-0.0006960133	0.002651159	0.03382491	-0.07000448	
0.04435895	-0.05510639	-0.0006960133	0.002651159	-0.01872953	-0.1225268	-0.0009236364	0.002115126	
-0.0006461913	0.003176132	0.03382491	-0.07000448	-0.0009236364	0.002115126	-0.02715844	-0.1374119	

3.16e+09	-0.04393126	-0.1019583	0.0003693716	0.003392954	0.02760794	-0.04913044	-5.5858e-05	0.002952072	
0.0003693716	0.003392954	-0.04626091	-0.1209553	-0.0002012578	0.002529005	0.01446361	-0.06186988	
0.02760794	-0.04913044	-0.0002012578	0.002529005	-0.03487255	-0.1288856	-0.0005052829	0.00202357	
-5.5858e-05	0.002952072	0.01446361	-0.06186988	-0.0005052829	0.00202357	-0.04643954	-0.1387127	

3.18e+09	-0.0628995	-0.08594127	0.001088826	0.00311827	0.02086947	-0.02611187	0.000573078	0.002726524	
0.001088826	0.00311827	-0.07252221	-0.1058368	0.0003587704	0.002399729	0.005176011	-0.03648265	
0.02086947	-0.02611187	0.0003587704	0.002399729	-0.06046413	-0.1172475	-4.768272e-05	0.001922209	
0.000573078	0.002726524	0.005176011	-0.03648265	-4.768272e-05	0.001922209	-0.07132809	-0.1234444	

3.2e+09	-0.0657539	-0.05717915	0.001723212	0.002516311	0.03574751	-0.005318584	0.001097141	0.002213181	
0.001723212	0.002516311	-0.08232043	-0.07244765	0.0008574265	0.001984816	0.01760838	-0.01248082	
0.03574751	-0.005318584	0.0008574265	0.001984816	-0.07117524	-0.0867736	0.0003223003	0.001571796	
0.001097141	0.002213181	0.01760838	-0.01248082	0.0003223003	0.001571796	-0.08145081	-0.09271351	

3.22e+09	-0.04840057	-0.03661835	0.001848189	0.001678306	0.05785721	-0.003224692	0.001136619	0.001503644	
0.001848189	0.001678306	-0.06696523	-0.04493094	0.0009159689	0.001353491	0.03814782	-0.006160219	
0.05785721	-0.003224692	0.0009159689	0.001353491	-0.05688735	-0.06074863	0.0002703133	0.001051201	
0.001136619	0.001503644	0.03814782	-0.006160219	0.0002703133	0.001051201	-0.06991471	-0.06676527	

3.24e+09	-0.02691254	-0.03390653	0.00103989	0.001138186	0.06980087	-0.01245857	0.0002401213	0.001051122	
0.00103989	0.001138186	-0.04416795	-0.03803069	9.642806e-05	0.0009541196	0.04978666	-0.01070242	
0.06980087	-0.01245857	9.642806e-05	0.0009541196	-0.03420406	-0.0549939	-0.0006630004	0.0007273518	
0.0002401213	0.001051122	0.04978666	-0.01070242	-0.0006630004	0.0007273518	-0.05125944	-0.05710952	

3.26e+09	-0.01544623	-0.04678724	-0.0002949524	0.004998505	0.07182957	-0.0228188	-0.001667912	0.00527069	
-0.0002949524	0.004998505	-0.0322174	-0.04808946	-0.001633969	0.00489193	0.05333918	-0.01527764	
0.07182957	-0.0228188	-0.001633969	0.00489193	-0.02142743	-0.06833323	-0.003019531	0.004958454	
-0.001667912	0.00527069	0.05333918	-0.01527764	-0.003019531	0.004958454	-0.03849783	-0.06228466	

3.28e+09	-0.02551286	-0.04859483	0.00704704	-0.001119445	0.06477938	-0.01830508	0.006953088	-0.000224134	
0.00704704	-0.001119445	-0.04052924	-0.05356983	0.006571154	-0.0003312936	0.05290808	-0.01303856	
0.06477938	-0.01830508	0.006571154	-0.0003312936	-0.0349037	-0.07301309	0.006397936	0.0005096186	
0.006953088	-0.000224134	0.05290808	-0.01303856	0.006397936	0.0005096186	-0.04298401	-0.06749737	

3.3e+09	-0.01972584	-0.03305104	0.001622319	0.0009799202	0.08037755	-0.006475779	0.001189846	0.001496539	
0.001622319	0.0009799202	-0.04436875	-0.03030036	0.0008277134	0.001088301	0.06281377	0.002774253	
0.08037755	-0.006475779	0.0008277134	0.001088301	-0.03577955	-0.05340652	0.0003497037	0.001492375	
0.001189846	0.001496539	0.06281377	0.002774253	0.0003497037	0.001492375	-0.04754487	-0.0467059	

3.32e+09	-0.00195226	-0.03079017	0.008681123	0.001475363	0.1000937	-0.01957592	0.00826044	0.00223286	
0.008681123	0.001475363	-0.02479711	-0.01826865	0.007240152	0.002379041	0.08341205	-0.004919504	
0.1000937	-0.01957592	0.007240152	0.002379041	-0.01725066	-0.04363694	0.00673245	0.003025683	
0.00826044	0.00223286	0.08341205	-0.004919504	0.00673245	0.003025683	-0.03038086	-0.03502319	

3.34e+09	0.01213563	-0.03796875	0.0007773403	-0.005869651	0.09953096	-0.03831203	0.001068968	-0.004646113	
0.0007773403	-0.005869651	0.004335055	-0.02017655	0.0005957386	-0.004844911	0.09551765	-0.01862212	
0.09953096	-0.03831203	0.0005957386	-0.004844911	0.001203083	-0.04843106	0.0007181911	-0.003682418	
0.001068968	-0.004646113	0.09551765	-0.01862212	0.0007181911	-0.003682418	-0.003154873	-0.03414456	

3.36e+09	0.0299437	-0.05621882	0.001268693	-0.002273691	0.1019069	-0.04894158	0.001651397	-0.001712463	
0.001268693	-0.002273691	0.01979863	-0.04344212	0.001002877	-0.00129472	0.09571058	-0.03342738	
0.1019069	-0.04894158	0.001002877	-0.00129472	0.0208986	-0.06621741	0.001265232	-0.0007373292	
0.001651397	-0.001712463	0.09571058	-0.03342738	0.001265232	-0.0007373292	0.01308574	-0.05366357	

3.38e+09	0.02601779	-0.07691044	0.001088424	-0.002488698	0.09689248	-0.05599728	0.001463155	-0.002010685	
0.001088424	-0.002488698	0.01557019	-0.06220805	0.001053557	-0.001478287	0.09283853	-0.03819895	
0.09689248	-0.05599728	0.001053557	-0.001478287	0.01695327	-0.0876006	0.001318471	-0.0009872041	
0.001463155	-0.002010685	0.09283853	-0.03819895	0.001318471	-0.0009872041	0.01293121	-0.07036669	

3.4e+09	0.01961209	-0.08460564	0.0006582294	-0.002620908	0.1005187	-0.05932586	0.001083404	-0.002217378	
0.0006582294	-0.002620908	0.009815738	-0.06537421	0.0008320704	-0.001644366	0.09985336	-0.04032918	
0.1005187	-0.05932586	0.0008320704	-0.001644366	0.008782846	-0.09274004	0.00115634	-0.001209744	
0.001083404	-0.002217378	0.09985336	-0.04032918	0.00115634	-0.001209744	0.0109942	-0.07549163	

3.42e+09	0.02356141	-0.09268512	7.547943e-05	-0.002762669	0.1094714	-0.0756547	0.000560686	-0.002433442	
7.547943e-05	-0.002762669	0.01896416	-0.06793574	0.0004516611	-0.001847183	0.1127077	-0.05632914	
0.1094714	-0.0756547	0.0004516611	-0.001847183	0.01483398	-0.09519516	0.0008447301	-0.001469624	
0.000560686	-0.002433442	0.1127077	-0.05632914	0.0008447301	-0.001469624	0.02045296	-0.08116878	

3.44e+09	0.02666424	-0.1142395	-0.0006863493	-0.002678976	0.1039019	-0.1039309	-0.000128639	-0.002439911	
-0.0006863493	-0.002678976	0.03099632	-0.08818089	-0.000112358	-0.001872432	0.1112494	-0.0853863	
0.1039019	-0.1039309	-0.000112358	-0.001872432	0.02505489	-0.1140606	0.0003643639	-0.00156638	
-0.000128639	-0.002439911	0.1112494	-0.0853863	0.0003643639	-0.00156638	0.03090305	-0.1018865	

3.46e+09	0.01325627	-0.1422235	-0.001363429	-0.002240684	0.0788564	-0.1237035	-0.0007392214	-0.002131134	
-0.001363429	-0.002240684	0.02482035	-0.1202757	-0.000621737	-0.00159962	0.08988765	-0.1070974	
0.0788564	-0.1237035	-0.000621737	-0.00159962	0.01839681	-0.1453605	-6.197067e-05	-0.001404734	
-0.0007392214	-0.002131134	0.08988765	-0.1070974	-6.197067e-05	-0.001404734	0.02520884	-0.1321368	

3.48e+09	-0.01638071	-0.1590286	-0.001728941	-0.001633264	0.05180272	-0.1236686	-0.001082809	-0.001687944	
-0.001728941	-0.001633264	-0.002372713	-0.1421902	-0.00088048	-0.001196439	0.06570711	-0.1096148	
0.05180272	-0.1236686	-0.00088048	-0.001196439	-0.009517872	-0.1677702	-0.0002750544	-0.001153664	
-0.001082809	-0.001687944	0.06570711	-0.1096148	-0.0002750544	-0.001153664	0.001585681	-0.1537218	

3.5e+09	-0.04661607	-0.1577776	-0.001846169	-0.001104034	0.03778142	-0.1171903	-0.00124005	-0.001321905	
-0.001846169	-0.001104034	-0.0320258	-0.1426902	-0.000956733	-0.0008742299	0.0540176	-0.1058876	
0.03778142	-0.1171903	-0.000956733	-0.0008742299	-0.04143719	-0.1688292	-0.0003664681	-0.0009906921	
-0.00124005	-0.001321905	0.0540176	-0.1058876	-0.0003664681	-0.0009906921	-0.02474975	-0.1579224	

3.52e+09	-0.06590298	-0.1494221	-0.001901757	-0.0007034814	0.03022093	-0.1173202	-0.001373965	-0.001050095	
-0.001901757	-0.0007034814	-0.04794272	-0.1344902	-0.001011639	-0.0006607381	0.04845697	-0.1090922	
0.03022093	-0.1173202	-0.001011639	-0.0006607381	-0.06024357	-0.1595984	-0.0004778602	-0.0009082628	
-0.001373965	-0.001050095	0.04845697	-0.1090922	-0.0004778602	-0.0009082628	-0.04116565	-0.1548206	

3.54e+09	-0.07894517	-0.1466171	-0.002002384	-0.0003071232	0.01529676	-0.1254508	-0.001561608	-0.0007512153	
-0.002002384	-0.0003071232	-0.05483651	-0.1346414	-0.001132033	-0.0004404511	0.03507817	-0.1207792	
0.01529676	-0.1254508	-0.001132033	-0.0004404511	-0.06894013	-0.1572737	-0.0006666582	-0.0007900016	
-0.001561608	-0.0007512153	0.03507817	-0.1207792	-0.0006666582	-0.0007900016	-0.05144893	-0.1575945	

3.56e+09	-0.1006881	-0.1491077	-0.002050253	0.0002343218	-0.01399642	-0.1269608	-0.001699094	-0.0003035727	
-0.002050253	0.0002343218	-0.07218439	-0.1449061	-0.001225584	-8.312218e-05	0.006584701	-0.1263185	
-0.01399642	-0.1269608	-0.001225584	-8.312218e-05	-0.08643144	-0.1653984	-0.000830877	-0.0005315724	
-0.001699094	-0.0003035727	0.006584701	-0.1263185	-0.000830877	-0.0005315724	-0.07097446	-0.1672865	

3.58e+09	-0.1340149	-0.1409757	-0.001852588	0.0008392019	-0.04421296	-0.1091018	-0.001619944	0.0002060829	
-0.001852588	0.0008392019	-0.1064454	-0.1455991	-0.001124579	0.00033739	-0.02383652	-0.1126252	
-0.04421296	-0.1091018	-0.001124579	0.00033739	-0.1206426	-0.1653211	-0.0008281666	-0.0002158756	
-0.001619944	0.0002060829	-0.02383652	-0.1126252	-0.0008281666	-0.0002158756	-0.1044031	-0.1678612	

3.6e+09	-0.1645797	-0.1131971	-0.001406438	0.00128786	-0.05839314	-0.07993038	-0.001338354	0.0005869393	
-0.001406438	0.00128786	-0.1412155	-0.1231034	-0.000834213	0.0006355	-0.03908851	-0.08730169	
-0.05839314	-0.07993038	-0.000834213	0.0006355	-0.1566592	-0.142449	-0.0006841054	-2.507388e-06	
-0.001338354	0.0005869393	-0.03908851	-0.08730169	-0.0006841054	-2.507388e-06	-0.1381743	-0.1484852	

3.62e+09	-0.1772314	-0.07533981	-0.0009037817	0.001470226	-0.05813561	-0.0572495	-0.001025044	0.0007646009	
-0.0009037817	0.001470226	-0.1565317	-0.0870529	-0.0005163464	0.0007330536	-0.04041531	-0.06812129	
-0.05813561	-0.0572495	-0.0005163464	0.0007330536	-0.1741529	-0.1045589	-0.0005444708	6.791392e-05	
-0.001025044	0.0007646009	-0.04041531	-0.06812129	-0.0005444708	6.791392e-05	-0.1559989	-0.1170847	

3.64e+09	-0.1755791	-0.0438419	-0.0005089401	0.001511412	-0.06105732	-0.04436074	-0.0008005771	0.0008633348	
-0.0005089401	0.001511412	-0.1545489	-0.0585842	-0.0002962858	0.000741518	-0.0454628	-0.05858917	
-0.06105732	-0.04436074	-0.0002962858	0.000741518	-0.1731375	-0.07256703	-0.0004911237	0.0001124823	
-0.0008005771	0.0008633348	-0.0454628	-0.05858917	-0.0004911237	0.0001124823	-0.1599295	-0.09052059	

3.66e+09	-0.1734237	-0.02107871	-0.0001836453	0.001555799	-0.0707924	-0.02831494	-0.0006072865	0.0009925563	
-0.0001836453	0.001555799	-0.1534515	-0.04246935	-0.0001306498	0.0007773979	-0.05803564	-0.04565315	
-0.0707924	-0.02831494	-0.0001306498	0.0007773979	-0.171053	-0.05304793	-0.0004576876	0.0002147863	
-0.0006072865	0.0009925563	-0.05803564	-0.04565315	-0.0004576876	0.0002147863	-0.1637229	-0.0722104	

3.68e+09	-0.1769241	0.004447524	0.0002199198	0.001619537	-0.0798216	0.001407227	-0.0003175867	0.001146735	
0.0002199198	0.001619537	-0.1628711	-0.02413785	0.0001074356	0.000847941	-0.07073726	-0.01855757	
-0.0798216	0.001407227	0.0001074356	0.000847941	-0.1786346	-0.03285005	-0.0003339746	0.0003581439	
-0.0003175867	0.001146735	-0.07073726	-0.01855757	-0.0003339746	0.0003581439	-0.174605	-0.05092578	

3.7e+09	-0.1757546	0.04300689	0.0007537337	0.001536593	-0.07240179	0.03996794	9.936788e-05	0.001174002	
0.0007537337	0.001536593	-0.1712466	0.01161437	0.0004589646	0.0008112833	-0.06774155	0.0183542	
-0.07240179	0.03996794	0.0004589646	0.0008112833	-0.1860619	0.00376749	-0.0001019474	0.0004113347	
9.936788e-05	0.001174002	-0.06774155	0.0183542	-0.0001019474	0.0004113347	-0.1831751	-0.01489881	

3.72e+09	-0.1549207	0.08636948	0.001250212	0.001180821	-0.0465566	0.06936195	0.0004912869	0.0009764757	
0.001250212	0.001180821	-0.1583651	0.0572336	0.0007843499	0.0005672741	-0.04646793	0.04733567	
-0.0465566	0.06936195	0.0007843499	0.0005672741	-0.1731973	0.05110615	0.0001091697	0.0003038961	
0.0004912869	0.0009764757	-0.04646793	0.04733567	0.0001091697	0.0003038961	-0.1730609	0.0294575	

3.74e+09	-0.1159967	0.116443	0.001503804	0.0006525934	-0.01781992	0.08058012	0.0006942301	0.0006519026	
0.001503804	0.0006525934	-0.1232647	0.09034834	0.000923099	0.0002015213	-0.02204436	0.05899172	
-0.01781992	0.08058012	0.000923099	0.0002015213	-0.1371234	0.08745822	0.0001798139	0.0001248716	
0.0006942301	0.0006519026	-0.02204436	0.05899172	0.0001798139	0.0001248716	-0.1433992	0.06384545	

3.76e+09	-0.07569002	0.1268202	0.00151182	0.000180865	0.0003262415	0.08535238	0.0007285902	0.000386632	
0.00151182	0.000180865	-0.08584812	0.1008355	0.0008828338	-0.000105034	-0.008100829	0.06479759	
0.0003262415	0.08535238	0.0008828338	-0.000105034	-0.09639882	0.1008756	0.0001463222	1.641422e-05	
0.0007285902	0.000386632	-0.008100829	0.06479759	0.0001463222	1.641422e-05	-0.110212	0.07975086	

3.78e+09	-0.04416053	0.1306168	0.001468715	-0.0001654125	0.01601465	0.09840944	0.0007619229	0.000210627	
0.001468715	-0.0001654125	-0.06074716	0.103998	0.0008223604	-0.0003057514	0.0033547	0.07977449	
0.01601465	0.09840944	0.0008223604	-0.0003057514	-0.0670381	0.104744	0.0001459782	-1.763919e-05	
0.0007619229	0.000210627	0.0033547	0.07977449	0.0001459782	-1.763919e-05	-0.08503802	0.08951746	

3.8e+09	-0.01423601	0.1372436	0.001445201	-0.0005077452	0.04358832	0.1140868	0.0008313667	6.230167e-06	
0.001445201	-0.0005077452	-0.03955999	0.1143715	0.0007953782	-0.0005070631	0.02705092	0.09850315	
0.04358832	0.1140868	0.0007953782	-0.0005070631	-0.04268919	0.1141167	0.0001974721	-8.42412e-05	
0.0008313667	6.230167e-06	0.02705092	0.09850315	0.0001974721	-8.42412e-05	-0.06115803	0.1035363	

3.82e+09	0.02605897	0.1432795	0.001358628	-0.0009515335	0.08442739	0.1178487	0.0008498779	-0.0003072154	
0.001358628	-0.0009515335	-0.005162381	0.1292069	0.0007288304	-0.0007940145	0.06500369	0.1064054	
0.08442739	0.1178487	0.0007288304	-0.0007940145	-0.006619749	0.1281091	0.0002194116	-0.0002439295	
0.0008498779	-0.0003072154	0.06500369	0.1064054	0.0002194116	-0.0002439295	-0.02553614	0.1195225	

3.84e+09	0.07602368	0.1339728	0.001055423	-0.001422528	0.1233347	0.1009482	0.0006883626	-0.0006517263	
0.001055423	-0.001422528	0.04465076	0.1291916	0.0005003384	-0.001103246	0.1024504	0.09400024	
0.1233347	0.1009482	0.0005003384	-0.001103246	0.04496861	0.1284246	0.0001131196	-0.000425314	
0.0006883626	-0.0006517263	0.1024504	0.09400024	0.0001131196	-0.000425314	0.02324353	0.1218122	

3.86e+09	0.1203748	0.1035423	0.0005390133	-0.001724317	0.145834	0.07379071	0.0003652464	-0.0008617627	
0.0005390133	-0.001724317	0.09156385	0.1042213	0.0001182191	-0.001281659	0.1244464	0.07098871	
0.145834	0.07379071	0.0001182191	-0.001281659	0.09524481	0.1037377	-9.393791e-05	-0.0005034104	
0.0003652464	-0.0008617627	0.1244464	0.07098871	-9.393791e-05	-0.0005034104	0.07007968	0.1021766	

3.88e+09	0.1465903	0.06316512	-6.650975e-06	-0.001756087	0.1554913	0.05298201	3.963863e-05	-0.0008729105	
-6.650975e-06	-0.001756087	0.1183155	0.06669726	-0.0002732922	-0.001257649	0.1339944	0.05419709	
0.1554913	0.05298201	-0.0002732922	-0.001257649	0.1261772	0.06441816	-0.0002773419	-0.0004464362	
3.963863e-05	-0.0008729105	0.1339944	0.05419709	-0.0002773419	-0.0004464362	0.100677	0.07055766	

3.9e+09	0.1590212	0.02784144	-0.0004137442	-0.001636302	0.1694465	0.03993994	-0.0001688423	-0.0008026027	
-0.0004137442	-0.001636302	0.1290069	0.03638613	-0.0005486442	-0.00113039	0.1484887	0.04545424	
0.1694465	0.03993994	-0.0005486442	-0.00113039	0.139481	0.03032763	-0.0003608238	-0.0003583135	
-0.0001688423	-0.0008026027	0.1484887	0.04545424	-0.0003608238	-0.0003583135	0.1181135	0.04280311	

3.92e+09	0.1719582	-0.00274018	-0.0007320776	-0.001532079	0.1907299	0.01885854	-0.0003289576	-0.0007764824	
-0.0007320776	-0.001532079	0.1427924	0.01443357	-0.0007543989	-0.001027741	0.1715305	0.02860957	
0.1907299	0.01885854	-0.0007543989	-0.001027741	0.1537301	0.004956323	-0.0004146319	-0.0003264003	
-0.0003289576	-0.0007764824	0.1715305	0.02860957	-0.0004146319	-0.0003264003	0.1372545	0.01962196	

3.94e+09	0.1863853	-0.03903978	-0.001084888	-0.001425151	0.2055387	-0.01650043	-0.0005425369	-0.0007558548	
-0.001084888	-0.001425151	0.1632688	-0.01402377	-0.0009884779	-0.0009311688	0.1891414	-0.003289918	
0.2055387	-0.01650043	-0.0009884779	-0.0009311688	0.1741298	-0.02545122	-0.0005181126	-0.0003081222	
-0.0005425369	-0.0007558548	0.1891414	-0.003289918	-0.0005181126	-0.0003081222	0.1600319	-0.01025288	

3.96e+09	0.1932358	-0.08710319	-0.001502799	-0.001211308	0.2030137	-0.05665189	-0.0008191151	-0.0006471303	
-0.001502799	-0.001211308	0.1785097	-0.0590088	-0.001271098	-0.0007604355	0.1898187	-0.04111308	
0.2030137	-0.05665189	-0.001271098	-0.0007604355	0.1904306	-0.07175269	-0.0006682641	-0.0002306237	
-0.0008191151	-0.0006471303	0.1898187	-0.04111308	-0.0006682641	-0.0002306237	0.1771607	-0.05431564	

3.98e+09	0.1813851	-0.1390158	-0.001875465	-0.0008011144	0.1866439	-0.08682336	-0.001057963	-0.0003892547	
-0.001875465	-0.0008011144	0.1727041	-0.1116845	-0.001521376	-0.0004509411	0.1764047	-0.06965843	
0.1866439	-0.08682336	-0.001521376	-0.0004509411	0.1865575	-0.1270129	-0.0007897429	-5.841084e-05	
-0.001057963	-0.0003892547	0.1764047	-0.06965843	-0.0007897429	-5.841084e-05	0.1758819	-0.1052923	

4e+09	0.1528415	-0.1801225	-0.002047434	-0.0002553843	0.1703212	-0.1039563	-0.001144078	-4.59509e-05	
-0.002047434	-0.0002553843	0.146951	-0.1529716	-0.001627273	-4.516962e-05	0.163032	-0.08521656	
0.1703212	-0.1039563	-0.001627273	-4.516962e-05	0.1616766	-0.1726747	-0.000809455	0.0001585154	
-0.001144078	-4.59509e-05	0.163032	-0.08521656	-0.000809455	0.0001585154	0.1569459	-0.1476761	

4.02e+09	0.1217071	-0.2054925	-0.001992166	0.0002410786	0.1618396	-0.1190832	-0.001078193	0.00023824	
-0.001992166	0.0002410786	0.1190284	-0.1756853	-0.001567027	0.0003216644	0.1581119	-0.09900274	
0.1618396	-0.1190832	-0.001567027	0.0003216644	0.1322104	-0.1997254	-0.0007369374	0.0003231861	
-0.001078193	0.00023824	0.1581119	-0.09900274	-0.0007369374	0.0003231861	0.1344751	-0.175378	

4.04e+09	0.09658278	-0.2256599	-0.001875896	0.0005943487	0.1522401	-0.1437752	-0.001001807	0.0004135287	
-0.001875896	0.0005943487	0.1009618	-0.1932454	-0.001465562	0.0005784826	0.1525466	-0.1233536	
0.1522401	-0.1437752	-0.001465562	0.0005784826	0.1115186	-0.2196632	-0.0006771802	0.0004102764	
-0.001001807	0.0004135287	0.1525466	-0.1233536	-0.0006771802	0.0004102764	0.1178748	-0.1988479	

4.06e+09	0.06992554	-0.250462	-0.001806231	0.0009199235	0.1290122	-0.1696474	-0.0009799125	0.0005876276	
-0.001806231	0.0009199235	0.08311315	-0.2199293	-0.00140441	0.0008114903	0.1330842	-0.1499227	
0.1290122	-0.1696474	-0.00140441	0.0008114903	0.09218747	-0.2474879	-0.0006671872	0.0005044067	
-0.0009799125	0.0005876276	0.1330842	-0.1499227	-0.0006671872	0.0005044067	0.09967554	-0.2286812	

4.08e+09	0.03182154	-0.2747735	-0.001715384	0.001326756	0.09544134	-0.1841801	-0.0009438024	0.0008385363	
-0.001715384	0.001326756	0.0510914	-0.2498497	-0.00133688	0.001104785	0.1026829	-0.1656687	
0.09544134	-0.1841801	-0.00133688	0.001104785	0.05978489	-0.279252	-0.0006541215	0.0006591641	
-0.0009438024	0.0008385363	0.1026829	-0.1656687	-0.0006541215	0.0006591641	0.0690407	-0.2601134	

4.1e+09	-0.01843197	-0.2867382	-0.001474904	0.001809055	0.06319645	-0.1846869	-0.0007945708	0.001147934	
-0.001474904	0.001809055	0.002892516	-0.2672943	-0.001169996	0.001462485	0.07324344	-0.1674086	
0.06319645	-0.1846869	-0.001169996	0.001462485	0.01064553	-0.3001913	-0.0005705773	0.0008617214	
-0.0007945708	0.001147934	0.07324344	-0.1674086	-0.0005705773	0.0008617214	0.02432558	-0.2808083	

4.12e+09	-0.06830617	-0.2791443	-0.001007955	0.002214828	0.03993348	-0.1792251	-0.0004853477	0.001395297	
-0.001007955	0.002214828	-0.04598444	-0.2622895	-0.0008343717	0.001780384	0.05304991	-0.1633096	
0.03993348	-0.1792251	-0.0008343717	0.001780384	-0.04155301	-0.2989964	-0.0003804573	0.001033496	
-0.0004853477	0.001395297	0.05304991	-0.1633096	-0.0003804573	0.001033496	-0.0222018	-0.2824789	

4.14e+09	-0.1054276	-0.2604188	-0.0004340763	0.002379125	0.02217179	-0.1775006	-0.0001170558	0.001467037	
-0.0004340763	0.002379125	-0.07958473	-0.2450821	-0.0004047809	0.00192582	0.03861332	-0.1638311	
0.02217179	-0.1775006	-0.0004047809	0.00192582	-0.08020287	-0.2834309	-0.0001471933	0.001093841	
-0.0001170558	0.001467037	0.03861332	-0.1638311	-0.0001471933	0.001093841	-0.05750004	-0.2728572	

4.16e+09	-0.1325796	-0.2445883	3.501358e-05	0.00235444	-0.001147388	-0.1796163	0.0001559615	0.001420866	
3.501358e-05	0.00235444	-0.1013525	-0.233764	-4.78119e-05	0.001924706	0.01803827	-0.1692917	
-0.001147388	-0.1796163	-4.78119e-05	0.001924706	-0.1061102	-0.2713186	2.047895e-05	0.001081306	
0.0001559615	0.001420866	0.01803827	-0.1692917	2.047895e-05	0.001081306	-0.08386851	-0.2661589	

4.18e+09	-0.1634988	-0.2320322	0.0003963533	0.002354878	-0.03361731	-0.1732689	0.0003527168	0.001423451	
0.0003963533	0.002354878	-0.1291888	-0.2295541	0.0002232231	0.001943221	-0.01272683	-0.1666548	
-0.03361731	-0.1732689	0.0002232231	0.001943221	-0.1362061	-0.2663992	0.0001378731	0.001116923	
0.0003527168	0.001423451	-0.01272683	-0.1666548	0.0001378731	0.001116923	-0.1151843	-0.2633958	

4.2e+09	-0.2010165	-0.2102048	0.0008299786	0.002407975	-0.06248838	-0.1527419	0.0006201678	0.001476114	
0.0008299786	0.002407975	-0.1683105	-0.215971	0.0005462389	0.002014662	-0.04050092	-0.1497912	
-0.06248838	-0.1527419	0.0005462389	0.002014662	-0.177635	-0.2535949	0.0003144492	0.001200915	
0.0006201678	0.001476114	-0.04050092	-0.1497912	0.0003144492	0.001200915	-0.1551709	-0.2518326	

4.22e+09	-0.2340383	-0.171604	0.0014284	0.002370036	-0.07994022	-0.1253844	0.001019456	0.001460976	
0.0014284	0.002370036	-0.2049058	-0.1823721	0.001008025	0.002037256	-0.05710627	-0.1261241	
-0.07994022	-0.1253844	0.001008025	0.002037256	-0.2185661	-0.2210212	0.0006010258	0.001250459	
0.001019456	0.001460976	-0.05710627	-0.1261241	0.0006010258	0.001250459	-0.1931358	-0.2230407	

4.24e+09	-0.2494363	-0.1229002	0.002098222	0.002056956	-0.08743722	-0.100656	0.001469358	0.001241616	
0.002098222	0.002056956	-0.2222069	-0.1364355	0.001556699	0.001856254	-0.06395499	-0.1056855	
-0.08743722	-0.100656	0.001556699	0.001856254	-0.2419457	-0.1736636	0.0009501234	0.001159296	
0.001469358	0.001241616	-0.06395499	-0.1056855	0.0009501234	0.001159296	-0.2155355	-0.1825289	

4.26e+09	-0.247141	-0.08020562	0.002578031	0.001463157	-0.09318898	-0.08195501	0.001772464	0.0008255722	
0.002578031	0.001463157	-0.2198026	-0.09800034	0.001986295	0.001438366	-0.07008283	-0.09209685	
-0.09318898	-0.08195501	0.001986295	0.001438366	-0.2443454	-0.1304135	0.001217137	0.0009156476	
0.001772464	0.0008255722	-0.07008283	-0.09209685	0.001217137	0.0009156476	-0.2211309	-0.1462524	

4.28e+09	-0.2415708	-0.04949948	0.002755385	0.0008496154	-0.1035432	-0.06278211	0.001858149	0.0004157882	
0.002755385	0.0008496154	-0.2158394	-0.0746989	0.002182777	0.0009817575	-0.08246805	-0.07804071	
-0.1035432	-0.06278211	0.002182777	0.0009817575	-0.2418153	-0.1017491	0.001337543	0.0006640204	
0.001858149	0.0004157882	-0.08246805	-0.07804071	0.001337543	0.0006640204	-0.2239673	-0.1208462	

4.3e+09	-0.2419843	-0.01963964	0.002839413	0.0003887342	-0.1129531	-0.03337248	0.001899421	0.0001305154	
0.002839413	0.0003887342	-0.2224634	-0.05221929	0.002302897	0.0006404682	-0.09506642	-0.05291329	
-0.1129531	-0.03337248	0.002302897	0.0006404682	-0.2484495	-0.0758164	0.001438757	0.0004970617	
0.001899421	0.0001305154	-0.09506642	-0.05291329	0.001438757	0.0004970617	-0.2337712	-0.0955907	

4.32e+09	-0.2385967	0.02146209	0.003028633	-8.039721e-05	-0.1089365	0.002700401	0.002043027	-0.0001725417	
0.003028633	-8.039721e-05	-0.228094	-0.01443039	0.002518938	0.0002979665	-0.09472615	-0.02037671	
-0.1089365	0.002700401	0.002518938	0.0002979665	-0.2554957	-0.03549841	0.001635034	0.0003085882	
0.002043027	-0.0001725417	-0.09472615	-0.02037671	0.001635034	0.0003085882	-0.2415892	-0.05751011	

4.34e+09	-0.2175085	0.06616707	0.00318789	-0.0007727042	-0.09142497	0.03181965	0.002164686	-0.0006601176	
0.00318789	-0.0007727042	-0.2144314	0.03078543	0.00274135	-0.0002349539	-0.08141104	0.005550048	
-0.09142497	0.03181965	0.00274135	-0.0002349539	-0.2441496	0.01433411	0.001838972	-3.96577e-05	
0.002164686	-0.0006601176	-0.08141104	0.005550048	0.001838972	-3.96577e-05	-0.2327433	-0.01289013	

4.36e+09	-0.1788643	0.09849418	0.003057885	-0.001663131	-0.06985723	0.04933365	0.002061816	-0.001298998	
0.003057885	-0.001663131	-0.1804473	0.063758	0.002753323	-0.0009670063	-0.06499227	0.02019307	
-0.06985723	0.04933365	0.002753323	-0.0009670063	-0.2103888	0.05456699	0.001888776	-0.0005401711	
0.002061816	-0.001298998	-0.06499227	0.02019307	0.001888776	-0.0005401711	-0.2057477	0.02246036	

4.38e+09	-0.1380411	0.1103546	0.002509123	-0.002450603	-0.05286792	0.05996688	0.001645688	-0.001849808	
0.002509123	-0.002450603	-0.1444841	0.07412728	0.00241574	-0.001663336	-0.05450575	0.02905447	
-0.05286792	0.05996688	0.00241574	-0.001663336	-0.170385	0.07204352	0.001693526	-0.001015	
0.001645688	-0.001849808	-0.05450575	0.02905447	0.001693526	-0.001015	-0.1749954	0.03937273	

4.4e+09	-0.1086017	0.1124211	0.001784166	-0.002868503	-0.03958393	0.07327008	0.001114624	-0.002118013	
0.001784166	-0.002868503	-0.1233417	0.07493395	0.001904985	-0.002082134	-0.04836266	0.04263742	
-0.03958393	0.07327008	0.001904985	-0.002082134	-0.142931	0.07631806	0.001391832	-0.001300996	
0.001114624	-0.002118013	-0.04836266	0.04263742	0.001391832	-0.001300996	-0.1544906	0.04743897	

4.42e+09	-0.08509183	0.1196474	0.001193983	-0.003046373	-0.01979819	0.0909552	0.0007018082	-0.002219906	
0.001193983	-0.003046373	-0.1101282	0.08530109	0.001486105	-0.002308638	-0.03521154	0.06249042	
-0.01979819	0.0909552	0.001486105	-0.002308638	-0.1248506	0.08729149	0.001165811	-0.001478452	
0.0007018082	-0.002219906	-0.03521154	0.06249042	0.001165811	-0.001478452	-0.1395326	0.06200722	

4.44e+09	-0.05233019	0.1301754	0.0006961031	-0.003279129	0.01222383	0.1015771	0.0003551132	-0.002387232	
0.0006961031	-0.003279129	-0.08520528	0.1036937	0.001140216	-0.002591338	-0.008986683	0.07641941	
0.01222383	0.1015771	0.001140216	-0.002591338	-0.09683738	0.1066844	0.0009775521	-0.001730706	
0.0003551132	-0.002387232	-0.008986683	0.07641941	0.0009775521	-0.001730706	-0.1144613	0.08221849	

4.46e+09	-0.007987914	0.1269289	-1.24812e-06	-0.0035756	0.04522953	0.09574436	-0.0001627061	-0.002607929	
-1.24812e-06	-0.0035756	-0.04386748	0.1090688	0.0006230459	-0.002956565	0.01875827	0.07468532	
0.04522953	0.09574436	0.0006230459	-0.002956565	-0.05123035	0.1146879	0.0006347917	-0.002054361	
-0.0001627061	-0.002607929	0.01875827	0.07468532	0.0006347917	-0.002054361	-0.07512078	0.09099928	

4.48e+09	0.03059392	0.1034093	-0.0009660399	-0.003612876	0.06691573	0.08043458	-0.0008903234	-0.002615308	
-0.0009660399	-0.003612876	-0.006273039	0.09154533	-0.0001540876	-0.003139321	0.03552027	0.06465656	
0.06691573	0.08043458	-0.0001540876	-0.003139321	-0.006400022	0.09848827	8.517031e-05	-0.002236379	
-0.0008903234	-0.002615308	0.03552027	0.06465656	8.517031e-05	-0.002236379	-0.03807971	0.07997941	

4.5e+09	0.05061871	0.07082352	-0.001927554	-0.003190305	0.07845769	0.0673034	-0.001599699	-0.002266038	
-0.001927554	-0.003190305	0.01103653	0.06384816	-0.0009807711	-0.002944874	0.04306017	0.05846519	
0.07845769	0.0673034	-0.0009807711	-0.002944874	0.0191783	0.0679421	-0.0005004116	-0.002141922	
-0.001599699	-0.002266038	0.04306017	0.05846519	-0.0005004116	-0.002141922	-0.01702465	0.05894467	

4.52e+09	0.05611923	0.04634178	-0.002537721	-0.002464381	0.08971972	0.06060333	-0.00202903	-0.001698338	
-0.002537721	-0.002464381	0.01275989	0.04713647	-0.001555645	-0.002476068	0.05239085	0.05999966	
0.08971972	0.06060333	-0.001555645	-0.002476068	0.02624783	0.04486384	-0.0009062668	-0.001863072	
-0.00202903	-0.001698338	0.05239085	0.05999966	-0.0009062668	-0.001863072	-0.009044213	0.04513885	

4.54e+09	0.06362227	0.03214768	-0.002798707	-0.001802261	0.1077138	0.0524611	-0.002197044	-0.001196872	
-0.002798707	-0.001802261	0.0196434	0.04418204	-0.001858849	-0.0020357	0.07082996	0.06010644	
0.1077138	0.0524611	-0.001858849	-0.0020357	0.0346554	0.03580409	-0.001138783	-0.001618522	
-0.002197044	-0.001196872	0.07082996	0.06010644	-0.001138783	-0.001618522	0.002254324	0.0414908	

4.56e+09	0.07931699	0.01407995	-0.003010251	-0.001310144	0.1263234	0.0331474	-0.00234281	-0.0008273324	
-0.003010251	-0.001310144	0.04015231	0.03684571	-0.002131993	-0.001724606	0.09153265	0.04829032	
0.1263234	0.0331474	-0.002131993	-0.001724606	0.05574778	0.0246342	-0.001382057	-0.001460973	
-0.00234281	-0.0008273324	0.09153265	0.04829032	-0.001382057	-0.001460973	0.02403379	0.03388016	

4.58e+09	0.09068849	-0.01773321	-0.003339717	-0.0007440675	0.1324498	0.005153032	-0.002587297	-0.0003871358	
-0.003339717	-0.0007440675	0.05914464	0.01160801	-0.002527705	-0.001347402	0.1006858	0.02718032	
0.1324498	0.005153032	-0.002527705	-0.001347402	0.07699786	-0.004157116	-0.001737242	-0.001227761	
-0.002587297	-0.0003871358	0.1006858	0.02718032	-0.001737242	-0.001227761	0.04431448	0.01100285	

4.6e+09	0.08331399	-0.05355647	-0.003560841	0.0001181253	0.1252559	-0.01636194	-0.002732792	0.0002906041	
-0.003560841	0.0001181253	0.05776712	-0.02103579	-0.00287156	-0.0006989491	0.09761154	0.01250277	
0.1252559	-0.01636194	-0.00287156	-0.0006989491	0.0781947	-0.04324239	-0.002049046	-0.0007710022	
-0.002732792	0.0002906041	0.09761154	0.01250277	-0.002049046	-0.0007710022	0.04744882	-0.01870876	

4.62e+09	0.06224834	-0.07566651	-0.003357483	0.001104534	0.1168627	-0.02641117	-0.002537432	0.001050001	
-0.003357483	0.001104534	0.04092139	-0.03898799	-0.002883235	0.0001037079	0.09532893	0.008991094	
0.1168627	-0.02641117	-0.002883235	0.0001037079	0.06043064	-0.07001945	-0.002109639	-0.0001968194	
-0.002537432	0.001050001	0.09532893	0.008991094	-0.002109639	-0.0001968194	0.03712268	-0.03717584	

4.64e+09	0.04398198	-0.08137352	-0.002758131	0.001847105	0.1154045	-0.03285424	-0.002043451	0.001605152	
-0.002758131	0.001847105	0.02885841	-0.03857864	-0.002557389	0.0007546208	0.1021322	0.007401377	
0.1154045	-0.03285424	-0.002557389	0.0007546208	0.04291915	-0.07695239	-0.001933107	0.000265834	
-0.002043451	0.001605152	0.1021322	0.007401377	-0.001933107	0.000265834	0.02945404	-0.04092478	

4.66e+09	0.03801808	-0.08412633	-0.002102344	0.002194603	0.1175077	-0.04558531	-0.00152086	0.001853503	
-0.002102344	0.002194603	0.03327245	-0.03675624	-0.002161716	0.001108588	0.1133467	-0.003133591	
0.1175077	-0.04558531	-0.002161716	0.001108588	0.04054346	-0.07828982	-0.001722797	0.0005280274	
-0.00152086	0.001853503	0.1133467	-0.003133591	-0.001722797	0.0005280274	0.03435422	-0.04312117	

4.68e+09	0.03523586	-0.0966365	-0.001635705	0.002378187	0.1125475	-0.06456096	-0.001148679	0.001984768	
-0.001635705	0.002378187	0.04251121	-0.04964075	-0.001906977	0.001341738	0.1170584	-0.02195764	
0.1125475	-0.06456096	-0.001906977	0.001341738	0.04500474	-0.0920246	-0.001617374	0.0007336735	
-0.001148679	0.001984768	0.1170584	-0.02195764	-0.001617374	0.0007336735	0.04293715	-0.05686793	

4.7e+09	0.02134388	-0.11405	-0.001231079	0.002667968	0.09654282	-0.07894344	-0.0008160681	0.002203754	
-0.001231079	0.002667968	0.03808282	-0.071539	-0.001701592	0.001683278	0.1093306	-0.03727453	
0.09654282	-0.07894344	-0.001701592	0.001683278	0.03724362	-0.1158821	-0.001528888	0.001046068	
-0.0008160681	0.002203754	0.1093306	-0.03727453	-0.001528888	0.001046068	0.04038506	-0.07813082	

4.72e+09	-0.00382631	-0.119889	-0.0005794141	0.003014521	0.07854558	-0.08010735	-0.0002789875	0.002459326	
-0.0005794141	0.003014521	0.01905461	-0.08221375	-0.001281398	0.002115007	0.100075	-0.04036791	
0.07854558	-0.08010735	-0.001281398	0.002115007	0.01276932	-0.1300446	-0.001253737	0.001434151	
-0.0002789875	0.002459326	0.100075	-0.04036791	-0.001253737	0.001434151	0.02531322	-0.09035727	

4.74e+09	-0.02321008	-0.1089144	0.0003342257	0.003041491	0.07091385	-0.07514152	0.0004563537	0.002445586	
0.0003342257	0.003041491	0.005491695	-0.07439157	-0.0005980545	0.002322536	0.1017569	-0.03970813	
0.07091385	-0.07514152	-0.0005980545	0.002322536	-0.009906535	-0.1234231	-0.0007712794	0.001646505	
0.0004563537	0.002445586	0.1017569	-0.03970813	-0.0007712794	0.001646505	0.01415674	-0.08752247	

4.76e+09	-0.025996	-0.09522123	0.001134392	0.002604695	0.07075632	-0.07581051	0.0010852	0.002067615	
0.001134392	0.002604695	0.01064528	-0.06508518	5.04589e-05	0.002150708	0.109717	-0.04788174	
0.07075632	-0.07581051	5.04589e-05	0.002150708	-0.0139036	-0.109904	-0.000317184	0.001583037	
0.0010852	0.002067615	0.109717	-0.04788174	-0.000317184	0.001583037	0.01768876	-0.08290597	

4.78e+09	-0.020404	-0.09319042	0.001543368	0.001987405	0.06714594	-0.08404004	0.001401396	0.001560237	
0.001543368	0.001987405	0.02408008	-0.07140818	0.0004154794	0.001811463	0.1113684	-0.06535775	
0.06714594	-0.08404004	0.0004154794	0.001811463	-0.005568018	-0.1090479	-6.233086e-05	0.00141683	
0.001401396	0.001560237	0.1113684	-0.06535775	-6.233086e-05	0.00141683	0.02803098	-0.09047521	

4.8e+09	-0.02219411	-0.1011129	0.001684893	0.001525519	0.05461584	-0.09083496	0.001515463	0.001179374	
0.001684893	0.001525519	0.02648582	-0.09086872	0.0005789509	0.001584971	0.1017413	-0.08140521	
0.05461584	-0.09083496	0.0005789509	0.001584971	-0.004772242	-0.1226072	7.54263e-05	0.001344887	
0.001515463	0.001179374	0.1017413	-0.08140521	7.54263e-05	0.001344887	0.02979567	-0.1087729	

4.82e+09	-0.03481955	-0.1041855	0.001867743	0.001222031	0.03970976	-0.08804978	0.001666363	0.0009142735	
0.001867743	0.001222031	0.01344556	-0.1051337	0.0007948082	0.001489169	0.08860385	-0.08780333	
0.03970976	-0.08804978	0.0007948082	0.001489169	-0.0195355	-0.1329524	0.000283859	0.001357336	
0.001666363	0.0009142735	0.08860385	-0.08780333	0.000283859	0.001357336	0.01886466	-0.1233963	

4.84e+09	-0.04535122	-0.09440148	0.002180406	0.0007952408	0.0331423	-0.07823017	0.001912325	0.0005399801	
0.002180406	0.0007952408	0.0004300634	-0.1039691	0.00115947	0.001292024	0.08274721	-0.08813224	
0.0331423	-0.07823017	0.00115947	0.001292024	-0.03609367	-0.1268759	0.0006194199	0.001269661	
0.001912325	0.0005399801	0.08274721	-0.08813224	0.0006194199	0.001269661	0.007271558	-0.1257299	

4.86e+09	-0.04034205	-0.08191369	0.002336162	5.872652e-05	0.03670744	-0.07345029	0.002016582	-8.078985e-05	
0.002336162	5.872652e-05	0.003270968	-0.09896696	0.001446723	0.0008064265	0.08441633	-0.09485675	
0.03670744	-0.07345029	0.001446723	0.0008064265	-0.03572622	-0.1129653	0.000895317	0.000948063	
0.002016582	-8.078985e-05	0.08441633	-0.09485675	0.000895317	0.000948063	0.008147096	-0.1245338	

4.88e+09	-0.02724541	-0.08385275	0.002040306	-0.0006874316	0.037849	-0.07955209	0.001753043	-0.0006917792	
0.002040306	-0.0006874316	0.01390057	-0.1094811	0.001378785	0.000253527	0.07973849	-0.1117232	
0.037849	-0.07955209	0.001378785	0.000253527	-0.02227053	-0.1132001	0.0009065294	0.0005796383	
0.001753043	-0.0006917792	0.07973849	-0.1117232	0.0009065294	0.0005796383	0.0150706	-0.1357259	

4.9e+09	-0.02304278	-0.0989422	0.001481401	-0.001096739	0.02918078	-0.08658393	0.001291196	-0.001027284	
0.001481401	-0.001096739	0.01273864	-0.1340863	0.001083411	-6.400783e-05	0.0628583	-0.1267383	
0.02918078	-0.08658393	0.001083411	-6.400783e-05	-0.0164837	-0.1308861	0.000772768	0.0003816405	
0.001291196	-0.001027284	0.0628583	-0.1267383	0.000772768	0.0003816405	0.01262073	-0.1582776	

4.92e+09	-0.03322948	-0.112109	0.00100554	-0.00118456	0.01632011	-0.08515725	0.0009009645	-0.001116139	
0.00100554	-0.00118456	-0.006480157	-0.1550647	0.0008446841	-0.0001390339	0.04140107	-0.1309408	
0.01632011	-0.08515725	0.0008446841	-0.0001390339	-0.02886585	-0.1489182	0.0007007781	0.0003334587	
0.0009009645	-0.001116139	0.04140107	-0.1309408	0.0007007781	0.0003334587	-0.004721356	-0.1783975	

4.94e+09	-0.04681481	-0.1129095	0.0007278521	-0.00121543	0.009071202	-0.07686055	0.0006575258	-0.001167587	
0.0007278521	-0.00121543	-0.03089444	-0.1598315	0.0007696225	-0.0001827397	0.02527217	-0.1272956	
0.009071202	-0.07686055	0.0007696225	-0.0001827397	-0.04835216	-0.1516901	0.0007451157	0.0002724967	
0.0006575258	-0.001167587	0.02527217	-0.1272956	0.0007451157	0.0002724967	-0.0272011	-0.1856175	

4.96e+09	-0.05059614	-0.1079621	0.0004655379	-0.001367743	0.00976646	-0.07104788	0.000411235	-0.001309129	
0.0004655379	-0.001367743	-0.04446203	-0.1554671	0.0007152805	-0.0003584044	0.01568314	-0.1251814	
0.00976646	-0.07104788	0.0007152805	-0.0003584044	-0.05691399	-0.1439685	0.0007852252	9.245952e-05	
0.000411235	-0.001309129	0.01568314	-0.1251814	0.0007852252	9.245952e-05	-0.04200781	-0.1848981	

4.98e+09	-0.04692645	-0.1121263	-1.314827e-05	-0.001506643	0.01076455	-0.07439727	-1.322651e-05	-0.001424439	
-1.314827e-05	-0.001506643	-0.04893447	-0.1592618	0.0004678899	-0.0005727502	0.004601912	-0.1297684	
0.01076455	-0.07439727	0.0004678899	-0.0005727502	-0.05328818	-0.1444439	0.0006637247	-0.0001231339	
-1.322651e-05	-0.001424439	0.004601912	-0.1297684	0.0006637247	-0.0001231339	-0.04984328	-0.1898563	

5e+09	-0.05154292	-0.1285411	-0.0006212449	-0.001335915	0.001763008	-0.08053971	-0.0005315614	-0.001280773	
-0.0006212449	-0.001335915	-0.06175799	-0.1754691	7.131294e-05	-0.000563314	-0.01659284	-0.1332912	
0.001763008	-0.08053971	7.131294e-05	-0.000563314	-0.05538056	-0.1612023	0.000428444	-0.0001749582	
-0.0005315614	-0.001280773	-0.01659284	-0.1332912	0.000428444	-0.0001749582	-0.06434287	-0.2043182	

5.02e+09	-0.07248939	-0.1411097	-0.001013728	-0.000858488	-0.01337173	-0.07747046	-0.000869456	-0.0008975224	
-0.001013728	-0.000858488	-0.09238214	-0.186593	-0.0001884877	-0.0003036445	-0.04182309	-0.1248512	
-0.01337173	-0.07747046	-0.0001884877	-0.0003036445	-0.07701898	-0.1775551	0.0002933193	-6.146461e-05	
-0.000869456	-0.0008975224	-0.04182309	-0.1248512	0.0002933193	-6.146461e-05	-0.09346506	-0.2145452	

5.04e+09	-0.09864702	-0.1384513	-0.001090671	-0.0003508062	-0.02348976	-0.06603984	-0.0009650168	-0.0004959513	
-0.001090671	-0.0003508062	-0.1287584	-0.1791862	-0.0002131063	-1.295948e-05	-0.06021591	-0.107172	
-0.02348976	-0.06603984	-0.0002131063	-1.295948e-05	-0.1078807	-0.1768063	0.0003081814	5.116611e-05	
-0.0009650168	-0.0004959513	-0.06021591	-0.107172	0.0003081814	5.116611e-05	-0.1279548	-0.2096235	

5.06e+09	-0.1156777	-0.1248331	-0.001000962	-8.735262e-06	-0.02527505	-0.05490141	-0.0009407155	-0.0002157982	
-0.001000962	-8.735262e-06	-0.153935	-0.157413	-0.0001132228	0.0001422386	-0.06963455	-0.0890961	
-0.02527505	-0.05490141	-0.0001132228	0.0001422386	-0.1294149	-0.1606723	0.0003801842	5.961616e-05	
-0.0009407155	-0.0002157982	-0.06963455	-0.0890961	0.0003801842	5.961616e-05	-0.1543241	-0.1920091	

5.08e+09	-0.1221201	-0.114438	-0.000956673	0.0002078889	-0.02473729	-0.05000814	-0.0009520719	-1.562118e-05	
-0.000956673	0.0002078889	-0.1649656	-0.1378349	-6.881444e-05	0.000182016	-0.07625352	-0.07543281	
-0.02473729	-0.05000814	-6.881444e-05	0.000182016	-0.1361698	-0.1462799	0.0003856221	-4.634827e-06	
-0.0009520719	-1.562118e-05	-0.07625352	-0.07543281	0.0003856221	-4.634827e-06	-0.1693844	-0.1744862	

5.1e+09	-0.1306634	-0.1128652	-0.0009814647	0.0005031058	-0.02971909	-0.04819454	-0.001004641	0.0002594436	
-0.0009814647	0.0005031058	-0.1760125	-0.1283505	-0.0001190683	0.0002811894	-0.08653994	-0.06255244	
-0.02971909	-0.04819454	-0.0001190683	0.0002811894	-0.1422263	-0.1440752	0.0003087103	-1.082302e-05	
-0.001004641	0.0002594436	-0.08653994	-0.06255244	0.0003087103	-1.082302e-05	-0.1836109	-0.1638215	

5.12e+09	-0.1507859	-0.1093113	-0.0008693749	0.0009591233	-0.04058072	-0.0406658	-0.0009362389	0.0006631395	
-0.0008693749	0.0009591233	-0.1987789	-0.1173235	-9.632742e-05	0.0005332291	-0.09948325	-0.04270025	
-0.04058072	-0.0406658	-9.632742e-05	0.0005332291	-0.162091	-0.1436584	0.0002770159	0.0001041565	
-0.0009362389	0.0006631395	-0.09948325	-0.04270025	0.0002770159	0.0001041565	-0.2065824	-0.1515834	

5.14e+09	-0.1749856	-0.09047156	-0.0004622281	0.001378256	-0.04711603	-0.02355282	-0.000630089	0.001033468	
-0.0004622281	0.001378256	-0.2256813	-0.0894447	0.0001507869	0.0007885832	-0.1050537	-0.01390521	
-0.04711603	-0.02355282	0.0001507869	0.0007885832	-0.1906145	-0.1272202	0.0003977098	0.0002239334	
-0.000630089	0.001033468	-0.1050537	-0.01390521	0.0003977098	0.0002239334	-0.2329476	-0.1253245	

5.16e+09	-0.186682	-0.05878898	0.0001185239	0.0015247	-0.04326152	-0.005557278	-0.0001888427	0.001194059	
0.0001185239	0.0015247	-0.2377374	-0.04638374	0.0005418332	0.000846785	-0.0987105	0.01469955	
-0.04326152	-0.005557278	0.0005418332	0.000846785	-0.2075236	-0.09322127	0.0006027472	0.0002115988	
-0.0001888427	0.001194059	-0.0987105	0.01469955	0.0006027472	0.0002115988	-0.2473837	-0.08561593	

5.18e+09	-0.1825966	-0.02941069	0.0006313541	0.001400575	-0.03434851	0.005655567	0.0002065389	0.001155181	
0.0006313541	0.001400575	-0.2298262	-0.005416154	0.0008809698	0.000692558	-0.08613019	0.03643597	
-0.03434851	0.005655567	0.0008809698	0.000692558	-0.2049274	-0.0589943	0.0007564232	7.005142e-05	
0.0002065389	0.001155181	-0.08613019	0.03643597	0.0007564232	7.005142e-05	-0.2448627	-0.04591328	

5.2e+09	-0.1738269	-0.01124088	0.0009646919	0.001188578	-0.02810666	0.01139579	0.0004810238	0.001053366	
0.0009646919	0.001188578	-0.2141059	0.02167258	0.001061211	0.0004709066	-0.07403405	0.05286648	
-0.02810666	0.01139579	0.001061211	0.0004709066	-0.1941217	-0.03833151	0.0007961354	-9.42091e-05	
0.0004810238	0.001053366	-0.07403405	0.05286648	0.0007961354	-9.42091e-05	-0.2341169	-0.01624787	

5.22e+09	-0.1717859	0.002878569	0.001239022	0.001041174	-0.02595814	0.01894289	0.0007287189	0.0009933744	
0.001239022	0.001041174	-0.2049907	0.04185488	0.001174762	0.0003246646	-0.06308639	0.07013835	
-0.02595814	0.01894289	0.001174762	0.0003246646	-0.1913011	-0.02562697	0.0007969685	-0.0001868539	
0.0007287189	0.0009933744	-0.06308639	0.07013835	0.0007969685	-0.0001868539	-0.2266713	0.00763828	

5.24e+09	-0.1726938	0.0255936	0.001624224	0.0008741155	-0.02153056	0.03230814	0.001071879	0.0009040136	
0.001624224	0.0008741155	-0.1993671	0.07036471	0.001379745	0.000199547	-0.04740788	0.09079867	
-0.02153056	0.03230814	0.001379745	0.000199547	-0.1955992	-0.00399476	0.0008716863	-0.0002549319	
0.001071879	0.0009040136	-0.04740788	0.09079867	0.0008716863	-0.0002549319	-0.2210276	0.03758245	

5.26e+09	-0.1624221	0.05774011	0.002085875	0.0004778057	-0.008145036	0.04694465	0.001477863	0.0006263115	
0.002085875	0.0004778057	-0.1809823	0.1087451	0.001670041	-8.494837e-05	-0.02170957	0.1096414	
-0.008145036	0.04694465	0.001670041	-8.494837e-05	-0.1900949	0.03133368	0.001011926	-0.0004294954	
0.001477863	0.0006263115	-0.02170957	0.1096414	0.001011926	-0.0004294954	-0.2045459	0.07574501	

5.28e+09	-0.1345235	0.0846484	0.002365184	-0.0002044021	0.01233054	0.05278698	0.001742885	0.0001198296	
0.002365184	-0.0002044021	-0.1419027	0.140768	0.001838285	-0.0005999209	0.01098399	0.1173571	
0.01233054	0.05278698	0.001838285	-0.0005999209	-0.1633735	0.06494815	0.001063412	-0.0007574607	
0.001742885	0.0001198296	0.01098399	0.1173571	0.001063412	-0.0007574607	-0.1697592	0.1092766	

5.3e+09	-0.100366	0.09434893	0.002290383	-0.0009508158	0.02991388	0.04914943	0.001740893	-0.0004414837	
0.002290383	-0.0009508158	-0.09427334	0.1515744	0.00172481	-0.001176233	0.04109579	0.1139669	
0.02991388	0.04914943	0.00172481	-0.001176233	-0.125545	0.07951969	0.0009219919	-0.001109126	
0.001740893	-0.0004414837	0.04109579	0.1139669	0.0009219919	-0.001109126	-0.1256955	0.1252138	

5.32e+09	-0.07412979	0.09246294	0.001974756	-0.001520657	0.04078833	0.04376463	0.001560882	-0.0008800864	
0.001974756	-0.001520657	-0.05566986	0.1461676	0.001408686	-0.001601387	0.06527715	0.1064726	
0.04078833	0.04376463	0.001408686	-0.001601387	-0.09566312	0.07796535	0.0006561816	-0.001339848	
0.001560882	-0.0008800864	0.06527715	0.1064726	0.0006561816	-0.001339848	-0.08687984	0.1263165	

5.34e+09	-0.05608222	0.09256629	0.001643486	-0.001913361	0.05004379	0.04187725	0.001366701	-0.001201733	
0.001643486	-0.001913361	-0.02813395	0.1407967	0.001087167	-0.001860091	0.08781019	0.09910489	
0.05004379	0.04187725	0.001087167	-0.001860091	-0.07776465	0.07733154	0.0004056991	-0.001451779	
0.001366701	-0.001201733	0.08781019	0.09910489	0.0004056991	-0.001451779	-0.0562523	0.1250503	

5.36e+09	-0.03385909	0.09833393	0.001343479	-0.002313618	0.06378873	0.04012639	0.001183633	-0.001541872	
0.001343479	-0.002313618	0.002322516	0.1412509	0.0008183439	-0.002111784	0.1132243	0.08843825	
0.06378873	0.04012639	0.0008183439	-0.002111784	-0.05741818	0.08593238	0.0002017915	-0.001561818	
0.001183633	-0.001541872	0.1132243	0.08843825	0.0002017915	-0.001561818	-0.02358229	0.1267448	

5.38e+09	-0.0005888026	0.09835424	0.00089998	-0.002795397	0.08108648	0.03148883	0.000878474	-0.00194787	
0.00089998	-0.002795397	0.0444159	0.1348854	0.0004613051	-0.002440688	0.1393406	0.06852785	
0.08108648	0.03148883	0.0004613051	-0.002440688	-0.02259496	0.09178271	-5.841919e-05	-0.00172291	
0.000878474	-0.00194787	0.1393406	0.06852785	-5.841919e-05	-0.00172291	0.01851955	0.1220226	

5.4e+09	0.03538384	0.08110228	0.0001666217	-0.003191053	0.09405133	0.01349101	0.0003449124	-0.002286836	
0.0001666217	-0.003191053	0.08882019	0.1082431	-0.0001224424	-0.002721547	0.1582222	0.03846219	
0.09405133	0.01349101	-0.0001224424	-0.002721547	0.01954876	0.07847579	-0.0004659882	-0.001840217	
0.0003449124	-0.002286836	0.1582222	0.03846219	-0.0004659882	-0.001840217	0.06333802	0.09950124	

5.42e+09	0.05777077	0.05017512	-0.0007423584	-0.00323871	0.09595089	-0.006620186	-0.0003224778	-0.002360272	
-0.0007423584	-0.00323871	0.1170522	0.06467226	-0.0008579378	-0.002729334	0.1642638	0.005907877	
0.09595089	-0.006620186	-0.0008579378	-0.002729334	0.04876283	0.04624025	-0.0009537574	-0.001759531	
-0.0003224778	-0.002360272	0.1642638	0.005907877	-0.0009537574	-0.001759531	0.09503812	0.06077707	

5.44e+09	0.06423525	0.02126617	-0.001537223	-0.002937937	0.09194273	-0.02081295	-0.000905112	-0.002179751	
-0.001537223	-0.002937937	0.1246038	0.02216614	-0.001502124	-0.002446449	0.1624991	-0.02191328	
0.09194273	-0.02081295	-0.001502124	-0.002446449	0.05788823	0.0135328	-0.001349395	-0.001490788	
-0.000905112	-0.002179751	0.1624991	-0.02191328	-0.001349395	-0.001490788	0.108824	0.02045631	

5.46e+09	0.06691561	0.001769544	-0.002097923	-0.002514434	0.08950301	-0.03072229	-0.001324607	-0.001913689	
-0.002097923	-0.002514434	0.1249821	-0.008919802	-0.001940695	-0.002060857	0.1591737	-0.04644012	
0.08950301	-0.03072229	-0.001940695	-0.002060857	0.06026791	-0.007102674	-0.001590704	-0.001173626	
-0.001324607	-0.001913689	0.1591737	-0.04644012	-0.001590704	-0.001173626	0.1146383	-0.01214628	

5.48e+09	0.07534512	-0.01654364	-0.002554652	-0.002121666	0.08883102	-0.04282025	-0.001679504	-0.001666074	
-0.002554652	-0.002121666	0.1305184	-0.0369576	-0.002278367	-0.001715003	0.1538265	-0.07262805	
0.08883102	-0.04282025	-0.002278367	-0.001715003	0.07043279	-0.02353231	-0.001760583	-0.000897836	
-0.001679504	-0.001666074	0.1538265	-0.07262805	-0.001760583	-0.000897836	0.1225106	-0.04252129	

5.5e+09	0.08398112	-0.04475889	-0.003053666	-0.001678767	0.08383298	-0.05878557	-0.002069102	-0.001372627	
-0.003053666	-0.001678767	0.1360065	-0.07523767	-0.002650157	-0.001352654	0.1411785	-0.1005753	
0.08383298	-0.05878557	-0.002650157	-0.001352654	0.08456997	-0.05138297	-0.001945901	-0.0006183978	
-0.002069102	-0.001372627	0.1411785	-0.1005753	-0.001945901	-0.0006183978	0.1291169	-0.08105453	

5.52e+09	0.07962676	-0.08083947	-0.003541376	-0.001019488	0.07066396	-0.07369542	-0.002449304	-0.0009157573	
-0.003541376	-0.001019488	0.1262646	-0.1222223	-0.003030446	-0.0008290363	0.1190011	-0.1249766	
0.07066396	-0.07369542	-0.003030446	-0.0008290363	0.08579112	-0.09170726	-0.002123732	-0.0002457241	
-0.002449304	-0.0009157573	0.1190011	-0.1249766	-0.002123732	-0.0002457241	0.1224456	-0.1271332	

5.54e+09	0.05837506	-0.1113344	-0.003810713	-0.0001230853	0.0519623	-0.08053089	-0.00266915	-0.0002876059	
-0.003810713	-0.0001230853	0.0961372	-0.1629548	-0.003251592	-0.0001084346	0.09075732	-0.1399357	
0.0519623	-0.08053089	-0.003251592	-0.0001084346	0.0661217	-0.1290687	-0.00218659	0.0002332931	
-0.00266915	-0.0002876059	0.09075732	-0.1399357	-0.00218659	0.0002332931	0.09752884	-0.1689045	

5.56e+09	0.03173349	-0.1254279	-0.003710772	0.0008036533	0.03593213	-0.07865297	-0.002626624	0.0003579348	
-0.003710772	0.0008036533	0.05758927	-0.1842182	-0.003175386	0.0006483485	0.06358119	-0.1454831	
0.03593213	-0.07865297	-0.003175386	0.0006483485	0.03692388	-0.1478078	-0.002057848	0.0007069673	
-0.002626624	0.0003579348	0.06358119	-0.1454831	-0.002057848	0.0007069673	0.06331536	-0.1945988	

5.58e+09	0.01270803	-0.1301209	-0.00336834	0.001539303	0.02531895	-0.07523809	-0.002418968	0.0008704053	
-0.00336834	0.001539303	0.02645669	-0.1920664	-0.002894082	0.001251782	0.03951628	-0.147343	
0.02531895	-0.07523809	-0.002894082	0.001251782	0.01584795	-0.1532528	-0.001811256	0.001060534	
-0.002418968	0.0008704053	0.03951628	-0.147343	-0.001811256	0.001060534	0.03298767	-0.2080409	

5.6e+09	-0.0004434623	-0.1380893	-0.002990844	0.002093434	0.01540808	-0.07388958	-0.002187728	0.001260541	
-0.002990844	0.002093434	0.002693818	-0.201482	-0.002583146	0.00169681	0.01506304	-0.1477542	
0.01540808	-0.07388958	-0.002583146	0.00169681	0.004056762	-0.1618292	-0.001558174	0.001300527	
-0.002187728	0.001260541	0.01506304	-0.1477542	-0.001558174	0.001300527	0.007703004	-0.2206956	

5.62e+09	-0.01952932	-0.1508209	-0.002619373	0.002620288	0.002237365	-0.07099676	-0.001955964	0.001631384	
-0.002619373	0.002620288	-0.02711309	-0.2158035	-0.002289556	0.002110523	-0.01195115	-0.1433728	
0.002237365	-0.07099676	-0.002289556	0.002110523	-0.01303216	-0.1787455	-0.00132284	0.001505227	
-0.001955964	0.001631384	-0.01195115	-0.1433728	-0.00132284	0.001505227	-0.02242943	-0.2359162	

5.64e+09	-0.04931718	-0.1568914	-0.002122164	0.003173644	-0.01177111	-0.0617063	-0.00163653	0.002010163	
-0.002122164	0.003173644	-0.06978105	-0.2223995	-0.00191039	0.002549957	-0.03854857	-0.1308082	
-0.01177111	-0.0617063	-0.00191039	0.002549957	-0.04454931	-0.191137	-0.001046697	0.001700716	
-0.00163653	0.002010163	-0.03854857	-0.1308082	-0.001046697	0.001700716	-0.06323104	-0.2443204	

5.66e+09	-0.08034938	-0.146822	-0.001397708	0.003620362	-0.02142203	-0.04587697	-0.001174013	0.002303136	
-0.001397708	0.003620362	-0.1154604	-0.2093289	-0.001353378	0.002915602	-0.06051238	-0.1107575	
-0.02142203	-0.04587697	-0.001353378	0.002915602	-0.0812457	-0.1850829	-0.0006916104	0.001823553	
-0.001174013	0.002303136	-0.06051238	-0.1107575	-0.0006916104	0.001823553	-0.1075258	-0.2359439	

5.68e+09	-0.09936563	-0.1250989	-0.0005439971	0.003757424	-0.02225018	-0.02820396	-0.0006491805	0.002373004	
-0.0005439971	0.003757424	-0.1484662	-0.1799759	-0.0006882651	0.00303186	-0.07446571	-0.08672735	
-0.02225018	-0.02820396	-0.0006882651	0.00303186	-0.1061841	-0.162886	-0.0003196159	0.001769263	
-0.0006491805	0.002373004	-0.07446571	-0.08672735	-0.0003196159	0.001769263	-0.1425079	-0.2122341	

5.7e+09	-0.1039428	-0.1064769	0.0001515477	0.003556473	-0.01713929	-0.01511031	-0.0002786679	0.002209295	
0.0001515477	0.003556473	-0.163814	-0.1503184	-0.0001620733	0.002858609	-0.08200241	-0.06337866	
-0.01713929	-0.01511031	-0.0001620733	0.002858609	-0.1130844	-0.1416584	-0.0001092546	0.001526796	
-0.0002786679	0.002209295	-0.08200241	-0.06337866	-0.0001092546	0.001526796	-0.1626486	-0.1855958	

5.72e+09	-0.1066834	-0.09697237	0.0004846349	0.003283528	-0.01216331	-0.005731398	-0.0002424143	0.002016481	
0.0004846349	0.003283528	-0.1744573	-0.129469	1.624414e-05	0.00261435	-0.08689877	-0.04044773	
-0.01216331	-0.005731398	1.624414e-05	0.00261435	-0.1158338	-0.1319902	-0.0002379657	0.001258194	
-0.0002424143	0.002016481	-0.08689877	-0.04044773	-0.0002379657	0.001258194	-0.1771771	-0.1643553	

5.74e+09	-0.1155346	-0.08801376	0.0004926944	0.003336923	-0.007142751	0.004387379	-0.0005792228	0.002178409	
0.0004926944	0.003336923	-0.1910265	-0.1085622	-0.0001842388	0.002687993	-0.08857464	-0.01515625	
-0.007142751	0.004387379	-0.0001842388	0.002687993	-0.1267519	-0.1252565	-0.0008150512	0.001331085	
-0.0005792228	0.002178409	-0.08857464	-0.01515625	-0.0008150512	0.001331085	-0.1947006	-0.1427082	

5.76e+09	-0.1247358	-0.07060084	0.0007563119	0.004190395	0.001978157	0.01487908	-0.0007428876	0.003331681	
0.0007563119	0.004190395	-0.2071759	-0.07528303	-0.0002496811	0.003684249	-0.08334793	0.01189185	
0.001978157	0.01487908	-0.0002496811	0.003684249	-0.1411205	-0.108403	-0.001384396	0.002521334	
-0.0007428876	0.003331681	-0.08334793	0.01189185	-0.001384396	0.002521334	-0.2111335	-0.111271	

5.78e+09	-0.1240071	-0.04675946	0.002548257	0.004996277	0.01526873	0.02257897	0.000839141	0.004724761	
0.002548257	0.004996277	-0.208225	-0.03193729	0.001326648	0.00492909	-0.07019008	0.03703835	
0.01526873	0.02257897	0.001326648	0.00492909	-0.1456852	-0.08118731	-0.0001288038	0.004301872	
0.000839141	0.004724761	-0.07019008	0.03703835	-0.0001288038	0.004301872	-0.2152997	-0.07095353	

5.8e+09	-0.1089888	-0.02723458	0.004682357	0.003958019	0.03229929	0.02579896	0.003102506	0.004199077	
0.004682357	0.003958019	-0.1889625	0.006664758	0.003588406	0.004316275	-0.05014393	0.05748106	
0.03229929	0.02579896	0.003588406	0.004316275	-0.1325834	-0.05567846	0.002176703	0.004193193	
0.003102506	0.004199077	-0.05014393	0.05748106	0.002176703	0.004193193	-0.2017243	-0.0325277	

5.82e+09	-0.08956472	-0.02251372	0.005535191	0.00212199	0.04909266	0.0210239	0.004179134	0.00269141	
0.005535191	0.00212199	-0.16043	0.02802837	0.004673935	0.002692302	-0.02647496	0.06999004	
0.04909266	0.0210239	0.004673935	0.002692302	-0.1111105	-0.04647852	0.003419522	0.002891255	
0.004179134	0.00269141	-0.02647496	0.06999004	0.003419522	0.002891255	-0.1775789	-0.007566954	

5.84e+09	-0.07879617	-0.02647192	0.00551717	0.0006463322	0.06127939	0.01273163	0.00438109	0.00142883	
0.00551717	0.0006463322	-0.1385107	0.03685484	0.004845578	0.001297553	-0.003014165	0.07692097	
0.06127939	0.01273163	0.004845578	0.001297553	-0.09854693	-0.04949931	0.003747035	0.001703044	
0.00438109	0.00142883	-0.003014165	0.07692097	0.003747035	0.001703044	-0.1561231	0.005779344	

5.86e+09	-0.07395337	-0.02646458	0.005322889	-0.0003651649	0.07229988	0.004535547	0.004368338	0.0005892406	
0.005322889	-0.0003651649	-0.1222529	0.04830464	0.004770015	0.0003103441	0.02182655	0.0806186	
0.07229988	0.004535547	0.004770015	0.0003103441	-0.09475657	-0.04819759	0.003784922	0.000882311	
0.004368338	0.0005892406	0.02182655	0.0806186	0.003784922	0.000882311	-0.138239	0.01908388	

5.88e+09	-0.06386658	-0.02275443	0.00527914	-0.001159149	0.08498281	-0.007161151	0.004509099	2.912479e-06	
0.00527914	-0.001159149	-0.09810203	0.06368386	0.004745127	-0.0004685082	0.04961692	0.07805723	
0.08498281	-0.007161151	0.004745127	-0.0004685082	-0.08529457	-0.03962862	0.003862613	0.0003108328	
0.004509099	2.912479e-06	0.04961692	0.07805723	0.003862613	0.0003108328	-0.1140215	0.03416472	

5.9e+09	-0.04652734	-0.02660334	0.005624147	-0.002191407	0.0952231	-0.02654198	0.005165058	-0.0007951168	
0.005624147	-0.002191407	-0.06190735	0.06928826	0.00497123	-0.001331665	0.07618018	0.06588701	
0.0952231	-0.02654198	0.00497123	-0.001331665	-0.06381952	-0.03753258	0.004294302	-0.0002932004	
0.005165058	-0.0007951168	0.07618018	0.06588701	0.004294302	-0.0002932004	-0.07992776	0.0407428	

5.92e+09	-0.03273946	-0.04381155	0.005535291	-0.004437302	0.09706388	-0.05098561	0.005550544	-0.002985037	
0.005535291	-0.004437302	-0.02529676	0.05628784	0.005002723	-0.003043736	0.09719662	0.04710603	
0.09706388	-0.05098561	0.005002723	-0.003043736	-0.04226097	-0.05305326	0.004700767	-0.001858983	
0.005550544	-0.002985037	0.09719662	0.04710603	0.004700767	-0.001858983	-0.04443426	0.03174147	

5.94e+09	-0.03235804	-0.06753643	0.003473626	-0.006343393	0.0894635	-0.07460698	0.003865847	-0.005075017	
0.003473626	-0.006343393	-0.001095203	0.02885022	0.003585598	-0.004675377	0.1127848	0.02351472	
0.0894635	-0.07460698	0.003585598	-0.004675377	-0.0356879	-0.07989351	0.00363164	-0.003556986	
0.003865847	-0.005075017	0.1127848	0.02351472	0.00363164	-0.003556986	-0.01719834	0.008687508	

5.96e+09	-0.04486492	-0.08469934	0.001188531	-0.006594349	0.07559541	-0.09269243	0.001793807	-0.005548437	
0.001188531	-0.006594349	0.006085507	0.001797065	0.001865736	-0.005099192	0.120787	-0.002356979	
0.07559541	-0.09269243	0.001865736	-0.005099192	-0.04584588	-0.1012545	0.002136122	-0.004115897	
0.001793807	-0.005548437	0.120787	-0.002356979	0.002136122	-0.004115897	-0.004712213	-0.01767255	

5.98e+09	-0.05820115	-0.09156897	-0.0004738986	-0.00620844	0.06077483	-0.1069135	0.0002640962	-0.005348183	
-0.0004738986	-0.00620844	0.008943937	-0.01631074	0.0005558816	-0.005010257	0.1238941	-0.02876724	
0.06077483	-0.1069135	0.0005558816	-0.005010257	-0.05846916	-0.1098257	0.000976577	-0.004147374	
0.0002640962	-0.005348183	0.1238941	-0.02876724	0.000976577	-0.004147374	0.001699035	-0.03871273	

6e+09	-0.06631551	-0.09732433	-0.001835818	-0.005680413	0.04353804	-0.1212502	-0.0009723059	-0.004974264	
-0.001835818	-0.005680413	0.0168238	-0.03559102	-0.0005746653	-0.004795793	0.1214019	-0.05782515	
0.04353804	-0.1212502	-0.0005746653	-0.004795793	-0.06343335	-0.1160557	-9.632063e-06	-0.004028288	
-0.0009723059	-0.004974264	0.1214019	-0.05782515	-9.632063e-06	-0.004028288	0.009909856	-0.0609091	

6.02e+09	-0.07654294	-0.10895	-0.003095288	-0.004901942	0.01932883	-0.1335384	-0.002087129	-0.004377722	
-0.003095288	-0.004901942	0.02094065	-0.066266	-0.00167874	-0.004348297	0.1091208	-0.08751609	
0.01932883	-0.1335384	-0.00167874	-0.004348297	-0.06826989	-0.1312571	-0.000941469	-0.003704333	
-0.002087129	-0.004377722	0.1091208	-0.08751609	-0.000941469	-0.003704333	0.0138004	-0.09225248	

6.04e+09	-0.09788914	-0.1206676	-0.004089448	-0.003757807	-0.01091227	-0.1374876	-0.002966277	-0.003490298	
-0.004089448	-0.003757807	0.00759213	-0.102068	-0.002596063	-0.003557481	0.08688315	-0.1116345	
-0.01091227	-0.1374876	-0.002596063	-0.003557481	-0.0865092	-0.1508093	-0.001703178	-0.003117374	
-0.002966277	-0.003490298	0.08688315	-0.1116345	-0.001703178	-0.003117374	0.002339165	-0.1282387	

6.06e+09	-0.1283791	-0.1209784	-0.004605666	-0.00240676	-0.04110314	-0.1314013	-0.003468938	-0.002438915	
-0.004605666	-0.00240676	-0.02311875	-0.1265862	-0.003131018	-0.002561796	0.05945369	-0.1271684	
-0.04110314	-0.1314013	-0.003131018	-0.002561796	-0.1187443	-0.1595401	-0.002170894	-0.002384109	
-0.003468938	-0.002438915	0.05945369	-0.1271684	-0.002170894	-0.002384109	-0.02529526	-0.1556783	

6.08e+09	-0.1568124	-0.1066096	-0.00464305	-0.001126704	-0.06730387	-0.1179484	-0.003596468	-0.001423943	
-0.00464305	-0.001126704	-0.0570834	-0.1328013	-0.003278271	-0.00160459	0.03078584	-0.1346556	
-0.06730387	-0.1179484	-0.003278271	-0.00160459	-0.1517467	-0.1506384	-0.002352553	-0.001670637	
-0.003596468	-0.001423943	0.03078584	-0.1346556	-0.002352553	-0.001670637	-0.05850441	-0.167719	

6.1e+09	-0.1745301	-0.08493557	-0.004395736	-9.207754e-05	-0.08906988	-0.1009944	-0.003482006	-0.0005770667	
-0.004395736	-9.207754e-05	-0.08185174	-0.1287789	-0.00320234	-0.000826989	0.002649367	-0.1366143	
-0.08906988	-0.1009944	-0.00320234	-0.000826989	-0.1733736	-0.1316454	-0.002357453	-0.001072863	
-0.003482006	-0.0005770667	0.002649367	-0.1366143	-0.002357453	-0.001072863	-0.08646936	-0.1690487	

6.12e+09	-0.1855979	-0.06586951	-0.004040994	0.0007774414	-0.1096055	-0.08122226	-0.00325085	0.0001476202	
-0.004040994	0.0007774414	-0.1013471	-0.1275478	-0.003041909	-0.0001578226	-0.02707803	-0.1339301	
-0.1096055	-0.08122226	-0.003041909	-0.0001578226	-0.1864674	-0.1158401	-0.002271164	-0.0005452583	
-0.00325085	0.0001476202	-0.02707803	-0.1339301	-0.002271164	-0.0005452583	-0.1108095	-0.1699815	

6.14e+09	-0.1989356	-0.04798061	-0.003532498	0.001569077	-0.1286359	-0.05494748	-0.002865825	0.0007936864	
-0.003532498	0.001569077	-0.1279249	-0.1278356	-0.002742211	0.0004711981	-0.05820198	-0.1230716	
-0.1286359	-0.05494748	-0.002742211	0.0004711981	-0.2033007	-0.1036316	-0.002045279	-6.463281e-05	
-0.002865825	0.0007936864	-0.05820198	-0.1230716	-0.002045279	-6.463281e-05	-0.1405374	-0.1703642	

6.16e+09	-0.2147534	-0.02192747	-0.002778759	0.002179609	-0.1408953	-0.02125811	-0.002275449	0.00126286	
-0.002778759	0.002179609	-0.1630878	-0.1164583	-0.002222504	0.000953485	-0.0858178	-0.1024188	
-0.1408953	-0.02125811	-0.002222504	0.000953485	-0.2267674	-0.08302996	-0.001637192	0.000263115	
-0.002275449	0.00126286	-0.0858178	-0.1024188	-0.001637192	0.000263115	-0.1772911	-0.1603073	

6.18e+09	-0.2231658	0.01587928	-0.001846751	0.002394595	-0.1430236	0.01520908	-0.001540596	0.001383754	
-0.001846751	0.002394595	-0.1939279	-0.08646394	-0.001549564	0.001099997	-0.1060876	-0.07530894	
-0.1430236	0.01520908	-0.001549564	0.001099997	-0.2455553	-0.04666454	-0.001114658	0.0002901389	
-0.001540596	0.001383754	-0.1060876	-0.07530894	-0.001114658	0.0002901389	-0.2114466	-0.1335677	

6.2e+09	-0.2158329	0.05811497	-0.001001032	0.002027216	-0.1369213	0.05059441	-0.0008622845	0.0009732654	
-0.001001032	0.002027216	-0.2080372	-0.04608264	-0.0009318061	0.0007377463	-0.1196691	-0.04488535	
-0.1369213	0.05059441	-0.0009318061	0.0007377463	-0.2475754	-0.001512371	-0.0006256934	-0.0001408914	
-0.0008622845	0.0009732654	-0.1196691	-0.04488535	-0.0006256934	-0.0001408914	-0.232631	-0.09531408	

6.22e+09	-0.1945756	0.0947748	-0.0008215021	0.0009171881	-0.1239369	0.08479784	-0.0007527713	-0.0002583185	
-0.0008215021	0.0009171881	-0.2067062	-0.00822991	-0.0008652645	-0.0003866891	-0.1267898	-0.01115957	
-0.1239369	0.08479784	-0.0008652645	-0.0003866891	-0.2332433	0.0395339	-0.0005739772	-0.001405086	
-0.0007527713	-0.0002583185	-0.1267898	-0.01115957	-0.0005739772	-0.001405086	-0.2400454	-0.05519824	

6.24e+09	-0.1647376	0.1220775	-0.003591734	9.907149e-05	-0.1012242	0.1184764	-0.00383753	-0.001708579	
-0.003591734	9.907149e-05	-0.1969862	0.02355893	-0.00384345	-0.001664006	-0.1235993	0.02744657	
-0.1012242	0.1184764	-0.00384345	-0.001664006	-0.2094763	0.07192406	-0.00372914	-0.003399209	
-0.00383753	-0.001708579	-0.1235993	0.02744657	-0.00372914	-0.003399209	-0.236996	-0.01561663	

6.26e+09	-0.1339789	0.1350589	-0.002054343	0.006953167	-0.06770817	0.139007	-0.003896146	0.005902088	
-0.002054343	0.006953167	-0.1826663	0.04496856	-0.003779225	0.005848505	-0.1029507	0.05655085	
-0.06770817	0.139007	-0.003779225	0.005848505	-0.1823959	0.09058179	-0.005429328	0.004586514	
-0.003896146	0.005902088	-0.1029507	0.05655085	-0.005429328	0.004586514	-0.2206239	0.01465382	

6.28e+09	-0.1124821	0.1523442	0.0007536074	0.002358947	-0.04085755	0.1538781	-0.0003830044	0.001849458	
0.0007536074	0.002358947	-0.1807804	0.06961239	-3.101346e-05	0.00192085	-0.09140115	0.07475771	
-0.04085755	0.1538781	-3.101346e-05	0.00192085	-0.1668808	0.1118014	-0.001036485	0.001368989	
-0.0003830044	0.001849458	-0.09140115	0.07475771	-0.001036485	0.001368989	-0.216286	0.03840957	

6.3e+09	-0.07412033	0.1737727	-0.001476655	0.00253613	-0.005232295	0.1679885	-0.002887309	0.002012717	
-0.001476655	0.00253613	-0.1605491	0.1094371	-0.002132001	0.001800406	-0.07316754	0.101077	
-0.005232295	0.1679885	-0.002132001	0.001800406	-0.1351563	0.1433241	-0.003357964	0.001201664	
-0.002887309	0.002012717	-0.07316754	0.101077	-0.003357964	0.001201664	-0.200751	0.07895654	

6.32e+09	-0.02323788	0.1756092	-0.002456631	0.007030769	0.03501019	0.1680825	-0.004392629	0.006881786	
-0.002456631	0.007030769	-0.1184803	0.132746	-0.003411921	0.005678391	-0.04417952	0.1174133	
0.03501019	0.1680825	-0.003411921	0.005678391	-0.08482813	0.1587356	-0.005133779	0.005370316	
-0.004392629	0.006881786	-0.04417952	0.1174133	-0.005133779	0.005370316	-0.1631454	0.1080655	

6.34e+09	0.01398033	0.157049	0.009052621	0.009253274	0.06418749	0.1567468	0.007020635	0.01042185	
0.009052621	0.009253274	-0.08625423	0.1330231	0.006241141	0.008601238	-0.02473053	0.1225394	
0.06418749	0.1567468	0.006241141	0.008601238	-0.04068657	0.1501657	0.004319199	0.009443091	
0.007020635	0.01042185	-0.02473053	0.1225394	0.004319199	0.009443091	-0.1321607	0.1159427	

6.36e+09	0.03807857	0.1483923	0.006790249	-0.001585513	0.08674841	0.1554536	0.006038234	8.96952e-05	
0.006790249	-0.001585513	-0.06140408	0.1411523	0.004994631	-0.0007410082	-0.003346266	0.13992	
0.08674841	0.1554536	0.004994631	-0.0007410082	-0.01195761	0.1437836	0.004145581	0.0006720391	
0.006038234	8.96952e-05	-0.003346266	0.13992	0.004145581	0.0006720391	-0.1052788	0.1324959	

6.38e+09	0.07694805	0.1394487	0.00446184	-0.001104442	0.126812	0.1503649	0.004172347	0.0001647999	
0.00446184	-0.001104442	-0.02837641	0.1506101	0.003009961	-0.0001843239	0.03252753	0.1514565	
0.126812	0.1503649	0.003009961	-0.0001843239	0.02607436	0.140918	0.002603166	0.0009258197	
0.004172347	0.0001647999	0.03252753	0.1514565	0.002603166	0.0009258197	-0.06773143	0.1473264	

6.4e+09	0.1175287	0.1171314	0.003999397	-0.001878053	0.1654838	0.1271317	0.003856353	-0.0007178661	
0.003999397	-0.001878053	0.01486996	0.1535316	0.002818935	-0.0006918752	0.07238873	0.1491516	
0.1654838	0.1271317	0.002818935	-0.0006918752	0.06985384	0.1289444	0.002554458	0.0003498218	
0.003856353	-0.0007178661	0.07238873	0.1491516	0.002554458	0.0003498218	-0.02098951	0.1541274	

6.42e+09	0.1558885	0.08087743	0.003181742	-0.002787367	0.1947749	0.0929571	0.00321593	-0.001634359	
0.003181742	-0.002787367	0.06533118	0.1400075	0.002343042	-0.001386223	0.1092493	0.1350032	
0.1947749	0.0929571	0.002343042	-0.001386223	0.1170433	0.1021646	0.002244015	-0.0003213008	
0.00321593	-0.001634359	0.1092493	0.1350032	0.002244015	-0.0003213008	0.03277519	0.1457196	

6.44e+09	0.1831308	0.03041924	0.002096734	-0.003383267	0.21294	0.05424212	0.00236003	-0.002252301	
0.002096734	-0.003383267	0.1096636	0.105742	0.001647538	-0.001862204	0.1398184	0.1129482	
0.21294	0.05424212	0.001647538	-0.001862204	0.1562625	0.05657859	0.001766656	-0.0007849776	
0.00236003	-0.002252301	0.1398184	0.1129482	0.001766656	-0.0007849776	0.08307723	0.117582	

6.46e+09	0.1923106	-0.02562248	0.0009727667	-0.003570768	0.2226758	0.01484398	0.001475151	-0.002528672	
0.0009727667	-0.003570768	0.136375	0.06037046	0.0009182599	-0.002048286	0.1646601	0.08600903	
0.2226758	0.01484398	0.0009182599	-0.002048286	0.1765373	0.0009839775	0.001274338	-0.001022911	
0.001475151	-0.002528672	0.1646601	0.08600903	0.001274338	-0.001022911	0.1193773	0.07619241	

6.48e+09	0.1865865	-0.07731337	-1.756861e-05	-0.003447255	0.2256032	-0.02567951	0.0006853395	-0.002552909	
-1.756861e-05	-0.003447255	0.1481651	0.01702485	0.0002779705	-0.002023194	0.1840799	0.05418814	
0.2256032	-0.02567951	0.0002779705	-0.002023194	0.1798826	-0.05146501	0.0008425772	-0.001111544	
0.0006853395	-0.002552909	0.1840799	0.05418814	0.0008425772	-0.001111544	0.1417738	0.03227007	

6.5e+09	0.1740582	-0.1222847	-0.0008370279	-0.003159092	0.2202789	-0.06712747	1.719772e-05	-0.002432939	
-0.0008370279	-0.003159092	0.1554745	-0.02176114	-0.0002541269	-0.001890496	0.1961916	0.01804819	
0.2202789	-0.06712747	-0.0002541269	-0.001890496	0.1765901	-0.09698495	0.000475637	-0.001120422	
1.719772e-05	-0.002432939	0.1961916	0.01804819	0.000475637	-0.001120422	0.1572733	-0.01029611	

6.52e+09	0.1580445	-0.1660095	-0.001560927	-0.002770199	0.2051419	-0.1074097	-0.0005805789	-0.002217766	
-0.001560927	-0.002770199	0.1619115	-0.06440294	-0.0007337069	-0.001689022	0.1991725	-0.02074586	
0.2051419	-0.1074097	-0.0007337069	-0.001689022	0.1716647	-0.1427923	0.0001365622	-0.001070928	
-0.0005805789	-0.002217766	0.1991725	-0.02074586	0.0001365622	-0.001070928	0.1694339	-0.05685953	

6.54e+09	0.1331739	-0.211624	-0.002213081	-0.002227808	0.1804493	-0.1421272	-0.001118637	-0.001873556	
-0.002213081	-0.002227808	0.1586928	-0.1161371	-0.00117182	-0.00137737	0.1920799	-0.05832539	
0.1804493	-0.1421272	-0.00117182	-0.00137737	0.1583792	-0.194594	-0.0001712994	-0.0009370208	
-0.001118637	-0.001873556	0.1920799	-0.05832539	-0.0001712994	-0.0009370208	0.1720006	-0.1116302	

6.56e+09	0.09414862	-0.2531174	-0.002704851	-0.001503028	0.1503927	-0.1684002	-0.001529927	-0.001392126	
-0.002704851	-0.001503028	0.1365569	-0.1687481	-0.001502964	-0.0009428074	0.1774704	-0.09112909	
0.1503927	-0.1684002	-0.001502964	-0.0009428074	0.1281594	-0.2460766	-0.0004012436	-0.0007259528	
-0.001529927	-0.001392126	0.1774704	-0.09112909	-0.0004012436	-0.0007259528	0.1571314	-0.1685322	

6.58e+09	0.04422359	-0.2815379	-0.002938742	-0.0006773816	0.1187959	-0.1878366	-0.001754797	-0.0008388758	
-0.002938742	-0.0006773816	0.09864644	-0.209132	-0.001668989	-0.0004450194	0.1585816	-0.1192743	
0.1187959	-0.1878366	-0.001668989	-0.0004450194	0.08304967	-0.2854125	-0.0005305849	-0.0004867028	
-0.001754797	-0.0008388758	0.1585816	-0.1192743	-0.0005305849	-0.0004867028	0.1261638	-0.2167101	

6.6e+09	-0.007170771	-0.2946728	-0.002914271	0.0001139926	0.08519983	-0.2030493	-0.001801809	-0.0003047532	
-0.002914271	0.0001139926	0.05736322	-0.2335588	-0.00167568	3.275984e-05	0.135441	-0.1444016	
0.08519983	-0.2030493	-0.00167568	3.275984e-05	0.03420185	-0.3082182	-0.0005786475	-0.0002628515	
-0.001801809	-0.0003047532	0.135441	-0.1444016	-0.0005786475	-0.0002628515	0.08844901	-0.251585	

6.62e+09	-0.05462051	-0.2987784	-0.002723842	0.0007928962	0.04799735	-0.2124968	-0.001731552	0.0001618506	
-0.002723842	0.0007928962	0.01975499	-0.2504521	-0.001579798	0.0004428714	0.1068195	-0.1649536	
0.04799735	-0.2124968	-0.001579798	0.0004428714	-0.01071424	-0.3216216	-0.0005772619	-6.924309e-05	
-0.001731552	0.0001618506	0.1068195	-0.1649536	-0.0005772619	-6.924309e-05	0.05044564	-0.2782746	

6.64e+09	-0.1005292	-0.2992347	-0.002452215	0.001372744	0.008971606	-0.2135216	-0.001596449	0.0005659594	
-0.002452215	0.001372744	-0.01859952	-0.2669228	-0.001435485	0.0007930842	0.07422975	-0.1783168	
0.008971606	-0.2135216	-0.001435485	0.0007930842	-0.05459199	-0.3330454	-0.0005494862	9.84722e-05	
-0.001596449	0.0005659594	0.07422975	-0.1783168	-0.0005494862	9.84722e-05	0.01031811	-0.3021239	

6.66e+09	-0.1502599	-0.2942665	-0.002109104	0.001915775	-0.028334	-0.2057482	-0.001406452	0.0009440282	
-0.002109104	0.001915775	-0.06584698	-0.2796421	-0.001252155	0.001123495	0.0406139	-0.1836221	
-0.028334	-0.2057482	-0.001252155	0.001123495	-0.105012	-0.3409234	-0.0004996084	0.000259083	
-0.001406452	0.0009440282	0.0406139	-0.1836221	-0.0004996084	0.000259083	-0.03780443	-0.3214748	

6.68e+09	-0.2027136	-0.276973	-0.001636976	0.002420533	-0.06108929	-0.1917647	-0.001128968	0.001293248	
-0.001636976	0.002420533	-0.1206532	-0.27828	-0.0009950639	0.0014392	0.008830838	-0.1823863	
-0.06108929	-0.1917647	-0.0009950639	0.0014392	-0.1620871	-0.3363413	-0.0004133972	0.0004115255	
-0.001128968	0.001293248	0.008830838	-0.1823863	-0.0004133972	0.0004115255	-0.09356529	-0.3284635	

6.7e+09	-0.2495949	-0.2451906	-0.001012768	0.002805388	-0.08985176	-0.1746077	-0.0007539116	0.001564416	
-0.001012768	0.002805388	-0.1718852	-0.2591003	-0.0006434179	0.001696485	-0.02085301	-0.1770864	
-0.08985176	-0.1746077	-0.0006434179	0.001696485	-0.2166057	-0.31481	-0.0002868234	0.0005376242	
-0.0007539116	0.001564416	-0.02085301	-0.1770864	-0.0002868234	0.0005376242	-0.1485937	-0.319242	

6.72e+09	-0.2844988	-0.2049606	-0.0003035715	0.002989124	-0.1166938	-0.1543529	-0.0003232456	0.001710729	
-0.0003035715	0.002989124	-0.2107102	-0.2300304	-0.0002289393	0.001842229	-0.04992316	-0.1679992	
-0.1166938	-0.1543529	-0.0002289393	0.001842229	-0.2597789	-0.2821119	-0.000133982	0.0006196915	
-0.0003232456	0.001710729	-0.04992316	-0.1679992	-0.000133982	0.0006196915	-0.1952087	-0.2986514	

6.74e+09	-0.3091396	-0.1640266	0.0003807913	0.002979969	-0.1414404	-0.1285656	9.862246e-05	0.001738405	
0.0003807913	0.002979969	-0.2398683	-0.2012021	0.0001837104	0.001871605	-0.07828206	-0.1531083	
-0.1414404	-0.1285656	0.0001837104	0.001871605	-0.2923231	-0.2479081	2.222959e-05	0.0006589952	
9.862246e-05	0.001738405	-0.07828206	-0.1531083	2.222959e-05	0.0006589952	-0.2338014	-0.2745215	

6.76e+09	-0.3298254	-0.1229887	0.0009954612	0.002859057	-0.1603982	-0.09721714	0.0004845312	0.00169199	
0.0009954612	0.002859057	-0.2683741	-0.1727565	0.0005578337	0.00183122	-0.10265	-0.132145	
-0.1603982	-0.09721714	0.0005578337	0.00183122	-0.3222863	-0.2140454	0.0001687636	0.000670786	
0.0004845312	0.00169199	-0.10265	-0.132145	0.0001687636	0.000670786	-0.2704011	-0.2482114	

6.78e+09	-0.3476627	-0.0770113	0.00157826	0.002678499	-0.1718119	-0.06355514	0.0008517092	0.001602979	
0.00157826	0.002678499	-0.2976693	-0.1368497	0.000914112	0.001761544	-0.1213042	-0.107661	
-0.1718119	-0.06355514	0.000914112	0.001761544	-0.3523227	-0.1740522	0.0003119186	0.0006716334	
0.0008517092	0.001602979	-0.1213042	-0.107661	0.0003119186	0.0006716334	-0.3066285	-0.2147833	

6.8e+09	-0.3569644	-0.02308385	0.002188764	0.002409219	-0.1769883	-0.03022138	0.00123658	0.001459209	
0.002188764	0.002409219	-0.3195684	-0.08892455	0.001300505	0.001652409	-0.1349564	-0.08189355	
-0.1769883	-0.03022138	0.001300505	0.001652409	-0.3761383	-0.1226504	0.0004744808	0.0006609183	
0.00123658	0.001459209	-0.1349564	-0.08189355	0.0004744808	0.0006609183	-0.3370491	-0.1700343	

6.82e+09	-0.3514147	0.03383738	0.002800901	0.001964055	-0.1780331	0.002454894	0.001627273	0.001208431	
0.002800901	0.001964055	-0.3253458	-0.03534387	0.001717245	0.0014414	-0.1451206	-0.05530011	
-0.1780331	0.002454894	0.001717245	0.0014414	-0.3849257	-0.06400017	0.0006618184	0.0006110507	
0.001627273	0.001208431	-0.1451206	-0.05530011	0.0006618184	0.0006110507	-0.3542091	-0.1176924	

6.84e+09	-0.3320122	0.08499923	0.003296417	0.001315737	-0.1750669	0.03599977	0.001955752	0.0008295231	
0.003296417	0.001315737	-0.3162328	0.0127565	0.002093548	0.001088904	-0.1519465	-0.02684695	
-0.1750669	0.03599977	0.002093548	0.001088904	-0.3777186	-0.008307806	0.0008484277	0.000498108	
0.001955752	0.0008295231	-0.1519465	-0.02684695	0.0008484277	0.000498108	-0.3572489	-0.06647017	

6.86e+09	-0.306	0.1271876	0.003578432	0.0005594525	-0.1658779	0.07058188	0.002160446	0.000373535	
0.003578432	0.0005594525	-0.3019981	0.05151299	0.002350527	0.0006403864	-0.1536615	0.003862747	
-0.1658779	0.07058188	0.002350527	0.0006403864	-0.3624095	0.03879438	0.0009980203	0.0003326551	
0.002160446	0.000373535	-0.1536615	0.003862747	0.0009980203	0.0003326551	-0.3525983	-0.0209482	

6.88e+09	-0.2778444	0.1647752	0.003682075	-0.0001866032	-0.1486035	0.1034745	0.002256576	-9.075179e-05	
0.003682075	-0.0001866032	-0.2882993	0.0880319	0.002494645	0.0001795712	-0.1483795	0.03477478	
-0.1486035	0.1034745	0.002494645	0.0001795712	-0.3456411	0.08215211	0.001107164	0.000146392	
0.002256576	-9.075179e-05	-0.1483795	0.03477478	0.001107164	0.000146392	-0.3451675	0.02280498	

6.9e+09	-0.2439632	0.2018956	0.0036946	-0.0009157582	-0.1251491	0.1310526	0.002288725	-0.0005534894	
0.0036946	-0.0009157582	-0.2693588	0.128593	0.002587079	-0.000276383	-0.1373404	0.06273441	
-0.1251491	0.1310526	0.002587079	-0.000276383	-0.3237144	0.1284291	0.001194678	-4.942434e-05	
0.002288725	-0.0005534894	-0.1373404	0.06273441	0.001194678	-4.942434e-05	-0.3318291	0.06950405	

6.92e+09	-0.1993169	0.2349433	0.003626637	-0.001701157	-0.0983991	0.1532135	0.00226799	-0.001052958	
0.003626637	-0.001701157	-0.2372054	0.1686354	0.002649999	-0.0007824505	-0.1227198	0.08753516	
-0.0983991	0.1532135	0.002649999	-0.0007824505	-0.2887758	0.17482	0.001275675	-0.0002760438	
0.00226799	-0.001052958	-0.1227198	0.08753516	0.001275675	-0.0002760438	-0.3063248	0.1166679	

6.94e+09	-0.1444996	0.2560273	0.003378415	-0.00258561	-0.06903289	0.1712926	0.002139975	-0.001621976	
0.003378415	-0.00258561	-0.1921174	0.1974897	0.002619653	-0.001391956	-0.1049035	0.110121	
-0.06903289	0.1712926	0.002619653	-0.001391956	-0.2390228	0.2116183	0.001327144	-0.0005682939	
0.002139975	-0.001621976	-0.1049035	0.110121	0.001327144	-0.0005682939	-0.2672123	0.1561463	

6.96e+09	-0.08766013	0.2609287	0.002827353	-0.00346248	-0.03610455	0.185224	0.001821328	-0.002204818	
0.002827353	-0.00346248	-0.1443622	0.2098129	0.002386736	-0.002054802	-0.08309052	0.1303256	
-0.03610455	0.185224	0.002386736	-0.002054802	-0.1829436	0.2313976	0.001287373	-0.0009177319	
0.001821328	-0.002204818	-0.08309052	0.1303256	0.001287373	-0.0009177319	-0.2215151	0.1816957	

6.98e+09	-0.0362713	0.2539023	0.00200226	-0.004138372	0.0005789584	0.1928591	0.001313144	-0.002679869	
0.00200226	-0.004138372	-0.1030409	0.2118279	0.001934895	-0.002629037	-0.0569972	0.1464924	
0.0005789584	0.1928591	0.001934895	-0.002629037	-0.1306082	0.2375755	0.001125895	-0.001257256	
0.001313144	-0.002679869	-0.0569972	0.1464924	0.001125895	-0.001257256	-0.1773896	0.1961833	

7e+09	0.0101457	0.2418673	0.001079015	-0.004544355	0.03899072	0.1918683	0.0007164744	-0.002988926	
0.001079015	-0.004544355	-0.06595049	0.21292	0.00137815	-0.003035719	-0.02767342	0.156624	
0.03899072	0.1918683	0.00137815	-0.003035719	-0.08264206	0.239196	0.000884957	-0.001532543	
0.0007164744	-0.002988926	-0.02767342	0.156624	0.000884957	-0.001532543	-0.135166	0.2065553	

7.02e+09	0.05705587	0.224658	0.0001523317	-0.004786076	0.07549054	0.1821244	9.585662e-05	-0.003184758	
0.0001523317	-0.004786076	-0.02410193	0.2121654	0.0008009171	-0.003339912	0.002212025	0.1600147	
0.07549054	0.1821244	0.0008009171	-0.003339912	-0.03129963	0.237456	0.0006097883	-0.001761859	
9.585662e-05	-0.003184758	0.002212025	0.1600147	0.0006097883	-0.001761859	-0.08861832	0.2132064	

7.04e+09	0.1041873	0.196237	-0.0008422935	-0.004922964	0.1078365	0.166225	-0.0005753521	-0.00330002	
-0.0008422935	-0.004922964	0.02307986	0.1999625	0.0001611498	-0.003600095	0.03075576	0.1584018	
0.1078365	0.166225	0.0001611498	-0.003600095	0.02559531	0.2239521	0.0002888938	-0.001971142	
-0.0005753521	-0.00330002	0.03075576	0.1584018	0.0002888938	-0.001971142	-0.03660711	0.2092318	

7.06e+09	0.1440041	0.1537408	-0.001986895	-0.004871167	0.1366667	0.1455964	-0.001348147	-0.003293671	
-0.001986895	-0.004871167	0.06568317	0.171513	-0.0006249576	-0.003768531	0.0584568	0.1524999	
0.1366667	0.1455964	-0.0006249576	-0.003768531	0.07943017	0.1923879	-0.0001251294	-0.002147958	
-0.001348147	-0.003293671	0.0584568	0.1524999	-0.0001251294	-0.002147958	0.01380902	0.1895376	

7.08e+09	0.1687956	0.102597	-0.003218582	-0.004454475	0.1619085	0.1197142	-0.002198071	-0.00305219	
-0.003218582	-0.004454475	0.09373037	0.1333797	-0.001546876	-0.00369974	0.08506967	0.1416245	
0.1619085	0.1197142	-0.001546876	-0.00369974	0.1191404	0.1471314	-0.0006490079	-0.002212266	
-0.002198071	-0.00305219	0.08506967	0.1416245	-0.0006490079	-0.002212266	0.05345087	0.1576239	

7.1e+09	0.1786938	0.05240612	-0.004288875	-0.003619251	0.1815907	0.08845786	-0.002969812	-0.002517693	
-0.004288875	-0.003619251	0.1082587	0.09754162	-0.002431117	-0.003305935	0.1090259	0.1255881	
0.1815907	0.08845786	-0.002431117	-0.003305935	0.1426468	0.09995285	-0.001199116	-0.002087855	
-0.002969812	-0.002517693	0.1090259	0.1255881	-0.001199116	-0.002087855	0.08068541	0.1230329	

7.12e+09	0.1808452	0.006984671	-0.005012624	-0.002555162	0.193581	0.05358291	-0.003522818	-0.001794191	
-0.005012624	-0.002555162	0.1194427	0.06732449	-0.003106723	-0.00269873	0.128884	0.1052989	
0.193581	0.05358291	-0.003106723	-0.00269873	0.1583285	0.05695183	-0.001662881	-0.001810271	
-0.003522818	-0.001794191	0.128884	0.1052989	-0.001662881	-0.001810271	0.1022175	0.0903136	

7.14e+09	0.1792693	-0.03803619	-0.005460485	-0.001469263	0.1969837	0.0178413	-0.003878233	-0.001025398	
-0.005460485	-0.001469263	0.1321215	0.03461214	-0.003600431	-0.002042837	0.1434298	0.08206988	
0.1969837	0.0178413	-0.003600431	-0.002042837	0.1725137	0.01255631	-0.002031353	-0.001473157	
-0.003878233	-0.001025398	0.1434298	0.08206988	-0.002031353	-0.001473157	0.1225915	0.05474543	

7.16e+09	0.1691172	-0.08646717	-0.005776094	-0.0003401283	0.1929916	-0.01595463	-0.004124053	-0.0002139672	
-0.005776094	-0.0003401283	0.1383579	-0.00690384	-0.004028409	-0.001340854	0.1528071	0.05798801	
0.1929916	-0.01595463	-0.004028409	-0.001340854	0.1794802	-0.04012186	-0.002363153	-0.001090429	
-0.004124053	-0.0002139672	0.1528071	0.05798801	-0.002363153	-0.001090429	0.1366143	0.01104428	

7.18e+09	0.1449657	-0.1329949	-0.005913688	0.0009398105	0.1837156	-0.04707106	-0.004238333	0.000697852	
-0.005913688	0.0009398105	0.1293943	-0.05050077	-0.004376866	-0.0004917177	0.1582272	0.03381411	
0.1837156	-0.04707106	-0.004376866	-0.0004917177	0.170047	-0.09623542	-0.002657145	-0.0006114967	
-0.004238333	0.000697852	0.1582272	0.03381411	-0.002657145	-0.0006114967	0.1369599	-0.03642174	

7.2e+09	0.1084906	-0.1688618	-0.005696796	0.002365517	0.1692158	-0.07595279	-0.004116736	0.001718692	
-0.005696796	0.002365517	0.1070671	-0.08450796	-0.004506673	0.0005373883	0.1594622	0.009417103	
0.1692158	-0.07595279	-0.004506673	0.0005373883	0.1438465	-0.1442286	-0.0028422	3.480691e-19	
-0.004116736	0.001718692	0.1594622	0.009417103	-0.0028422	3.480691e-19	0.1233095	-0.07822742	

7.22e+09	0.06843347	-0.1903418	-0.004998657	0.003713684	0.1489951	-0.1013178	-0.003656505	0.00271457	
-0.004998657	0.003713684	0.08270675	-0.1048452	-0.004279003	0.001601556	0.1562128	-0.01423435	
0.1489951	-0.1013178	-0.004279003	0.001601556	0.1106751	-0.177503	-0.002817066	0.0006783981	
-0.003656505	0.00271457	0.1562128	-0.01423435	-0.002817066	0.0006783981	0.1037477	-0.1091364	

7.24e+09	0.03184486	-0.2025014	-0.003955675	0.004717534	0.1241823	-0.1212225	-0.002922798	0.00349191	
-0.003955675	0.004717534	0.06426205	-0.1195875	-0.003752764	0.002477312	0.1490751	-0.03621107	
0.1241823	-0.1212225	-0.003752764	0.002477312	0.08011279	-0.2011	-0.002586009	0.001281457	
-0.002922798	0.00349191	0.1490751	-0.03621107	-0.002586009	0.001281457	0.08575478	-0.1335358	

7.26e+09	-0.002972343	-0.2120692	-0.002841645	0.005364669	0.09691976	-0.1347193	-0.002102891	0.004010518	
-0.002841645	0.005364669	0.04694653	-0.1377075	-0.003136042	0.003118576	0.1386199	-0.05588227	
0.09691976	-0.1347193	-0.003136042	0.003118576	0.05073432	-0.2240681	-0.0022683	0.001754407	
-0.002102891	0.004010518	0.1386199	-0.05588227	-0.0022683	0.001754407	0.06757342	-0.1585617	

7.28e+09	-0.04193736	-0.2179825	-0.001733625	0.005845127	0.06925393	-0.1417466	-0.001269349	0.004389136	
-0.001733625	0.005845127	0.02132584	-0.1563725	-0.002510826	0.003666969	0.1256948	-0.07214932	
0.06925393	-0.1417466	-0.002510826	0.003666969	0.01407383	-0.246178	-0.001925947	0.002173063	
-0.001269349	0.004389136	0.1256948	-0.07214932	-0.001925947	0.002173063	0.04219712	-0.1832134	

7.3e+09	-0.08444546	-0.2128506	-0.0004856969	0.006214349	0.04242594	-0.1439376	-0.0003399767	0.004673149	
-0.0004856969	0.006214349	-0.01196721	-0.1644953	-0.00175961	0.00419414	0.1116471	-0.08567294	
0.04242594	-0.1439376	-0.00175961	0.00419414	-0.03163614	-0.2575442	-0.00149681	0.002585251	
-0.0003399767	0.004673149	0.1116471	-0.08567294	-0.00149681	0.002585251	0.008959478	-0.1992987	

7.32e+09	-0.1222864	-0.1947147	0.0009679154	0.006295224	0.01610058	-0.1421511	0.0007349315	0.004756153	
0.0009679154	0.006295224	-0.0420186	-0.1591465	-0.0007914935	0.004571792	0.09646774	-0.09732007	
0.01610058	-0.1421511	-0.0007914935	0.004571792	-0.07672108	-0.2528361	-0.0009189921	0.002923564	
0.0007349315	0.004756153	0.09646774	-0.09732007	-0.0009189921	0.002923564	-0.02416281	-0.2031481	

7.34e+09	-0.1489747	-0.1692166	0.002476964	0.005894191	-0.009335519	-0.1352682	0.001871909	0.004501178	
0.002476964	0.005894191	-0.06091657	-0.1483824	0.0003181699	0.004619556	0.08016477	-0.1065137	
-0.009335519	-0.1352682	0.0003181699	0.004619556	-0.1117373	-0.2374538	-0.0002169976	0.003073148	
0.001871909	0.004501178	0.08016477	-0.1065137	-0.0002169976	0.003073148	-0.04998769	-0.1994513	

7.36e+09	-0.1657609	-0.1447554	0.003730017	0.005036967	-0.03199205	-0.1233487	0.002856471	0.003899016	
0.003730017	0.005036967	-0.07249821	-0.1426549	0.001330064	0.004303655	0.06309688	-0.1132603	
-0.03199205	-0.1233487	0.001330064	0.004303655	-0.136581	-0.2218357	0.0004669152	0.002985408	
0.002856471	0.003899016	0.06309688	-0.1132603	0.0004669152	0.002985408	-0.06920245	-0.196511	

7.38e+09	-0.1798712	-0.1233449	0.004578843	0.004013135	-0.05073285	-0.1080085	0.003568376	0.003132578	
0.004578843	0.004013135	-0.08738895	-0.1419932	0.002104776	0.003816258	0.0453529	-0.1175226	
-0.05073285	-0.1080085	0.002104776	0.003816258	-0.1601163	-0.2094992	0.001024796	0.002762972	
0.003568376	0.003132578	0.0453529	-0.1175226	0.001024796	0.002762972	-0.08935483	-0.1963437	

7.4e+09	-0.1943236	-0.09935485	0.005293686	0.003015058	-0.06552481	-0.09058553	0.004103706	0.002338624	
0.005293686	0.003015058	-0.1084089	-0.136778	0.002750327	0.003311256	0.02757656	-0.1189451	
-0.06552481	-0.09058553	0.002750327	0.003311256	-0.1873676	-0.1933483	0.001508961	0.002512027	
0.004103706	0.002338624	0.02757656	-0.1189451	0.001508961	0.002512027	-0.1138878	-0.1925738	

7.42e+09	-0.2033237	-0.0687422	0.005847321	0.001837372	-0.07648134	-0.07179564	0.004563922	0.001456182	
0.005847321	0.001837372	-0.1266978	-0.1214988	0.003397056	0.002710669	0.01073022	-0.1181337	
-0.07648134	-0.07179564	0.003397056	0.002710669	-0.2118896	-0.1663219	0.002006618	0.002184858	
0.004563922	0.001456182	0.01073022	-0.1181337	0.002006618	0.002184858	-0.1369743	-0.1799999	

7.44e+09	-0.2003535	-0.03677175	0.006193669	0.0004346352	-0.08412092	-0.05217751	0.004857437	0.0003853682	
0.006193669	0.0004346352	-0.133755	-0.1032658	0.003957878	0.001866234	-0.005892573	-0.1160805	
-0.08412092	-0.05217751	0.003957878	0.001866234	-0.2236707	-0.1327532	0.002450575	0.001691738	
0.004857437	0.0003853682	-0.005892573	-0.1160805	0.002450575	0.001691738	-0.1512982	-0.1627593	

7.46e+09	-0.1877578	-0.01214175	0.006074037	-0.001124221	-0.08785804	-0.03170014	0.004816364	-0.0008112033	
0.006074037	-0.001124221	-0.1336077	-0.09265246	0.004210378	0.0008148309	-0.02281965	-0.1121622	
-0.08785804	-0.03170014	0.004210378	0.0008148309	-0.2228158	-0.1039007	0.002737504	0.001060104	
0.004816364	-0.0008112033	-0.02281965	-0.1121622	0.002737504	0.001060104	-0.1581094	-0.1492555	

7.48e+09	-0.1736309	0.002576055	0.005418067	-0.002520387	-0.08705433	-0.01187853	0.004372193	-0.001923993	
0.005418067	-0.002520387	-0.1369688	-0.09045155	0.004067766	-0.0002024271	-0.03967632	-0.1058375	
-0.08705433	-0.01187853	0.004067766	-0.0002024271	-0.2186486	-0.08480819	0.002781422	0.0003954984	
0.004372193	-0.001923993	-0.03967632	-0.1058375	0.002781422	0.0003954984	-0.164937	-0.1421189	

7.5e+09	-0.1636512	0.01316706	0.004480556	-0.00350967	-0.08290146	0.005869738	0.003680911	-0.002758285	
0.004480556	-0.00350967	-0.1487175	-0.08700799	0.00369163	-0.0009858552	-0.05589689	-0.09677724	
-0.08290146	0.005869738	0.00369163	-0.0009858552	-0.2191133	-0.06929644	0.002657398	-0.0001581531	
0.003680911	-0.002758285	-0.05589689	-0.09677724	0.002657398	-0.0001581531	-0.1770357	-0.135452	

7.52e+09	-0.1544289	0.02592567	0.003543761	-0.004192287	-0.07664095	0.02175946	0.002950358	-0.003354424	
0.003543761	-0.004192287	-0.1615997	-0.07477226	0.00329777	-0.001582009	-0.07073062	-0.08510473	
-0.07664095	0.02175946	0.00329777	-0.001582009	-0.2207937	-0.04846385	0.002498188	-0.0006092236	
0.002950358	-0.003354424	-0.07073062	-0.08510473	0.002498188	-0.0006092236	-0.1906895	-0.1225615	

7.54e+09	-0.1393322	0.03882361	0.002587362	-0.004790421	-0.06818439	0.03594955	0.002188993	-0.003864153	
0.002587362	-0.004790421	-0.1665232	-0.05792435	0.002889799	-0.002170433	-0.08376195	-0.07164066	
-0.06818439	0.03594955	0.002889799	-0.002170433	-0.214018	-0.02355219	0.002315606	-0.00106506	
0.002188993	-0.003864153	-0.08376195	-0.07164066	0.002315606	-0.00106506	-0.1985406	-0.1049444	

7.56e+09	-0.1188911	0.04353151	0.001394423	-0.005274697	-0.05762545	0.04770581	0.001250315	-0.004277407	
0.001394423	-0.005274697	-0.1646996	-0.046947	0.002280359	-0.002762758	-0.09563798	-0.05669541	
-0.05762545	0.04770581	0.002280359	-0.002762758	-0.1967716	-0.005187014	0.001991854	-0.001539258	
0.001250315	-0.004277407	-0.09563798	-0.05669541	0.001991854	-0.001539258	-0.1997244	-0.09064105	

7.58e+09	-0.1019812	0.0378252	-2.27325e-05	-0.005359952	-0.04572634	0.0567503	0.0001398002	-0.004397178	
-2.27325e-05	-0.005359952	-0.1666264	-0.04349612	0.001418676	-0.00312934	-0.1062485	-0.03902868	
-0.04572634	0.0567503	0.001418676	-0.00312934	-0.1790092	0.0005311326	0.001488133	-0.001888162	
0.0001398002	-0.004397178	-0.1062485	-0.03902868	0.001488133	-0.001888162	-0.201665	-0.08258551	

7.6e+09	-0.0946224	0.02873044	-0.001353813	-0.004911637	-0.03350914	0.06265174	-0.0009348584	-0.004118121	
-0.001353813	-0.004911637	-0.1773797	-0.0380269	0.0005223686	-0.003106893	-0.1140969	-0.01864319	
-0.03350914	0.06265174	0.0005223686	-0.003106893	-0.1702192	0.000534761	0.0009272999	-0.001999433	
-0.0009348584	-0.004118121	-0.1140969	-0.01864319	0.0009272999	-0.001999433	-0.2098005	-0.07487168	

7.62e+09	-0.09358634	0.02418565	-0.002316688	-0.004128289	-0.02213644	0.06615885	-0.001762986	-0.003559307	
-0.002316688	-0.004128289	-0.1902343	-0.02258304	-0.0001598965	-0.002806349	-0.1183197	0.003449642	
-0.02213644	0.06615885	-0.0001598965	-0.002806349	-0.1679589	0.005219636	0.0004689059	-0.001921926	
-0.001762986	-0.003559307	-0.1183197	0.003449642	0.0004689059	-0.001921926	-0.2208345	-0.06045492	

7.64e+09	-0.09088744	0.02437022	-0.002934992	-0.003316238	-0.01131103	0.06850245	-0.002333251	-0.002937506	
-0.002934992	-0.003316238	-0.1951199	0.0001702743	-0.0006080958	-0.002473858	-0.118655	0.02637037	
-0.01131103	0.06850245	-0.0006080958	-0.002473858	-0.1620604	0.01611865	0.0001463987	-0.001805374	
-0.002333251	-0.002937506	-0.118655	0.02637037	0.0001463987	-0.001805374	-0.2268717	-0.03947305	

7.66e+09	-0.08441051	0.02225494	-0.003428134	-0.002550602	-0.0002375088	0.06942959	-0.002788574	-0.002325827	
-0.003428134	-0.002550602	-0.1907978	0.02025569	-0.0009996497	-0.002194546	-0.115178	0.04941295	
-0.0002375088	0.06942959	-0.0009996497	-0.002194546	-0.1481736	0.02415814	-0.0001448362	-0.001716902	
-0.002788574	-0.002325827	-0.115178	0.04941295	-0.0001448362	-0.001716902	-0.2251076	-0.01878412	

7.68e+09	-0.08071637	0.0141889	-0.00387119	-0.001655197	0.01024915	0.06803433	-0.003190418	-0.001613693	
-0.00387119	-0.001655197	-0.1857396	0.03352023	-0.001429581	-0.001825179	-0.1082831	0.07218856	
0.01024915	0.06803433	-0.001429581	-0.001825179	-0.133961	0.02227319	-0.0004757589	-0.001570834	
-0.003190418	-0.001613693	-0.1082831	0.07218856	-0.0004757589	-0.001570834	-0.2209563	-0.00323962	

7.7e+09	-0.08613942	0.006083889	-0.004051434	-0.0005326621	0.01897201	0.06511962	-0.003397728	-0.0007277896	
-0.004051434	-0.0005326621	-0.1865109	0.04695214	-0.001744663	-0.001236662	-0.09745462	0.09480358	
0.01897201	0.06511962	-0.001744663	-0.001236662	-0.1295593	0.01572428	-0.0007566714	-0.001275901	
-0.003397728	-0.0007277896	-0.09745462	0.09480358	-0.0007566714	-0.001275901	-0.220621	0.01109897	

7.72e+09	-0.09650859	0.006376258	-0.003781244	0.0005880708	0.02629181	0.06188557	-0.003273334	0.0001767045	
-0.003781244	0.0005880708	-0.1874036	0.06887683	-0.001751891	-0.0005729446	-0.08166574	0.1159833	
0.02629181	0.06188557	-0.001751891	-0.0005729446	-0.1328296	0.01616825	-0.0008603347	-0.0009123268	
-0.003273334	0.0001767045	-0.08166574	0.1159833	-0.0008603347	-0.0009123268	-0.2213428	0.03126529	

7.74e+09	-0.1029674	0.01503968	-0.003167261	0.001428742	0.03282132	0.058816	-0.00287571	0.0009061562	
-0.003167261	0.001428742	-0.1785135	0.09688456	-0.00149114	-6.823384e-05	-0.06165795	0.1341157	
0.03282132	0.058816	-0.00149114	-6.823384e-05	-0.1326398	0.02592675	-0.0007981386	-0.0006208866	
-0.00287571	0.0009061562	-0.06165795	0.1341157	-0.0007981386	-0.0006208866	-0.2154718	0.05745344	

7.76e+09	-0.1018993	0.02461438	-0.002474827	0.001933546	0.03944301	0.05553044	-0.002380668	0.001401761	
-0.002474827	0.001933546	-0.1577371	0.1209485	-0.001167054	0.0002013754	-0.03833053	0.1485339	
0.03944301	0.05553044	-0.001167054	0.0002013754	-0.1230312	0.03600014	-0.0006866924	-0.0004602214	
-0.002380668	0.001401761	-0.03833053	0.1485339	-0.0006866924	-0.0004602214	-0.1994235	0.08264468	

7.78e+09	-0.09838073	0.02936597	-0.001851041	0.002262335	0.04602516	0.05091204	-0.001901677	0.001754203	
-0.001851041	0.002262335	-0.1326286	0.1349167	-0.0009201513	0.0003521079	-0.01224384	0.1586884	
0.04602516	0.05091204	-0.0009201513	0.0003521079	-0.1097795	0.0379073	-0.0006204269	-0.0003695552	
-0.001901677	0.001754203	-0.01224384	0.1586884	-0.0006204269	-0.0003695552	-0.1775439	0.1004495	

7.8e+09	-0.0988254	0.0323966	-0.001211648	0.002555177	0.05125128	0.04491611	-0.001396486	0.002061052	
-0.001211648	0.002555177	-0.1110978	0.1429686	-0.0006951607	0.0005240314	0.01575339	0.1640554	
0.05125128	0.04491611	-0.0006951607	0.0005240314	-0.1026979	0.03422279	-0.0005755355	-0.0002564857	
-0.001396486	0.002061052	0.01575339	0.1640554	-0.0005755355	-0.0002564857	-0.1565832	0.1123508	

7.82e+09	-0.1017276	0.0411626	-0.0004054617	0.002729954	0.05478533	0.0391704	-0.0007623732	0.002274535	
-0.0004054617	0.002729954	-0.09132284	0.1531955	-0.0003421928	0.0006809668	0.04501628	0.1645744	
0.05478533	0.0391704	-0.0003421928	0.0006809668	-0.1022086	0.03535294	-0.000452118	-0.0001315236	
-0.0007623732	0.002274535	0.04501628	0.1645744	-0.000452118	-0.0001315236	-0.1369649	0.1246285	

7.84e+09	-0.09865268	0.05656754	0.0005008297	0.002571992	0.05811294	0.03395166	-4.005493e-05	0.002243142	
0.0005008297	0.002571992	-0.06444873	0.1657296	0.0001304279	0.0006387906	0.07506	0.159258	
0.05811294	0.03395166	0.0001304279	0.0006387906	-0.09803323	0.04533924	-0.0002433396	-0.000113316	
-4.005493e-05	0.002243142	0.07506	0.159258	-0.0002433396	-0.000113316	-0.1121668	0.1390098	

7.86e+09	-0.08566023	0.07026201	0.001241855	0.002053377	0.06159871	0.02806306	0.0005850821	0.001938008	
0.001241855	0.002053377	-0.02783093	0.1707568	0.0005289168	0.0003343802	0.1040062	0.1474983	
0.06159871	0.02806306	0.0005289168	0.0003343802	-0.08299916	0.05493594	-7.435235e-05	-0.0002523024	
0.0005850821	0.001938008	0.1040062	0.1474983	-7.435235e-05	-0.0002523024	-0.0784805	0.1484744	

7.88e+09	-0.0680118	0.07574718	0.001660325	0.001363273	0.06464996	0.02090879	0.0009958881	0.001479192	
0.001660325	0.001363273	0.01073073	0.1616442	0.0006791531	-0.0001252729	0.1304399	0.1299446	
0.06464996	0.02090879	0.0006791531	-0.0001252729	-0.062393	0.05460171	-4.475019e-05	-0.000471913	
0.0009958881	0.001479192	0.1304399	0.1299446	-4.475019e-05	-0.000471913	-0.04045884	0.1464854	

7.9e+09	-0.05340898	0.07462839	0.001809089	0.0007142975	0.06607261	0.0124535	0.001209153	0.001015319	
0.001809089	0.0007142975	0.04174418	0.1418346	0.0006149127	-0.0005137275	0.1532717	0.1070949	
0.06607261	0.0124535	0.0006149127	-0.0005137275	-0.04692469	0.04529882	-0.0001473461	-0.0006522336	
0.001209153	0.001015319	0.1532717	0.1070949	-0.0001473461	-0.0006522336	-0.006262711	0.1335933	

7.92e+09	-0.04296113	0.07393328	0.00185635	0.0001512303	0.06500542	0.0038445	0.00133037	0.000593126	
0.00185635	0.0001512303	0.06413008	0.1203273	0.0004907997	-0.000795169	0.1711561	0.07962235	
0.06500542	0.0038445	0.0004907997	-0.000795169	-0.03951146	0.03663929	-0.000289156	-0.0007481987	
0.00133037	0.000593126	0.1711561	0.07962235	-0.000289156	-0.0007481987	0.02115902	0.1162806	

7.94e+09	-0.03039281	0.07637377	0.001854812	-0.0004562379	0.06227347	-0.003574963	0.001404563	0.0001377335	
0.001854812	-0.0004562379	0.08495359	0.1003619	0.0003734766	-0.00107878	0.1832894	0.04882093	
0.06227347	-0.003574963	0.0003734766	-0.00107878	-0.03213157	0.03419272	-0.0004123946	-0.0008238921	
0.001404563	0.0001377335	0.1832894	0.04882093	-0.0004123946	-0.0008238921	0.04613134	0.09854702	

7.96e+09	-0.01096892	0.07595001	0.001647823	-0.001169403	0.05929076	-0.010348	0.001334866	-0.0004010124	
0.001647823	-0.001169403	0.1085434	0.07550143	0.0001486935	-0.001446779	0.1892864	0.01550031	
0.05929076	-0.010348	0.0001486935	-0.001446779	-0.01693732	0.03160121	-0.0005779357	-0.0009431053	
0.001334866	-0.0004010124	0.1892864	0.01550031	-0.0005779357	-0.0009431053	0.0729925	0.07658809	

7.98e+09	0.01060949	0.06542536	0.001104311	-0.001809082	0.05514216	-0.01758751	0.00102306	-0.0009078683	
0.001104311	-0.001809082	0.1288199	0.03908937	-0.0003154572	-0.001779962	0.1877802	-0.01910912	
0.05514216	-0.01758751	-0.0003154572	-0.001779962	0.002263464	0.01868238	-0.0008714414	-0.001041124	
0.00102306	-0.0009078683	0.1877802	-0.01910912	-0.0008714414	-0.001041124	0.09817807	0.04430022	

8e+09	0.0252946	0.046521	0.0003328582	-0.002149885	0.04870099	-0.02453027	0.0005297676	-0.001223752	
0.0003328582	-0.002149885	0.1356935	-0.005117239	-0.0009592576	-0.001881026	0.1786451	-0.05271365	
0.04870099	-0.02453027	-0.0009592576	-0.001881026	0.01359534	-0.004362108	-0.00126274	-0.0009997596	
0.0005297676	-0.001223752	0.1786451	-0.05271365	-0.00126274	-0.0009997596	0.1130011	0.002965748	

8.02e+09	0.03097753	0.027157	-0.000443216	-0.00215918	0.03991516	-0.02991145	1.211134e-06	-0.001309299	
-0.000443216	-0.00215918	0.1278891	-0.04667424	-0.001593854	-0.001700253	0.1625056	-0.08382153	
0.03991516	-0.02991145	-0.001593854	-0.001700253	0.01308548	-0.02724557	-0.001641942	-0.0007821109	
1.211134e-06	-0.001309299	0.1625056	-0.08382153	-0.001641942	-0.0007821109	0.1144227	-0.0395039	

8.04e+09	0.03332881	0.01215178	-0.00109098	-0.001973864	0.029623	-0.03240837	-0.0004575924	-0.001241026	
-0.00109098	-0.001973864	0.1130355	-0.07987675	-0.002084893	-0.00134981	0.1398386	-0.1108744	
0.029623	-0.03240837	-0.002084893	-0.00134981	0.007843482	-0.04242708	-0.001916005	-0.0004476313	
-0.0004575924	-0.001241026	0.1398386	-0.1108744	-0.001916005	-0.0004476313	0.1069675	-0.07682998	

8.06e+09	0.03795353	-0.001996433	-0.00166248	-0.001724558	0.01949611	-0.03178985	-0.0008628402	-0.001112768	
-0.00166248	-0.001724558	0.09799446	-0.1086583	-0.00246583	-0.000964363	0.1118215	-0.1321871	
0.01949611	-0.03178985	-0.00246583	-0.000964363	0.00661007	-0.05375713	-0.00208832	-8.862195e-05	
-0.0008628402	-0.001112768	0.1118215	-0.1321871	-0.00208832	-8.862195e-05	0.09660651	-0.1102401	

8.08e+09	0.04250694	-0.02171634	-0.002267932	-0.001363789	0.01042211	-0.02940994	-0.001290084	-0.0009083694	
-0.002267932	-0.001363789	0.08018078	-0.1395908	-0.002848814	-0.0005305684	0.0800697	-0.1470658	
0.01042211	-0.02940994	-0.002848814	-0.0005305684	0.007971835	-0.07037191	-0.002230174	0.0002809456	
-0.001290084	-0.0009083694	0.0800697	-0.1470658	-0.002230174	0.0002809456	0.08293567	-0.1447201	

8.1e+09	0.03909696	-0.04670475	-0.002854487	-0.0007398153	0.001397723	-0.02594237	-0.001717311	-0.0005233965	
-0.002854487	-0.0007398153	0.0517685	-0.1711416	-0.00322405	8.611401e-05	0.04573422	-0.1549621	
0.001397723	-0.02594237	-0.00322405	8.611401e-05	0.002100293	-0.09377848	-0.002353671	0.0007357916	
-0.001717311	-0.0005233965	0.04573422	-0.1549621	-0.002353671	0.0007357916	0.0599986	-0.1804045	

8.12e+09	0.02496262	-0.06846523	-0.003203298	0.000156107	-0.007759567	-0.01991253	-0.0019957	5.992826e-05	
-0.003203298	0.000156107	0.01135892	-0.1936471	-0.003414748	0.0009226486	0.01058042	-0.1550795	
-0.007759567	-0.01991253	-0.003414748	0.0009226486	-0.01606339	-0.1141958	-0.002355065	0.001309198	
-0.0019957	5.992826e-05	0.01058042	-0.1550795	-0.002355065	0.001309198	0.02522101	-0.2099203	

8.14e+09	0.006577815	-0.08092411	-0.003184595	0.001129601	-0.01560086	-0.0107342	-0.002026993	0.0007221785	
-0.003184595	0.001129601	-0.03244657	-0.2008865	-0.003288646	0.001831189	-0.02368142	-0.147815	
-0.01560086	-0.0107342	-0.003288646	0.001831189	-0.03923563	-0.1228674	-0.002182107	0.00191433	
-0.002026993	0.0007221785	-0.02368142	-0.147815	-0.002182107	0.00191433	-0.01573612	-0.226915	

8.16e+09	-0.008799179	-0.08704941	-0.002871274	0.001987423	-0.02057062	0.001042063	-0.001839863	0.001325487	
-0.002871274	0.001987423	-0.07091765	-0.1970893	-0.002890389	0.002630974	-0.05572858	-0.1332888	
-0.02057062	0.001042063	-0.002890389	0.002630974	-0.05734599	-0.1228109	-0.001803198	0.002447587	
-0.001839863	0.001325487	-0.05572858	-0.1332888	-0.001803198	0.002447587	-0.05530994	-0.2327073	

8.18e+09	-0.02121346	-0.09367403	-0.002421918	0.002689813	-0.02160193	0.01380439	-0.001536979	0.001820702	
-0.002421918	0.002689813	-0.1039704	-0.1902999	-0.002363742	0.003266581	-0.08355124	-0.112011	
-0.02160193	0.01380439	-0.002363742	0.003266581	-0.06923097	-0.1234186	-0.001328257	0.002849754	
-0.001536979	0.001820702	-0.08355124	-0.112011	-0.001328257	0.002849754	-0.09123578	-0.2331656	

8.2e+09	-0.03677157	-0.1022489	-0.001891336	0.003333417	-0.01921188	0.02575595	-0.001174701	0.002261396	
-0.001891336	0.003333417	-0.1380133	-0.1820236	-0.001779969	0.003822379	-0.1055783	-0.08564827	
-0.01921188	0.02575595	-0.001779969	0.003822379	-0.08291558	-0.128168	-0.0008211524	0.003161499	
-0.001174701	0.002261396	-0.1055783	-0.08564827	-0.0008211524	0.003161499	-0.1276511	-0.2308585	

8.22e+09	-0.05865767	-0.1066538	-0.001177436	0.003962255	-0.01500819	0.03673979	-0.0006968268	0.002692491	
-0.001177436	0.003962255	-0.1754021	-0.1657536	-0.001063214	0.004361478	-0.1216688	-0.05590993	
-0.01500819	0.03673979	-0.001063214	0.004361478	-0.103851	-0.1300919	-0.0002548955	0.003438967	
-0.0006968268	0.002692491	-0.1216688	-0.05590993	-0.0002548955	0.003438967	-0.1672763	-0.2217414	

8.24e+09	-0.08166315	-0.1009176	-0.0001776826	0.004443249	-0.008647879	0.04791892	-2.328841e-05	0.003039411	
-0.0001776826	0.004443249	-0.2096005	-0.1361162	-0.0001031969	0.004790789	-0.1315821	-0.02353314	
-0.008647879	0.04791892	-0.0001031969	0.004790789	-0.126913	-0.1209844	0.0004452566	0.003646315	
-2.328841e-05	0.003039411	-0.1315821	-0.02353314	0.0004452566	0.003646315	-0.2062003	-0.2007312	

8.26e+09	-0.09744623	-0.08789508	0.001014684	0.004569395	0.001593061	0.05838327	0.0008025578	0.003155231	
0.001014684	0.004569395	-0.23152	-0.09713193	0.001048723	0.004918232	-0.1346266	0.01042986	
0.001593061	0.05838327	0.001048723	0.004918232	-0.1414468	-0.1028048	0.001268014	0.003663461	
0.0008025578	0.003155231	-0.1346266	0.01042986	0.001268014	0.003663461	-0.2367001	-0.169086	

8.28e+09	-0.1051151	-0.07567202	0.002175567	0.004296823	0.0156923	0.06601247	0.001635268	0.002987992	
0.002175567	0.004296823	-0.2401499	-0.05832026	0.002196997	0.004674997	-0.130253	0.04482428	
0.0156923	0.06601247	0.002196997	0.004674997	-0.1449299	-0.08581374	0.002098307	0.00342775	
0.001635268	0.002987992	-0.130253	0.04482428	0.002098307	0.00342775	-0.255847	-0.1337536	

8.3e+09	-0.1109162	-0.06786307	0.003152746	0.003757163	0.03219013	0.06906027	0.002351468	0.002608455	
0.003152746	0.003757163	-0.2422206	-0.02413414	0.003182896	0.004166068	-0.1179826	0.07750006	
0.03219013	0.06906027	0.003182896	0.004166068	-0.145138	-0.07590859	0.002816176	0.002988453	
0.002351468	0.002608455	-0.1179826	0.07750006	0.002816176	0.002988453	-0.2673892	-0.09986636	

8.32e+09	-0.1196024	-0.06033694	0.00396285	0.00310013	0.04883078	0.06715802	0.00293668	0.002129475	
0.00396285	0.00310013	-0.2425945	0.009489157	0.004004779	0.003540638	-0.09884398	0.1060343	
0.04883078	0.06715802	0.004004779	0.003540638	-0.1493363	-0.06843458	0.003393539	0.002453716	
0.00293668	0.002129475	-0.09884398	0.1060343	0.003393539	0.002453716	-0.2757148	-0.06593884	

8.34e+09	-0.1283316	-0.0477006	0.004710701	0.002340052	0.06428576	0.06155528	0.003465063	0.001587966	
0.004710701	0.002340052	-0.2378518	0.04735482	0.0047679	0.002832886	-0.07481761	0.1295357	
0.06428576	0.06155528	0.0047679	0.002832886	-0.1550396	-0.05569546	0.003899902	0.001877483	
0.003465063	0.001587966	-0.07481761	0.1295357	0.003899902	0.001877483	-0.279596	-0.02805525	

8.36e+09	-0.1304155	-0.03126184	0.005411903	0.001353955	0.07915611	0.0530985	0.003978754	0.0009037317	
0.005411903	0.001353955	-0.2208708	0.08686977	0.005517837	0.001927779	-0.04659244	0.1483137	
0.07915611	0.0530985	0.005517837	0.001927779	-0.1535965	-0.03801128	0.00440011	0.001195401	
0.003978754	0.0009037317	-0.04659244	0.1483137	0.00440011	0.001195401	-0.2733486	0.01346462	

8.38e+09	-0.1243649	-0.01840897	0.005896949	5.442832e-05	0.09353512	0.0402052	0.004375765	-1.753575e-05	
0.005896949	5.442832e-05	-0.1904093	0.1191196	0.006112002	0.0007065018	-0.01401589	0.1612721	
0.09353512	0.0402052	0.006112002	0.0007065018	-0.1418681	-0.02427544	0.004822271	0.0002968689	
0.004375765	-1.753575e-05	-0.01401589	0.1612721	0.004822271	0.0002968689	-0.2539045	0.05202675	

8.4e+09	-0.1171501	-0.0139693	0.005955511	-0.001417155	0.1048102	0.02193037	0.004481895	-0.001109157	
0.005955511	-0.001417155	-0.1541711	0.1376513	0.006325618	-0.0007326038	0.02183239	0.1664846	
0.1048102	0.02193037	0.006325618	-0.0007326038	-0.1276683	-0.02182274	0.00499426	-0.0007883596	
0.004481895	-0.001109157	0.02183239	0.1664846	0.00499426	-0.0007883596	-0.2255669	0.08067581	

8.42e+09	-0.1151931	-0.01357285	0.005596452	-0.002826236	0.1105799	-0.0001355447	0.004262147	-0.002200989	
0.005596452	-0.002826236	-0.1203014	0.1456781	0.006132626	-0.002161804	0.05864685	0.1625329	
0.1105799	-0.0001355447	0.006132626	-0.002161804	-0.1203353	-0.02641339	0.004857784	-0.001905114	
0.004262147	-0.002200989	0.05864685	0.1625329	0.004857784	-0.001905114	-0.1953451	0.09961923	

8.44e+09	-0.1172422	-0.01048421	0.004970128	-0.004087741	0.1099898	-0.02348942	0.003808292	-0.003196669	
0.004970128	-0.004087741	-0.08895572	0.1499377	0.005668413	-0.003483413	0.09322829	0.1495156	
0.1099898	-0.02348942	0.005668413	-0.003483413	-0.1195773	-0.02868591	0.004488327	-0.002953104	
0.003808292	-0.003196669	0.09322829	0.1495156	0.004488327	-0.002953104	-0.1653858	0.1134542	

8.46e+09	-0.1171215	-0.003701154	0.004125636	-0.005277345	0.1036936	-0.04619989	0.003176212	-0.004129612	
0.004125636	-0.005277345	-0.05460967	0.1511047	0.004984669	-0.00476745	0.1234861	0.1292253	
0.1036936	-0.04619989	0.004984669	-0.00476745	-0.1174137	-0.02633115	0.003939526	-0.00395841	
0.003176212	-0.004129612	0.1234861	0.1292253	0.003939526	-0.00395841	-0.1322557	0.1239793	

8.48e+09	-0.1124159	0.0009614169	0.002935645	-0.006397838	0.09261441	-0.06781826	0.002288149	-0.005016939	
0.002935645	-0.006397838	-0.01616394	0.142466	0.003950903	-0.006029571	0.1490082	0.1029436	
0.09261441	-0.06781826	0.003950903	-0.006029571	-0.1098532	-0.02635315	0.003135942	-0.004943551	
0.002288149	-0.005016939	0.1490082	0.1029436	0.003135942	-0.004943551	-0.09367438	0.1266399	

8.5e+09	-0.1082862	-0.0009071976	0.001289562	-0.007231519	0.07615546	-0.08842644	0.001045284	-0.005718349	
0.001289562	-0.007231519	0.01908515	0.1190195	0.002437396	-0.007063489	0.169022	0.07038128	
0.07615546	-0.08842644	0.002437396	-0.007063489	-0.1029937	-0.03522246	0.00197304	-0.005780551	
0.001045284	-0.005718349	0.169022	0.07038128	0.00197304	-0.005780551	-0.05411493	0.1157333	

8.52e+09	-0.1112983	-0.005618652	-0.0006471626	-0.007485878	0.05287727	-0.1058471	-0.0004619199	-0.006000447	
-0.0006471626	-0.007485878	0.04175514	0.08490627	0.0005785128	-0.007568522	0.180586	0.03211849	
0.05287727	-0.1058471	0.0005785128	-0.007568522	-0.1058515	-0.0491122	0.0005195822	-0.006242414	
-0.0004619199	-0.006000447	0.180586	0.03211849	0.0005195822	-0.006242414	-0.02216453	0.09203881	

8.54e+09	-0.1205833	-0.005075018	-0.002529802	-0.007120237	0.02416394	-0.1168578	-0.001980022	-0.005793067	
-0.002529802	-0.007120237	0.05016629	0.05062367	-0.001298525	-0.007479518	0.1813469	-0.008794152	
0.02416394	-0.1168578	-0.001298525	-0.007479518	-0.1188551	-0.05735449	-0.000993254	-0.006251385	
-0.001980022	-0.005793067	0.1813469	-0.008794152	-0.000993254	-0.006251385	-0.002234582	0.06332459	

8.56e+09	-0.1289354	0.002520709	-0.004193977	-0.006307665	-0.0073853	-0.1204037	-0.003349733	-0.005201755	
-0.004193977	-0.006307665	0.0514544	0.02096882	-0.003035126	-0.006947129	0.1709761	-0.04852965	
-0.0073853	-0.1204037	-0.003035126	-0.006947129	-0.1328844	-0.05596866	-0.002427571	-0.005895568	
-0.003349733	-0.005201755	0.1709761	-0.04852965	-0.002427571	-0.005895568	0.009492215	0.03540565	

8.58e+09	-0.1324918	0.01217429	-0.00561216	-0.005129997	-0.04002705	-0.116379	-0.004502565	-0.004320822	
-0.00561216	-0.005129997	0.05026758	-0.00806848	-0.004605367	-0.006023569	0.1509633	-0.08395952	
-0.04002705	-0.116379	-0.004605367	-0.006023569	-0.1419632	-0.0507743	-0.003732784	-0.005229308	
-0.004502565	-0.004320822	0.1509633	-0.08395952	-0.003732784	-0.005229308	0.01727669	0.0070797	

8.6e+09	-0.134574	0.02025632	-0.006703863	-0.003683957	-0.07221349	-0.1036312	-0.005460816	-0.003355576	
-0.006703863	-0.003683957	0.04244454	-0.04037421	-0.005939023	-0.004775097	0.1230622	-0.1129516	
-0.07221349	-0.1036312	-0.005939023	-0.004775097	-0.1492281	-0.04705144	-0.004937136	-0.004418963	
-0.005460816	-0.003355576	0.1230622	-0.1129516	-0.004937136	-0.004418963	0.0192791	-0.02444927	

8.62e+09	-0.1373756	0.02794939	-0.007637119	-0.0018321	-0.09959417	-0.08359906	-0.00662691	-0.001871479	
-0.007637119	-0.0018321	0.02265672	-0.07169211	-0.007123839	-0.002968286	0.09008439	-0.1350401	
-0.09959417	-0.08359906	-0.007123839	-0.002968286	-0.1589693	-0.04468425	-0.006329232	-0.002915138	
-0.00662691	-0.001871479	0.09008439	-0.1350401	-0.006329232	-0.002915138	0.01180884	-0.05807864	

8.64e+09	-0.1431776	0.03852506	-0.007482278	0.0004550142	-0.1236034	-0.05869119	-0.00668001	0.0003185268	
-0.007482278	0.0004550142	-0.009093076	-0.09378321	-0.007106015	-0.000708022	0.05147878	-0.1499813	
-0.1236034	-0.05869119	-0.007106015	-0.000708022	-0.1748537	-0.03745347	-0.006483853	-0.0007043718	
-0.00668001	0.0003185268	0.05147878	-0.1499813	-0.006483853	-0.0007043718	-0.008716206	-0.08788383	

8.66e+09	-0.1468693	0.05587842	-0.00683485	0.001898041	-0.1431604	-0.02777571	-0.00603686	0.001727621	
-0.00683485	0.001898041	-0.04475962	-0.1017721	-0.006585231	0.0006352457	0.008690821	-0.1551067	
-0.1431604	-0.02777571	-0.006585231	0.0006352457	-0.1895869	-0.01962535	-0.005915382	0.0006353048	
-0.00603686	0.001727621	0.008690821	-0.1551067	-0.005915382	0.0006353048	-0.03713125	-0.1067464	

8.68e+09	-0.1425679	0.07657244	-0.006111017	0.003342912	-0.1557307	0.008815761	-0.005360176	0.002993246	
-0.006111017	0.003342912	-0.07657191	-0.09839637	-0.006088283	0.001962942	-0.03533561	-0.1479796	
-0.1557307	0.008815761	-0.006088283	0.001962942	-0.1947019	0.004758411	-0.005408899	0.001795108	
-0.005360176	0.002993246	-0.03533561	-0.1479796	-0.005408899	0.001795108	-0.06622501	-0.1146127	

8.7e+09	-0.1318307	0.09354879	-0.005075401	0.0044856	-0.1595847	0.0484247	-0.004425455	0.003994499	
-0.005075401	0.0044856	-0.1037338	-0.09087608	-0.005335306	0.003075376	-0.07541711	-0.1291644	
-0.1595847	0.0484247	-0.005335306	0.003075376	-0.1912494	0.02623191	-0.004708132	0.002760036	
-0.004425455	0.003994499	-0.07541711	-0.1291644	-0.004708132	0.002760036	-0.09307036	-0.1165872	

8.72e+09	-0.1204765	0.1064387	-0.003911944	0.005392242	-0.1543925	0.08874375	-0.003391176	0.004761281	
-0.003911944	0.005392242	-0.1316191	-0.07983698	-0.004453002	0.004022185	-0.1088808	-0.1015686	
-0.1543925	0.08874375	-0.004453002	0.004022185	-0.1867685	0.04359985	-0.003909582	0.00355246	
-0.003391176	0.004761281	-0.1088808	-0.1015686	-0.003909582	0.00355246	-0.1209344	-0.1147625	

8.74e+09	-0.1098063	0.1200848	-0.002556314	0.006075292	-0.140323	0.1275499	-0.002224073	0.005329877	
-0.002556314	0.006075292	-0.1601455	-0.05920784	-0.003366609	0.004799097	-0.1348746	-0.06762852	
-0.140323	0.1275499	-0.003366609	0.004799097	-0.1834557	0.06302565	-0.002974863	0.004187586	
-0.002224073	0.005329877	-0.1348746	-0.06762852	-0.002974863	0.004187586	-0.1511035	-0.1049414	

8.76e+09	-0.09509334	0.1367704	-0.001020048	0.006389793	-0.1182051	0.163174	-0.0009223086	0.005608875	
-0.001020048	0.006389793	-0.1815402	-0.02667804	-0.002092994	0.005262136	-0.1531168	-0.02862738	
-0.1182051	0.163174	-0.002092994	0.005262136	-0.1752502	0.08810334	-0.001910562	0.004578565	
-0.0009223086	0.005608875	-0.1531168	-0.02862738	-0.001910562	0.004578565	-0.178303	-0.08348526	

8.78e+09	-0.07198321	0.1523505	0.0005097435	0.006242824	-0.08862972	0.1943004	0.0003920681	0.005516886	
0.0005097435	0.006242824	-0.1890765	0.01173004	-0.0008036032	0.005330567	-0.1621828	0.01450296	
-0.08862972	0.1943004	-0.0008036032	0.005330567	-0.1561285	0.1139344	-0.0008258106	0.00466436	
0.0003920681	0.005516886	-0.1621828	0.01450296	-0.0008258106	0.00466436	-0.1956092	-0.05318251	

8.8e+09	-0.0424266	0.1602385	0.001828754	0.005731625	-0.05238904	0.2192272	0.001553074	0.005107283	
0.001828754	0.005731625	-0.1840548	0.04691499	0.000329613	0.005098456	-0.1605264	0.05915768	
-0.05238904	0.2192272	0.000329613	0.005098456	-0.1275765	0.1322016	0.0001487347	0.004500143	
0.001553074	0.005107283	-0.1605264	0.05915768	0.0001487347	0.004500143	-0.2013048	-0.02169097	

8.82e+09	-0.01273275	0.1591916	0.002905551	0.005031751	-0.01053005	0.2365357	0.002513565	0.004512462	
0.002905551	0.005031751	-0.1734474	0.0763548	0.001295671	0.004714187	-0.1479533	0.1022187	
-0.01053005	0.2365357	0.001295671	0.004714187	-0.0971139	0.1404073	0.0009914201	0.004192368	
0.002513565	0.004512462	-0.1479533	0.1022187	0.0009914201	0.004192368	-0.2000065	0.006739738	

8.84e+09	0.01400307	0.1534524	0.003823029	0.004208384	0.03517246	0.2445334	0.003319825	0.003802638	
0.003823029	0.004208384	-0.16036	0.104657	0.002171284	0.004215808	-0.1258483	0.1406054	
0.03517246	0.2445334	0.002171284	0.004215808	-0.0693572	0.1436642	0.001744218	0.003780203	
0.003319825	0.003802638	-0.1258483	0.1406054	0.001744218	0.003780203	-0.1955734	0.03430893	

8.86e+09	0.04025413	0.1462514	0.004600031	0.00321225	0.08197051	0.2423107	0.003995807	0.002959441	
0.004600031	0.00321225	-0.1405233	0.1344748	0.002963657	0.003542735	-0.09657355	0.1726565	
0.08197051	0.2423107	0.002963657	0.003542735	-0.04092558	0.1464803	0.00241649	0.003235248	
0.003995807	0.002959441	-0.09657355	0.1726565	0.00241649	0.003235248	-0.185784	0.06418826	

8.88e+09	0.0694734	0.1350704	0.005139223	0.002012177	0.1273367	0.2304038	0.004484448	0.001958089	
0.005139223	0.002012177	-0.1090556	0.1610139	0.003574594	0.002669859	-0.06182207	0.1982441	
0.1273367	0.2304038	0.003574594	0.002669859	-0.006644541	0.1458187	0.002948684	0.002543171	
0.004484448	0.001958089	-0.06182207	0.1982441	0.002948684	0.002543171	-0.1657837	0.09406347	

8.9e+09	0.09991666	0.1147709	0.005320393	0.0007011893	0.1699259	0.2097961	0.004694706	0.0008531726	
0.005320393	0.0007011893	-0.06824206	0.1763035	0.003902476	0.001684468	-0.02177048	0.2170007	
0.1699259	0.2097961	0.003902476	0.001684468	0.03198715	0.1346014	0.003272115	0.001757214	
0.004694706	0.0008531726	-0.02177048	0.2170007	0.003272115	0.001757214	-0.1350928	0.117145	

8.92e+09	0.1253948	0.08428722	0.005131665	-0.0005494857	0.2085482	0.1805418	0.004597631	-0.0002283769	
0.005131665	-0.0005494857	-0.02587752	0.1777967	0.00394688	0.0007260258	0.02293274	0.2267131	
0.2085482	0.1805418	0.00394688	0.0007260258	0.06735865	0.110568	0.003375438	0.0009734405	
0.004597631	-0.0002283769	0.02293274	0.2267131	0.003375438	0.0009734405	-0.09902539	0.1290058	

8.94e+09	0.1411644	0.04818004	0.00468226	-0.001621561	0.2410576	0.1428793	0.0042623	-0.001178036	
0.00468226	-0.001621561	0.01213199	0.1697069	0.003797884	-0.0001237724	0.06943596	0.2253971	
0.2410576	0.1428793	0.003797884	-0.0001237724	0.09332297	0.07865765	0.003313273	0.0002605217	
0.0042623	-0.001178036	0.06943596	0.2253971	0.003313273	0.0002605217	-0.063933	0.131024	

8.96e+09	0.1485965	0.01187174	0.004078428	-0.002525777	0.2649749	0.09803823	0.003776853	-0.001980454	
0.004078428	-0.002525777	0.04711707	0.157159	0.003527297	-0.0008832475	0.1140955	0.213064	
0.2649749	0.09803823	0.003527297	-0.0008832475	0.11121	0.0454791	0.003138889	-0.0003782688	
0.003776853	-0.001980454	0.1140955	0.213064	0.003138889	-0.0003782688	-0.03046703	0.1277883	

8.98e+09	0.1515499	-0.02420031	0.00332653	-0.00330454	0.27822	0.04864124	0.003169378	-0.002657822	
0.00332653	-0.00330454	0.08308855	0.1388364	0.00312606	-0.001580525	0.1541483	0.1914959	
0.27822	0.04864124	0.00312606	-0.001580525	0.1259916	0.01133001	0.002863037	-0.0009517951	
0.003169378	-0.002657822	0.1541483	0.1914959	0.002863037	-0.0009517951	0.0045341	0.1196041	

9e+09	0.1500757	-0.0629412	0.002379414	-0.003913294	0.2802741	-0.001811375	0.002424579	-0.00318456	
0.002379414	-0.003913294	0.1182123	0.1093164	0.002558142	-0.002169308	0.1884813	0.1628363	
0.2802741	-0.001811375	0.002558142	-0.002169308	0.1378285	-0.02837989	0.00248016	-0.001432037	
0.002424579	-0.00318456	0.1884813	0.1628363	0.00248016	-0.001432037	0.04122189	0.102038	

9.02e+09	0.1398028	-0.1046962	0.001240084	-0.004186185	0.2723399	-0.05076042	0.001568104	-0.00344599	
0.001240084	-0.004186185	0.1448014	0.06740204	0.0018448	-0.002526331	0.2169292	0.1278474	
0.2723399	-0.05076042	0.0018448	-0.002526331	0.1406238	-0.07499154	0.002028886	-0.001746104	
0.001568104	-0.00344599	0.2169292	0.1278474	0.002028886	-0.001746104	0.07390825	0.07208376	

9.04e+09	0.1180258	-0.1443124	0.0003048242	-0.003823669	0.2557903	-0.09709923	0.0009594893	-0.003304521	
0.0003048242	-0.003823669	0.1566959	0.01962472	0.001309782	-0.002475106	0.2378884	0.08662661	
0.2557903	-0.09709923	0.001309782	-0.002475106	0.1297514	-0.122584	0.001787516	-0.001849734	
0.0009594893	-0.003304521	0.2378884	0.08662661	0.001787516	-0.001849734	0.09605411	0.03316975	

9.06e+09	0.08768322	-0.1772811	0.0002969346	-0.004105275	0.2307067	-0.1406693	0.0008326324	-0.003927	
0.0002969346	-0.004105275	0.1560518	-0.02592151	0.001347659	-0.003151766	0.2489668	0.04112199	
0.2307067	-0.1406693	0.001347659	-0.003151766	0.1078005	-0.1647804	0.001758087	-0.002743766	
0.0008326324	-0.003927	0.2489668	0.04112199	0.001758087	-0.002743766	0.1067532	-0.008099144	

9.08e+09	0.05263343	-0.202512	-0.001665557	-0.004780143	0.1958988	-0.1795145	-0.001128155	-0.004419481	
-0.001665557	-0.004780143	0.1493498	-0.06758469	-0.0006096874	-0.003873916	0.2496203	-0.005458939	
0.1958988	-0.1795145	-0.0006096874	-0.003873916	0.07969788	-0.2000381	-6.779981e-05	-0.003261195	
-0.001128155	-0.004419481	0.2496203	-0.005458939	-6.779981e-05	-0.003261195	0.1100708	-0.04834522	

9.1e+09	0.01432037	-0.2215677	-0.003010884	-0.003219753	0.1515278	-0.2091353	-0.002160093	-0.00301163	
-0.003010884	-0.003219753	0.1370168	-0.1110372	-0.001665024	-0.00246108	0.2392875	-0.05132501	
0.1515278	-0.2091353	-0.001665024	-0.00246108	0.04706442	-0.2303001	-0.0007433202	-0.0020467	
-0.002160093	-0.00301163	0.2392875	-0.05132501	-0.0007433202	-0.0020467	0.1069843	-0.09079676	

9.12e+09	-0.02698855	-0.2350154	-0.003138558	-0.00204132	0.103328	-0.2264498	-0.002174782	-0.002151375	
-0.003138558	-0.00204132	0.1134419	-0.1546303	-0.001606398	-0.001652473	0.219177	-0.09165675	
0.103328	-0.2264498	-0.001606398	-0.001652473	0.009550791	-0.2567925	-0.000538327	-0.00158677	
-0.002174782	-0.002151375	0.219177	-0.09165675	-0.000538327	-0.00158677	0.09411758	-0.1345737	

9.14e+09	-0.07257758	-0.2413015	-0.002893856	-0.00135435	0.05547212	-0.2335527	-0.001963959	-0.001799637	
-0.002893856	-0.00135435	0.07733803	-0.1919776	-0.001371271	-0.00141356	0.193171	-0.1254467	
0.05547212	-0.2335527	-0.001371271	-0.00141356	-0.03555479	-0.2772797	-0.0003048751	-0.001711559	
-0.001963959	-0.001799637	0.193171	-0.1254467	-0.0003048751	-0.001711559	0.06924584	-0.1754495	

9.16e+09	-0.1201082	-0.2373619	-0.003046801	-0.001671532	0.008760783	-0.2335758	-0.002237972	-0.002415098	
-0.003046801	-0.001671532	0.0342042	-0.2184484	-0.001835281	-0.002033999	0.1636546	-0.1544091	
0.008760783	-0.2335758	-0.001835281	-0.002033999	-0.08618355	-0.2870827	-0.000869473	-0.002679145	
-0.002237972	-0.002415098	0.1636546	-0.1544091	-0.000869473	-0.002679145	0.03546715	-0.2079065	

9.18e+09	-0.166035	-0.2229966	-0.004702493	-0.0006299527	-0.03928472	-0.226468	-0.004243142	-0.001707453	
-0.004702493	-0.0006299527	-0.01269628	-0.2361089	-0.003592905	-0.0008825022	0.1279193	-0.1806936	
-0.03928472	-0.226468	-0.003592905	-0.0008825022	-0.1380201	-0.2846204	-0.003009617	-0.001874051	
-0.004243142	-0.001707453	0.1279193	-0.1806936	-0.003009617	-0.001874051	-0.00273247	-0.232964	

9.2e+09	-0.2069556	-0.199506	-0.004343852	0.001536532	-0.08674396	-0.2078775	-0.004318832	0.0005387045	
-0.004343852	0.001536532	-0.06309825	-0.2438073	-0.003059905	0.001075162	0.08321873	-0.1981438	
-0.08674396	-0.2078775	-0.003059905	0.001075162	-0.1858826	-0.2710686	-0.00287473	0.0001944673	
-0.004318832	0.0005387045	0.08321873	-0.1981438	-0.00287473	0.0001944673	-0.04606893	-0.2507633	

9.22e+09	-0.2415739	-0.1709806	-0.003225795	0.002543925	-0.1279256	-0.1785529	-0.003360827	0.001707258	
-0.003225795	0.002543925	-0.1137728	-0.2418892	-0.002002024	0.001712913	0.03649503	-0.2022233	
-0.1279256	-0.1785529	-0.002002024	0.001712913	-0.2284026	-0.2516281	-0.001913663	0.0009687576	
-0.003360827	0.001707258	0.03649503	-0.2022233	-0.001913663	0.0009687576	-0.09239824	-0.259915	

9.24e+09	-0.2726377	-0.1382572	-0.002265971	0.003008137	-0.1600592	-0.1424072	-0.002480128	0.002240968	
-0.002265971	0.003008137	-0.1655454	-0.2304657	-0.001261511	0.001868156	-0.007045409	-0.1960635	
-0.1600592	-0.1424072	-0.001261511	0.001868156	-0.2691036	-0.2272492	-0.001211631	0.001136604	
-0.002480128	0.002240968	-0.007045409	-0.1960635	-0.001211631	0.001136604	-0.141468	-0.2605517	

9.26e+09	-0.2997025	-0.0987111	-0.001412184	0.003271193	-0.1835062	-0.1032317	-0.001725272	0.002527259	
-0.001412184	0.003271193	-0.2161873	-0.2059443	-0.0007107733	0.001911212	-0.0467589	-0.183042	
-0.1835062	-0.1032317	-0.0007107733	0.001911212	-0.3078027	-0.1941339	-0.0007423255	0.001136556	
-0.001725272	0.002527259	-0.0467589	-0.183042	-0.0007423255	0.001136556	-0.1922437	-0.2497236	

9.28e+09	-0.3184682	-0.05215117	-0.0005839286	0.003380235	-0.2002147	-0.06259003	-0.001029271	0.002670193	
-0.0005839286	0.003380235	-0.2590359	-0.1684128	-0.0002326025	0.001898504	-0.08360056	-0.1639338	
-0.2002147	-0.06259003	-0.0002326025	0.001898504	-0.3393192	-0.1511456	-0.0003981276	0.001089113	
-0.001029271	0.002670193	-0.08360056	-0.1639338	-0.0003981276	0.001089113	-0.2396192	-0.2258057	

9.3e+09	-0.325919	-0.002673589	0.0002167444	0.003317527	-0.2109377	-0.01953097	-0.0003695273	0.002681256	
0.0002167444	0.003317527	-0.2897072	-0.1233914	0.0002073658	0.001817207	-0.1168546	-0.1375953	
-0.2109377	-0.01953097	0.0002073658	0.001817207	-0.3592979	-0.1028913	-0.0001176863	0.001014497	
-0.0003695273	0.002681256	-0.1168546	-0.1375953	-0.0001176863	0.001014497	-0.2784094	-0.1920618	

9.32e+09	-0.3235202	0.04489214	0.0009442822	0.003091502	-0.2135836	0.02599776	0.0002389958	0.00256268	
0.0009442822	0.003091502	-0.309696	-0.07681413	0.0005983027	0.001661031	-0.1433841	-0.1042894	
-0.2135836	0.02599776	0.0005983027	0.001661031	-0.3689509	-0.05481096	0.0001182051	0.0009054267	
0.0002389958	0.00256268	-0.1433841	-0.1042894	0.0001182051	0.0009054267	-0.307938	-0.1535322	

9.34e+09	-0.3147996	0.08955423	0.001565403	0.002744555	-0.2062998	0.07107498	0.0007668608	0.002334892	
0.001565403	0.002744555	-0.3229296	-0.02967306	0.0009222935	0.001449329	-0.1609116	-0.06727779	
-0.2062998	0.07107498	0.0009222935	0.001449329	-0.3723399	-0.008189503	0.0003002372	0.0007636813	
0.0007668608	0.002334892	-0.1609116	-0.06727779	0.0003002372	0.0007636813	-0.3307214	-0.1125867	

9.36e+09	-0.3009084	0.1333443	0.002086803	0.002323576	-0.190319	0.1120617	0.00120516	0.002037572	
0.002086803	0.002323576	-0.3299513	0.02070096	0.001185355	0.001212433	-0.1703606	-0.03016181	
-0.190319	0.1120617	0.001185355	0.001212433	-0.370872	0.03950385	0.0004238157	0.0006129586	
0.00120516	0.002037572	-0.1703606	-0.03016181	0.0004238157	0.0006129586	-0.3481399	-0.06779766	

9.38e+09	-0.279402	0.1770404	0.002534133	0.001837306	-0.1688278	0.1475375	0.001570574	0.001695293	
0.002534133	0.001837306	-0.3267433	0.07477418	0.001411483	0.0009585586	-0.1741901	0.005900225	
-0.1688278	0.1475375	0.001411483	0.0009585586	-0.3613755	0.08990009	0.0005057693	0.0004751317	
0.001570574	0.001695293	-0.1741901	0.005900225	0.0005057693	0.0004751317	-0.3575372	-0.01779926	

9.4e+09	-0.2479038	0.2174823	0.002903189	0.001265959	-0.1438244	0.1788814	0.001875164	0.00130575	
0.002903189	0.001265959	-0.3101036	0.1279421	0.001610082	0.0006717626	-0.1735313	0.04207784	
-0.1438244	0.1788814	0.001610082	0.0006717626	-0.3401845	0.1395892	0.0005702131	0.000352267	
0.001875164	0.00130575	-0.1735313	0.04207784	0.0005702131	0.000352267	-0.3552287	0.03470529	

9.42e+09	-0.2081852	0.2500491	0.003154818	0.0006102636	-0.1144751	0.2073713	0.002108217	0.0008613778	
0.003154818	0.0006102636	-0.282242	0.1740441	0.001766147	0.00033854	-0.1668646	0.07916179	
-0.1144751	0.2073713	0.001766147	0.00033854	-0.3081649	0.1830477	0.0006306433	0.0002283146	
0.002108217	0.0008613778	-0.1668646	0.07916179	0.0006306433	0.0002283146	-0.3409782	0.08457306	

9.44e+09	-0.164408	0.2734047	0.003253902	-9.540831e-05	-0.07900238	0.2314058	0.002245822	0.0003700217	
0.003253902	-9.540831e-05	-0.2484096	0.2116375	0.001853774	-3.476894e-05	-0.1520434	0.1149895	
-0.07900238	0.2314058	0.001853774	-3.476894e-05	-0.2703164	0.2175731	0.0006785968	8.604319e-05	
0.002245822	0.0003700217	-0.1520434	0.1149895	0.0006785968	8.604319e-05	-0.3184792	0.1283508	

9.46e+09	-0.1191197	0.2894361	0.00319636	-0.000798957	-0.03849767	0.2474229	0.002268823	-0.0001393832	
0.00319636	-0.000798957	-0.2112811	0.2433083	0.001859656	-0.0004209336	-0.1300346	0.1457426	
-0.03849767	0.2474229	0.001859656	-0.0004209336	-0.2297471	0.2456849	0.0006921687	-7.138461e-05	
0.002268823	-0.0001393832	-0.1300346	0.1457426	0.0006921687	-7.138461e-05	-0.2906413	0.1671937	

9.48e+09	-0.0716247	0.2997207	0.003008396	-0.001462616	0.003168293	0.2542303	0.002183598	-0.0006250643	
0.003008396	-0.001462616	-0.1691034	0.2708323	0.001795066	-0.0007926916	-0.1044601	0.17013	
0.003168293	0.2542303	0.001795066	-0.0007926916	-0.1852488	0.2695387	0.0006669445	-0.0002175531	
0.002183598	-0.0006250643	-0.1044601	0.17013	0.0006669445	-0.0002175531	-0.2573485	0.202586	

9.5e+09	-0.0206868	0.302744	0.002720303	-0.002086759	0.04303492	0.2538987	0.002022095	-0.001072045	
0.002720303	-0.002086759	-0.1197929	0.2915055	0.001683598	-0.001150757	-0.07754804	0.1900257	
0.04303492	0.2538987	0.001683598	-0.001150757	-0.1342044	0.2872785	0.0006273553	-0.0003401159	
0.002022095	-0.001072045	-0.07754804	0.1900257	0.0006273553	-0.0003401159	-0.2162729	0.23339	

9.52e+09	0.03236735	0.2952109	0.002320638	-0.002686209	0.0814915	0.2488675	0.001797143	-0.001494562	
0.002320638	-0.002686209	-0.06520703	0.3005784	0.001521873	-0.001514718	-0.04833991	0.2072368	
0.0814915	0.2488675	0.001521873	-0.001514718	-0.07741936	0.2940593	0.0005936786	-0.000457161	
0.001797143	-0.001494562	-0.04833991	0.2072368	0.0005936786	-0.000457161	-0.1675879	0.2553224	

9.54e+09	0.08308805	0.2759317	0.001777216	-0.003235419	0.1203223	0.2387773	0.001490683	-0.001897862	
0.001777216	-0.003235419	-0.01100157	0.2966361	0.001279971	-0.001883915	-0.01477519	0.2206459	
0.1203223	0.2387773	0.001279971	-0.001883915	-0.02017651	0.2873124	0.0005556396	-0.0005964346	
0.001490683	-0.001897862	-0.01477519	0.2206459	0.0005556396	-0.0005964346	-0.1152934	0.2654099	

9.56e+09	0.1277933	0.2474042	0.001083967	-0.003674241	0.1589998	0.2208972	0.001080493	-0.002255668	
0.001083967	-0.003674241	0.03863372	0.2829143	0.0009344542	-0.002224391	0.02261618	0.2268253	
0.1589998	0.2208972	0.0009344542	-0.002224391	0.03226673	0.2696362	0.0004789371	-0.0007618656	
0.001080493	-0.002255668	0.02261618	0.2268253	0.0004789371	-0.0007618656	-0.06420311	0.2647772	

9.58e+09	0.1659997	0.2128908	0.0002846333	-0.003947652	0.1936024	0.1939203	0.0005706342	-0.00252041	
0.0002846333	-0.003947652	0.08398765	0.2631522	0.0004954213	-0.002490197	0.0599381	0.2239891	
0.1936024	0.1939203	0.0004954213	-0.002490197	0.07968264	0.2450924	0.0003388761	-0.0009222302	
0.0005706342	-0.00252041	0.0599381	0.2239891	0.0003388761	-0.0009222302	-0.01552346	0.2564506	

9.6e+09	0.1989731	0.1729159	-0.0005626044	-0.004042034	0.2204337	0.1607135	2.641194e-06	-0.002654899	
-0.0005626044	-0.004042034	0.1273029	0.2369023	-8.352866e-07	-0.0026588	0.09368401	0.2145261	
0.2204337	0.1607135	-8.352866e-07	-0.0026588	0.1242306	0.2139475	0.0001523138	-0.001038995	
2.641194e-06	-0.002654899	0.09368401	0.2145261	0.0001523138	-0.001038995	0.03207137	0.2410054	

9.62e+09	0.2260102	0.1263698	-0.00141753	-0.003976495	0.2397089	0.1252528	-0.0005711225	-0.002666319	
-0.00141753	-0.003976495	0.167448	0.2015203	-0.00052511	-0.002739731	0.1243365	0.2016248	
0.2397089	0.1252528	-0.00052511	-0.002739731	0.1652169	0.173513	-4.337405e-05	-0.001112855	
-0.0005711225	-0.002666319	0.1243365	0.2016248	-4.337405e-05	-0.001112855	0.07829643	0.2165395	

9.64e+09	0.2439017	0.07292353	-0.00228782	-0.003759846	0.2538493	0.08854873	-0.001143733	-0.002585852	
-0.00228782	-0.003759846	0.1997538	0.1561602	-0.001087956	-0.002745064	0.1541797	0.1851245	
0.2538493	0.08854873	-0.001087956	-0.002745064	0.1980192	0.1226192	-0.0002468104	-0.001176286	
-0.001143733	-0.002585852	0.1541797	0.1851245	-0.0002468104	-0.001176286	0.1196931	0.1813519	

9.66e+09	0.24929	0.0161095	-0.003166645	-0.003353319	0.2632862	0.04890655	-0.001735473	-0.002404523	
-0.003166645	-0.003353319	0.2198836	0.1049828	-0.001706277	-0.002643568	0.1829426	0.1623612	
0.2632862	0.04890655	-0.001706277	-0.002643568	0.2177186	0.06480958	-0.0004955516	-0.001232723	
-0.001735473	-0.002404523	0.1829426	0.1623612	-0.0004955516	-0.001232723	0.1517151	0.1374511	

9.68e+09	0.2422643	-0.03935498	-0.003991256	-0.002709401	0.2651495	0.005666594	-0.00233285	-0.002077033	
-0.003991256	-0.002709401	0.2282581	0.05339457	-0.002350721	-0.00238128	0.2068691	0.1321203	
0.2651495	0.005666594	-0.002350721	-0.00238128	0.2238307	0.006322141	-0.0008117341	-0.001236217	
-0.00233285	-0.002077033	0.2068691	0.1321203	-0.0008117341	-0.001236217	0.1727392	0.08961217	

9.7e+09	0.2255948	-0.09079374	-0.004662425	-0.001838458	0.2563742	-0.03810132	-0.00287181	-0.001570316	
-0.004662425	-0.001838458	0.228282	0.003576177	-0.002950334	-0.001934324	0.2222604	0.09723718	
0.2563742	-0.03810132	-0.002950334	-0.001934324	0.2198476	-0.04976659	-0.001164407	-0.001130756	
-0.00287181	-0.001570316	0.2222604	0.09723718	-0.001164407	-0.001130756	0.1847023	0.04086974	

9.72e+09	0.2009875	-0.1384709	-0.005112501	-0.0008069967	0.2376314	-0.07740374	-0.003271633	-0.0009109948	
-0.005112501	-0.0008069967	0.221271	-0.0460889	-0.00343883	-0.001334525	0.2292504	0.06228166	
0.2376314	-0.07740374	-0.00343883	-0.001334525	0.2077087	-0.1044893	-0.001486654	-0.0009081699	
-0.003271633	-0.0009109948	0.2292504	0.06228166	-0.001486654	-0.0009081699	0.1890098	-0.008917441	

9.74e+09	0.167827	-0.1820572	-0.005327418	0.0003025127	0.2130964	-0.1099072	-0.003493989	-0.0001776092	
-0.005327418	0.0003025127	0.2047507	-0.09579023	-0.003793846	-0.0006348721	0.2311273	0.02900352	
0.2130964	-0.1099072	-0.003793846	-0.0006348721	0.1853745	-0.1583808	-0.00173881	-0.0006154033	
-0.003493989	-0.0001776092	0.2311273	0.02900352	-0.00173881	-0.0006154033	0.184365	-0.06012089	

9.76e+09	0.1252898	-0.2190963	-0.005327145	0.001454344	0.1853806	-0.1374199	-0.003568502	0.0005766929	
-0.005327145	0.001454344	0.1764829	-0.141972	-0.004025522	0.0001440916	0.2291823	-0.004673832	
0.1853806	-0.1374199	-0.004025522	0.0001440916	0.1506	-0.2079922	-0.001942636	-0.0002854779	
-0.003568502	0.0005766929	0.2291823	-0.004673832	-0.001942636	-0.0002854779	0.1686069	-0.1106277	

9.78e+09	0.07481252	-0.2456819	-0.005094084	0.002652942	0.1534315	-0.1613161	-0.003516301	0.001364589	
-0.005094084	0.002652942	0.1378803	-0.1793194	-0.004114916	0.001020626	0.220972	-0.03964369	
0.1534315	-0.1613161	-0.004114916	0.001020626	0.1048114	-0.2476649	-0.002119301	0.0001069883	
-0.003516301	0.001364589	0.220972	-0.03964369	-0.002119301	0.0001069883	0.1415223	-0.1558258	

9.8e+09	0.02104235	-0.2595484	-0.004561803	0.00385093	0.115608	-0.1795743	-0.00329001	0.002197484	
-0.004561803	0.00385093	0.09429948	-0.2051444	-0.003988719	0.001981753	0.2039857	-0.07295712	
0.115608	-0.1795743	-0.003988719	0.001981753	0.05325918	-0.2744806	-0.002225644	0.000603443	
-0.00329001	0.002197484	0.2039857	-0.07295712	-0.002225644	0.000603443	0.1063949	-0.192242	

9.82e+09	-0.0319066	-0.2621656	-0.003697229	0.004927828	0.07345234	-0.1883761	-0.00282485	0.003011318	
-0.003697229	0.004927828	0.0499906	-0.2215193	-0.003580532	0.002937943	0.1794764	-0.1000923	
0.07345234	-0.1883761	-0.003580532	0.002937943	0.0007696055	-0.290099	-0.002176303	0.001181636	
-0.00282485	0.003011318	0.1794764	-0.1000923	-0.002176303	0.001181636	0.06730834	-0.2198263	

9.84e+09	-0.08282526	-0.2559736	-0.002563649	0.005755346	0.03171757	-0.1862993	-0.002122212	0.00369064	
-0.002563649	0.005755346	0.005070218	-0.2312544	-0.002902221	0.003763173	0.1518263	-0.1192354	
0.03171757	-0.1862993	-0.002902221	0.003763173	-0.05193482	-0.2973892	-0.001926362	0.001748557	
-0.002122212	0.00369064	0.1518263	-0.1192354	-0.001926362	0.001748557	0.02560119	-0.2403504	

9.86e+09	-0.1321733	-0.2411197	-0.001272526	0.006282724	-0.005578874	-0.1761517	-0.001268812	0.004152688	
-0.001272526	0.006282724	-0.04216036	-0.2333825	-0.002038497	0.004373563	0.1243511	-0.1326337	
-0.005578874	-0.1761517	-0.002038497	0.004373563	-0.1059895	-0.2960172	-0.001515691	0.002208646	
-0.001268812	0.004152688	0.1243511	-0.1326337	-0.001515691	0.002208646	-0.01918236	-0.2536958	

9.88e+09	-0.1782307	-0.2165189	7.904237e-05	0.006525321	-0.03864796	-0.1617262	-0.000369869	0.004401888	
7.904237e-05	0.006525321	-0.08986521	-0.2247928	-0.00108776	0.004753223	0.09627582	-0.1429769	
-0.03864796	-0.1617262	-0.00108776	0.004753223	-0.1601608	-0.2830832	-0.001026294	0.002531258	
-0.000369869	0.004401888	0.09627582	-0.1429769	-0.001026294	0.002531258	-0.0664862	-0.2578255	

9.9e+09	-0.2176875	-0.1822087	0.001470355	0.006511761	-0.06966505	-0.143215	0.0005467978	0.004494158	
0.001470355	0.006511761	-0.1332365	-0.204853	-0.0001048275	0.004934487	0.06544009	-0.1492324	
-0.06966505	-0.143215	-0.0001048275	0.004934487	-0.209606	-0.2578281	-0.0005040997	0.002746623	
0.0005467978	0.004494158	0.06544009	-0.1492324	-0.0005040997	0.002746623	-0.1131599	-0.2510886	

9.92e+09	-0.2472791	-0.1409311	0.002895576	0.00620195	-0.09829018	-0.118307	0.001512122	0.004424861	
0.002895576	0.00620195	-0.1680409	-0.1769545	0.0009070804	0.004928726	0.03280252	-0.1482442	
-0.09829018	-0.118307	0.0009070804	0.004928726	-0.2500187	-0.2231503	6.10903e-05	0.00287095	
0.001512122	0.004424861	0.03280252	-0.1482442	6.10903e-05	0.00287095	-0.1550165	-0.2346491	

9.94e+09	-0.2664517	-0.09703316	0.004257232	0.005542121	-0.1208279	-0.08653621	0.002497096	0.004129861	
0.004257232	0.005542121	-0.1941499	-0.1462493	0.001913608	0.004705579	0.002504678	-0.1391775	
-0.1208279	-0.08653621	0.001913608	0.004705579	-0.2804596	-0.1840174	0.0006641311	0.002870267	
0.002497096	0.004129861	0.002504678	-0.1391775	0.0006641311	0.002870267	-0.190044	-0.2121052	

9.96e+09	-0.2772512	-0.05293864	0.005423101	0.004568617	-0.1341518	-0.05122758	0.003403374	0.003589418	
0.005423101	0.004568617	-0.2147985	-0.1144991	0.002837142	0.004266849	-0.02236942	-0.1250754	
-0.1341518	-0.05122758	0.002837142	0.004266849	-0.3033814	-0.143084	0.00124746	0.002720422	
0.003403374	0.003589418	-0.02236942	-0.1250754	0.00124746	0.002720422	-0.2194671	-0.1863192	

9.98e+09	-0.2809048	-0.008386132	0.006337711	0.003391702	-0.1389375	-0.0168871	0.004157462	0.002870933	
0.006337711	0.003391702	-0.2311003	-0.07979986	0.003630352	0.003680114	-0.04252343	-0.109632	
-0.1389375	-0.0168871	0.003630352	0.003680114	-0.3201633	-0.09916835	0.001752823	0.002467739	
0.004157462	0.002870933	-0.04252343	-0.109632	0.001752823	0.002467739	-0.2447135	-0.157043	

1e+10	-0.2761634	0.03630857	0.007033252	0.00207974	-0.1387175	0.01484911	0.004776381	0.002042326	
0.007033252	0.00207974	-0.2399468	-0.04144601	0.004323954	0.003000081	-0.06090682	-0.09346653	
-0.1387175	0.01484911	0.004323954	0.003000081	-0.3283574	-0.05136069	0.002201717	0.002180455	
0.004776381	0.002042326	-0.06090682	-0.09346653	0.002201717	0.002180455	-0.2645171	-0.1230093	

1.002e+10	-0.2619724	0.07884474	0.007526079	0.0006092623	-0.1352988	0.0459541	0.00529747	0.001088282	
0.007526079	0.0006092623	-0.2387332	-0.002833476	0.004958913	0.002202667	-0.07820041	-0.07405394	
-0.1352988	0.0459541	0.004958913	0.002202667	-0.3250866	-0.002950474	0.002664101	0.001855877	
0.00529747	0.001088282	-0.07820041	-0.07405394	0.002664101	0.001855877	-0.2761781	-0.08570273	

1.004e+10	-0.2390912	0.1159418	0.007731281	-0.001064347	-0.1264918	0.07790959	0.005673279	-6.909281e-05	
0.007731281	-0.001064347	-0.2287622	0.03105183	0.005500056	0.001207756	-0.09141631	-0.05017346	
-0.1264918	0.07790959	0.005500056	0.001207756	-0.3108416	0.04119907	0.003160358	0.001397114	
0.005673279	-6.909281e-05	-0.09141631	-0.05017346	0.003160358	0.001397114	-0.2786198	-0.04867706	

1.006e+10	-0.2106413	0.1452574	0.007494427	-0.002865891	-0.1098293	0.1080798	0.00575044	-0.001425114	
0.007494427	-0.002865891	-0.2145252	0.05812441	0.0058143	1.485851e-06	-0.09778361	-0.02459784	
-0.1098293	0.1080798	0.0058143	1.485851e-06	-0.28946	0.07821072	0.003588099	0.0007234225	
0.00575044	-0.001425114	-0.09778361	-0.02459784	0.003588099	0.0007234225	-0.2739514	-0.01550812	

1.008e+10	-0.1796716	0.1673706	0.006746893	-0.004589488	-0.08642934	0.1322289	0.005404522	-0.002826256	
0.006746893	-0.004589488	-0.1994595	0.08078943	0.005787612	-0.001301747	-0.09838323	-0.001236385	
-0.08642934	0.1322289	0.005787612	-0.001301747	-0.2645034	0.1090204	0.00380302	-0.0001195944	
0.005404522	-0.002826256	-0.09838323	-0.001236385	0.00380302	-0.0001195944	-0.2655528	0.01377761	

1.01e+10	-0.1468631	0.1838405	0.005583998	-0.006045814	-0.06055899	0.1487662	0.004666332	-0.004067117	
0.005583998	-0.006045814	-0.1825384	0.1018083	0.005432066	-0.002546185	-0.09676784	0.01900264	
-0.06055899	0.1487662	0.005432066	-0.002546185	-0.2361987	0.1357106	0.003755201	-0.0009876108	
0.004666332	-0.004067117	-0.09676784	0.01900264	0.003755201	-0.0009876108	-0.2543957	0.04088421	

1.012e+10	-0.1118238	0.1943106	0.00415898	-0.007180392	-0.03529394	0.1599934	0.003678362	-0.005052069	
0.00415898	-0.007180392	-0.1612763	0.1198617	0.004833565	-0.003669408	-0.09479059	0.0384712	
-0.03529394	0.1599934	0.004833565	-0.003669408	-0.2025258	0.1574351	0.003511448	-0.001786548	
0.003678362	-0.005052069	-0.09479059	0.0384712	0.003511448	-0.001786548	-0.2388107	0.06613831	

1.014e+10	-0.07545522	0.1968756	0.002530167	-0.008021734	-0.00969902	0.1686213	0.002538779	-0.005809929	
0.002530167	-0.008021734	-0.1368519	0.1310071	0.004021561	-0.004684584	-0.09062197	0.05939176	
-0.00969902	0.1686213	0.004021561	-0.004684584	-0.1641065	0.1703533	0.003137459	-0.002524656	
0.002538779	-0.005809929	-0.09062197	0.05939176	0.003137459	-0.002524656	-0.2182229	0.08692969	

1.016e+10	-0.04074888	0.1908891	0.0006889572	-0.008540556	0.01861554	0.173645	0.001243641	-0.006371258	
0.0006889572	-0.008540556	-0.1138371	0.1346603	0.002961382	-0.005566033	-0.08148996	0.08019187	
0.01861554	0.173645	0.002961382	-0.005566033	-0.125584	0.1725347	0.002615689	-0.00323426	
0.001243641	-0.006371258	-0.08148996	0.08019187	0.002615689	-0.00323426	-0.1952743	0.1009613	

1.018e+10	-0.01078526	0.1777631	-0.001343718	-0.008603398	0.04877689	0.1714256	-0.0002575755	-0.006653416	
-0.001343718	-0.008603398	-0.09568823	0.13415	0.001624189	-0.006193682	-0.06804361	0.09721246	
0.04877689	0.1714256	0.001624189	-0.006193682	-0.09142266	0.1660911	0.001863542	-0.003862662	
-0.0002575755	-0.006653416	-0.06804361	0.09721246	0.001863542	-0.003862662	-0.1737231	0.108723	

1.02e+10	0.01323624	0.1605152	-0.003386023	-0.008078703	0.07626107	0.1609025	-0.001872629	-0.006496386	
-0.003386023	-0.008078703	-0.08127883	0.1337854	0.0001157976	-0.006415855	-0.05389316	0.1095736	
0.07626107	0.1609025	0.0001157976	-0.006415855	-0.06259219	0.154999	0.0008953949	-0.004257054	
-0.001872629	-0.006496386	-0.05389316	0.1095736	0.0008953949	-0.004257054	-0.1550743	0.1135804	

1.022e+10	0.03230267	0.1413356	-0.005175108	-0.007021911	0.09758845	0.1455285	-0.003371767	-0.005868421	
-0.005175108	-0.007021911	-0.06697315	0.1341514	-0.001358912	-0.006211695	-0.0411373	0.1200155	
0.09758845	0.1455285	-0.001358912	-0.006211695	-0.03697149	0.1411276	-0.0001345445	-0.00432941	
-0.003371767	-0.005868421	-0.0411373	0.1200155	-0.0001345445	-0.00432941	-0.1374487	0.1177661	

1.024e+10	0.04741646	0.1201093	-0.006602223	-0.005616946	0.1135941	0.1293789	-0.004597643	-0.004914868	
-0.006602223	-0.005616946	-0.05171776	0.1321718	-0.002683233	-0.005691843	-0.02807859	0.1310865	
0.1135941	0.1293789	-0.002683233	-0.005691843	-0.01380878	0.1228564	-0.001082036	-0.0041451	
-0.004597643	-0.004914868	-0.02807859	0.1310865	-0.001082036	-0.0041451	-0.1188525	0.1200617	

1.026e+10	0.05743529	0.09626836	-0.007694856	-0.00396821	0.1273695	0.1129091	-0.005561599	-0.003769734	
-0.007694856	-0.00396821	-0.03866908	0.1264809	-0.003867565	-0.004925403	-0.01193718	0.1418887	
0.1273695	0.1129091	-0.003867565	-0.004925403	0.004063934	0.09890154	-0.001938077	-0.003798772	
-0.005561599	-0.003769734	-0.01193718	0.1418887	-0.001938077	-0.003798772	-0.1006866	0.1182646	

1.028e+10	0.06031549	0.07179209	-0.008433869	-0.002074679	0.1393607	0.09364297	-0.006304118	-0.002449004	
-0.008433869	-0.002074679	-0.03067604	0.1202592	-0.004895083	-0.003882578	0.007534056	0.14924	
0.1393607	0.09364297	-0.004895083	-0.003882578	0.01294468	0.07209511	-0.00274274	-0.003290771	
-0.006304118	-0.002449004	0.007534056	0.14924	-0.00274274	-0.003290771	-0.08585866	0.1132787	

1.03e+10	0.05634946	0.0500206	-0.00869183	3.489143e-05	0.1462603	0.07092556	-0.006762172	-0.0009142815	
-0.00869183	3.489143e-05	-0.0255285	0.1174783	-0.005645141	-0.002548879	0.02716611	0.1516662	
0.1462603	0.07092556	-0.005645141	-0.002548879	0.01323577	0.04780763	-0.00345312	-0.00255704	
-0.006762172	-0.0009142815	0.02716611	0.1516662	-0.00345312	-0.00255704	-0.07507456	0.1083406	

1.032e+10	0.04800579	0.03340218	-0.008316773	0.002184968	0.1455409	0.04824862	-0.006767516	0.000771061	
-0.008316773	0.002184968	-0.01880617	0.1184565	-0.005954721	-0.001028559	0.04455387	0.1515568	
0.1455409	0.04824862	-0.005954721	-0.001028559	0.008686421	0.02860833	-0.003920048	-0.00159655	
-0.006767516	0.000771061	0.04455387	0.1515568	-0.003920048	-0.00159655	-0.0658065	0.1058873	

1.034e+10	0.03861007	0.0218054	-0.007340264	0.004078829	0.1392482	0.03012689	-0.006258478	0.002362385	
-0.007340264	0.004078829	-0.008392268	0.1194756	-0.005788988	0.0004454383	0.06121711	0.15151	
0.1392482	0.03012689	-0.005788988	0.0004454383	0.002808029	0.01333659	-0.004039698	-0.0005706188	
-0.006258478	0.002362385	0.06121711	0.15151	-0.004039698	-0.0005706188	-0.05481179	0.1047117	

1.036e+10	0.02930446	0.01303064	-0.005980351	0.00555534	0.1318919	0.01689854	-0.005383783	0.003662938	
-0.005980351	0.00555534	0.003482844	0.1174184	-0.005284384	0.001714961	0.07990571	0.1507184	
0.1318919	0.01689854	-0.005284384	0.001714961	-0.004520816	-0.0004201792	-0.003879697	0.0003483014	
-0.005383783	0.003662938	0.07990571	0.1507184	-0.003879697	0.0003483014	-0.04217661	0.1017229	

1.038e+10	0.01887586	0.006589528	-0.004413623	0.006638008	0.1252059	0.005576301	-0.004325523	0.004664604	
-0.004413623	0.006638008	0.01359022	0.1135496	-0.004566392	0.002782964	0.1006809	0.1462563	
0.1252059	0.005576301	-0.004566392	0.002782964	-0.01556149	-0.01212738	-0.003567471	0.001135096	
-0.004325523	0.004664604	0.1006809	0.1462563	-0.003567471	0.001135096	-0.03050307	0.09615787	

1.04e+10	0.007313419	0.004419574	-0.002650353	0.007361639	0.1172938	-0.005654543	-0.003115187	0.005437222	
-0.002650353	0.007361639	0.02277823	0.1112725	-0.003633752	0.003669442	0.1209598	0.136456	
0.1172938	-0.005654543	-0.003633752	0.003669442	-0.0298192	-0.01795971	-0.003129799	0.001841386	
-0.003115187	0.005437222	0.1209598	0.136456	-0.003129799	0.001841386	-0.02093405	0.09053116	

1.042e+10	-0.002503109	0.007622215	-0.0007237564	0.007630955	0.1061512	-0.01495863	-0.001726815	0.005943738	
-0.0007237564	0.007630955	0.03489424	0.1105224	-0.002479144	0.004287088	0.1378504	0.1229282	
0.1061512	-0.01495863	-0.002479144	0.004287088	-0.04271296	-0.0162678	-0.002520445	0.002451882	
-0.001726815	0.005943738	0.1378504	0.1229282	-0.002520445	0.002451882	-0.01132934	0.0866626	

1.044e+10	-0.00751687	0.01421489	0.001211254	0.007334862	0.0934636	-0.01929755	-0.0002070582	0.006056662	
0.001211254	0.007334862	0.05146363	0.1071632	-0.001201402	0.004515199	0.1517402	0.1084992	
0.0934636	-0.01929755	-0.001201402	0.004515199	-0.05014494	-0.01032064	-0.001737293	0.002858468	
-0.0002070582	0.006056662	0.1517402	0.1084992	-0.001737293	0.002858468	0.001083275	0.08286192	

1.046e+10	-0.007138731	0.02043073	0.002907263	0.006489541	0.08333962	-0.0189909	0.001254024	0.005697937	
0.002907263	0.006489541	0.06972938	0.09767402	6.867271e-06	0.004323795	0.1650855	0.09316522	
0.08333962	-0.0189909	6.867271e-06	0.004323795	-0.05231397	-0.004567679	-0.0008990432	0.00296468	
0.001254024	0.005697937	0.1650855	0.09316522	-0.0008990432	0.00296468	0.01623645	0.07569115	

1.048e+10	-0.003992244	0.02402152	0.004187951	0.005295641	0.07721864	-0.01787702	0.002448615	0.004979972	
0.004187951	0.005295641	0.08526265	0.08279857	0.0009866108	0.003839257	0.1780506	0.07465918	
0.07721864	-0.01787702	0.0009866108	0.003839257	-0.0525133	-0.0006232697	-0.0001701056	0.002815065	
0.002448615	0.004979972	0.1780506	0.07465918	-0.0001701056	0.002815065	0.03081353	0.06356521	

1.05e+10	-0.0003568433	0.02597755	0.005075064	0.00395752	0.07263657	-0.01867963	0.003342044	0.00409104	
0.005075064	0.00395752	0.09699991	0.0660102	0.001732466	0.003216731	0.1879994	0.05155426	
0.07263657	-0.01867963	0.001732466	0.003216731	-0.0523965	0.003599598	0.0004008311	0.002541081	
0.003342044	0.00409104	0.1879994	0.05155426	0.0004008311	0.002541081	0.04224434	0.04845461	

1.052e+10	0.004623769	0.02794506	0.005646127	0.002534509	0.06683587	-0.0202044	0.004004841	0.003115888	
0.005646127	0.002534509	0.1075063	0.04883942	0.002302003	0.002499029	0.1921737	0.0257408	
0.06683587	-0.0202044	0.002302003	0.002499029	-0.04960048	0.009767193	0.0008638835	0.002208341	
0.004004841	0.003115888	0.1921737	0.0257408	0.0008638835	0.002208341	0.0513183	0.03287624	

1.054e+10	0.01299105	0.02837885	0.005883896	0.001016759	0.06010635	-0.0199097	0.004457011	0.002035218	
0.005883896	0.001016759	0.1184887	0.02842257	0.002680565	0.001664289	0.1905198	0.0003086218	
0.06010635	-0.0199097	0.002680565	0.001664289	-0.04103297	0.01510533	0.001245406	0.001796785	
0.004457011	0.002035218	0.1905198	0.0003086218	0.001245406	0.001796785	0.06046215	0.01617364	

1.056e+10	0.02379863	0.02423457	0.005710512	-0.00051402	0.05506125	-0.01740619	0.004633417	0.0008602588	
0.005710512	-0.00051402	0.1268829	0.002085715	0.002792566	0.0007602415	0.1851032	-0.02326845	
0.05506125	-0.01740619	0.002792566	0.0007602415	-0.02823984	0.01476971	0.001501918	0.001294044	
0.004633417	0.0008602588	0.1851032	-0.02326845	0.001501918	0.001294044	0.06909878	-0.004512986	

1.058e+10	0.03348433	0.01411817	0.005109859	-0.001896077	0.05303453	-0.01553149	0.004462954	-0.0003011002	
0.005109859	-0.001896077	0.128097	-0.02877866	0.002605366	-9.22926e-05	0.1772294	-0.04634983	
0.05303453	-0.01553149	0.002605366	-9.22926e-05	-0.01622097	0.007595005	0.001569223	0.0007554524	
0.004462954	-0.0003011002	0.1772294	-0.04634983	0.001569223	0.0007554524	0.07377336	-0.03001627	

1.06e+10	0.0388659	8.885564e-05	0.004191885	-0.002976926	0.05161914	-0.01670537	0.003986431	-0.001291117	
0.004191885	-0.002976926	0.1207677	-0.05956913	0.002190175	-0.0007697361	0.1653225	-0.07002204	
0.05161914	-0.01670537	0.002190175	-0.0007697361	-0.00816929	-0.003455885	0.001455145	0.0002865961	
0.003986431	-0.001291117	0.1653225	-0.07002204	0.001455145	0.0002865961	0.07158794	-0.05781577	

1.062e+10	0.03990781	-0.01450475	0.00312263	-0.003727082	0.04759924	-0.01957721	0.003346457	-0.002044931	
0.00312263	-0.003727082	0.107591	-0.08697637	0.001669299	-0.001248432	0.1471278	-0.09242553	
0.04759924	-0.01957721	0.001669299	-0.001248432	-0.003066397	-0.01501815	0.001253308	-5.69124e-05	
0.003346457	-0.002044931	0.1471278	-0.09242553	0.001253308	-5.69124e-05	0.06288979	-0.08420739	

1.064e+10	0.03879602	-0.02894506	0.001972375	-0.004212291	0.0409279	-0.02084841	0.00263683	-0.002619491	
0.001972375	-0.004212291	0.09132582	-0.1119685	0.001094876	-0.001583918	0.1231971	-0.1100465	
0.0409279	-0.02084841	0.001094876	-0.001583918	0.001748212	-0.02754157	0.001038741	-0.0003233328	
0.00263683	-0.002619491	0.1231971	-0.1100465	0.001038741	-0.0003233328	0.0503913	-0.1078924	

1.066e+10	0.03584298	-0.04506242	0.0007198517	-0.004427361	0.03430341	-0.01955759	0.001826772	-0.003069309	
0.0007198517	-0.004427361	0.07110512	-0.1365567	0.000426544	-0.001782989	0.09650085	-0.1212443	
0.03430341	-0.01955759	0.000426544	-0.001782989	0.005560789	-0.04427919	0.0007786948	-0.0005856388	
0.001826772	-0.003069309	0.09650085	-0.1212443	0.0007786948	-0.0005856388	0.0349948	-0.1306753	

1.068e+10	0.02799789	-0.06356081	-0.0006019761	-0.004237657	0.02919016	-0.01762601	0.0008382858	-0.003319694	
-0.0006019761	-0.004237657	0.04346852	-0.1596273	-0.0003441333	-0.001723785	0.06944623	-0.1270145	
0.02919016	-0.01762601	-0.0003441333	-0.001723785	0.003778024	-0.06580263	0.0003571935	-0.0008145979	
0.0008382858	-0.003319694	0.06944623	-0.1270145	0.0003571935	-0.0008145979	0.01456756	-0.1531387	

1.07e+10	0.01305818	-0.08097284	-0.001731215	-0.003558972	0.02410293	-0.01678756	-0.0002708135	-0.003157608	
-0.001731215	-0.003558972	0.008336076	-0.1761128	-0.001010608	-0.001292124	0.04227013	-0.1289064	
0.02410293	-0.01678756	-0.001010608	-0.001292124	-0.00678417	-0.08735095	-0.0002719689	-0.0007966239	
-0.0002708135	-0.003157608	0.04227013	-0.1289064	-0.0002719689	-0.0007966239	-0.01271204	-0.1722816	

1.072e+10	-0.007629472	-0.0932775	-0.002385531	-0.002611574	0.01672992	-0.01584727	-0.001148737	-0.002466847	
-0.002385531	-0.002611574	-0.03021311	-0.1827797	-0.001302311	-0.0006690098	0.01371739	-0.1265588	
0.01672992	-0.01584727	-0.001302311	-0.0006690098	-0.02380069	-0.1039193	-0.0008223837	-0.0003071495	
-0.001148737	-0.002466847	0.01371739	-0.1265588	-0.0008223837	-0.0003071495	-0.04535949	-0.1843929	

1.074e+10	-0.03025879	-0.09934399	-0.002597271	-0.001769746	0.007412903	-0.01198706	-0.001462002	-0.00156616	
-0.002597271	-0.001769746	-0.06761804	-0.1808527	-0.001268367	-0.0001997551	-0.01538946	-0.1176881	
0.007412903	-0.01198706	-0.001268367	-0.0001997551	-0.04279501	-0.1151338	-0.0009064576	0.0004468188	
-0.001462002	-0.00156616	-0.01538946	-0.1176881	-0.0009064576	0.0004468188	-0.07923517	-0.188309	

1.076e+10	-0.05280557	-0.1009648	-0.002681123	-0.00122808	-0.001066488	-0.004045071	-0.001257646	-0.0008970699	
-0.002681123	-0.00122808	-0.1030582	-0.1735698	-0.001233876	-3.597396e-05	-0.04183391	-0.1014967	
-0.001066488	-0.004045071	-0.001233876	-3.597396e-05	-0.06275722	-0.1237012	-0.0004458754	0.001031345	
-0.001257646	-0.0008970699	-0.04183391	-0.1014967	-0.0004458754	0.001031345	-0.1119653	-0.1860472	

1.078e+10	-0.07590553	-0.09935216	-0.002995672	-0.0007535725	-0.006339735	0.006444608	-0.000949308	-0.0007775531	
-0.002995672	-0.0007535725	-0.1383568	-0.1615377	-0.00155935	0.000132861	-0.06277178	-0.08025756	
-0.006339735	0.006444608	-0.00155935	0.000132861	-0.08563278	-0.1298689	0.0001822117	0.001001255	
-0.000949308	-0.0007775531	-0.06277178	-0.08025756	0.0001822117	0.001001255	-0.1438184	-0.1793864	

1.08e+10	-0.1004617	-0.09319155	-0.003327635	8.016339e-05	-0.008365064	0.01678506	-0.001090258	-0.0008828736	
-0.003327635	8.016339e-05	-0.1738835	-0.1417654	-0.001904054	0.0008023466	-0.07837176	-0.05687775	
-0.008365064	0.01678506	-0.001904054	0.0008023466	-0.1120826	-0.1309539	0.0003071826	0.0006674332	
-0.001090258	-0.0008828736	-0.07837176	-0.05687775	0.0003071826	0.0006674332	-0.1759668	-0.1675124	

1.082e+10	-0.1249476	-0.08030733	-0.003311092	0.001134932	-0.009449143	0.02611721	-0.001494474	-0.0006582071	
-0.003311092	0.001134932	-0.205471	-0.1123057	-0.001794987	0.001710538	-0.09009592	-0.03227675	
-0.009449143	0.02611721	-0.001794987	0.001710538	-0.1397597	-0.1243028	0.000144482	0.0006546355	
-0.001494474	-0.0006582071	-0.09009592	-0.03227675	0.000144482	0.0006546355	-0.207059	-0.1481304	

1.084e+10	-0.1458555	-0.0605645	-0.002903233	0.002182187	-0.01049089	0.036442	-0.001749762	-9.047629e-05	
-0.002903233	0.002182187	-0.2285081	-0.07579312	-0.001261939	0.002516741	-0.09836454	-0.005585544	
-0.01049089	0.036442	-0.001261939	0.002516741	-0.164308	-0.1100361	0.0001312194	0.0009191204	
-0.001749762	-9.047629e-05	-0.09836454	-0.005585544	0.0001312194	0.0009191204	-0.2332996	-0.1213446	

1.086e+10	-0.1606367	-0.03658423	-0.002140252	0.00305206	-0.009328254	0.04913333	-0.001669976	0.0005880913	
-0.002140252	0.00305206	-0.2422661	-0.03689885	-0.0004345978	0.003063224	-0.1014024	0.02376505	
-0.009328254	0.04913333	-0.0004345978	0.003063224	-0.1835242	-0.09150179	0.0003902468	0.001210973	
-0.001669976	0.0005880913	-0.1014024	0.02376505	0.0003902468	0.001210973	-0.2523363	-0.08980331	

1.088e+10	-0.1697939	-0.01145631	-0.001142652	0.003624029	-0.00362301	0.06217353	-0.00130286	0.001152268	
-0.001142652	0.003624029	-0.2491516	0.002043848	0.0005348558	0.003280889	-0.09717777	0.05360076	
-0.00362301	0.06217353	0.0005348558	0.003280889	-0.1987422	-0.07155161	0.0008451081	0.001345391	
-0.00130286	0.001152268	-0.09717777	0.05360076	0.0008451081	0.001345391	-0.2644898	-0.05689487	

1.09e+10	-0.1752886	0.01416497	-4.971703e-05	0.003880682	0.005782172	0.07235533	-0.000787529	0.001524504	
-4.971703e-05	0.003880682	-0.2507451	0.04164549	0.001510198	0.003176033	-0.08631991	0.08041016	
0.005782172	0.07235533	0.001510198	0.003176033	-0.2120975	-0.04951274	0.001361726	0.001254937	
-0.000787529	0.001524504	-0.08631991	0.08041016	0.001361726	0.001254937	-0.2718967	-0.02326197	

1.092e+10	-0.1772548	0.04190126	0.001073838	0.003848388	0.01611627	0.0791009	-0.0002006885	0.001722649	
0.001073838	0.003848388	-0.2456211	0.08313815	0.002398943	0.002790604	-0.07154549	0.1029021	
0.01611627	0.0791009	0.002398943	0.002790604	-0.2226083	-0.02316141	0.001822782	0.0009530491	
-0.0002006885	0.001722649	-0.07154549	0.1029021	0.001822782	0.0009530491	-0.2744509	0.01169485	

1.094e+10	-0.173011	0.07180506	0.002177692	0.003508975	0.02619573	0.0842913	0.0004368727	0.00173721	
0.002177692	0.003508975	-0.2309944	0.1245857	0.003126354	0.00217919	-0.05458289	0.1221932	
0.02619573	0.0842913	0.003126354	0.00217919	-0.2265806	0.007358098	0.00214512	0.0004990271	
0.0004368727	0.00173721	-0.05458289	0.1221932	0.00214512	0.0004990271	-0.2705102	0.0488187	

1.096e+10	-0.1606513	0.1005811	0.00315726	0.002851302	0.03716266	0.08915472	0.001063642	0.001534148	
0.00315726	0.002851302	-0.206684	0.1614212	0.003644472	0.001425392	-0.0351292	0.1394431	
0.03716266	0.08915472	0.003644472	0.001425392	-0.2217008	0.03809517	0.002294576	-1.054749e-05	
0.001063642	0.001534148	-0.0351292	0.1394431	0.002294576	-1.054749e-05	-0.2579329	0.08510344	

1.098e+10	-0.1417726	0.124638	0.003897192	0.001945702	0.05065582	0.09245196	0.001585243	0.001125575	
0.003897192	0.001945702	-0.1761384	0.1908794	0.003956917	0.0006115732	-0.01167402	0.1537875	
0.05065582	0.09245196	0.003956917	0.0006115732	-0.2100997	0.0649162	0.002304405	-0.0005069093	
0.001585243	0.001125575	-0.01167402	0.1537875	0.002304405	-0.0005069093	-0.2376738	0.1171562	

1.1e+10	-0.1196354	0.1429808	0.004354782	0.000903893	0.06601675	0.09150081	0.001929247	0.0005874377	
0.004354782	0.000903893	-0.142607	0.2135878	0.004091111	-0.0002119932	0.01529611	0.1624515	
0.06601675	0.09150081	0.004091111	-0.0002119932	-0.1953158	0.08757361	0.002209169	-0.0009646573	
0.001929247	0.0005874377	0.01529611	0.1624515	0.002209169	-0.0009646573	-0.2128143	0.143437	

1.102e+10	-0.09618418	0.1570814	0.004559885	-0.0001658407	0.08014499	0.08555497	0.002102937	1.627818e-05	
0.004559885	-0.0001658407	-0.1066757	0.2311851	0.004087855	-0.001011339	0.04273309	0.1641488	
0.08014499	0.08555497	0.004087855	-0.001011339	-0.1781978	0.1081331	0.002038431	-0.001361676	
0.002102937	1.627818e-05	0.04273309	0.1641488	0.002038431	-0.001361676	-0.1850127	0.1650142	

1.104e+10	-0.0706435	0.1682186	0.004572732	-0.001256793	0.09084488	0.07691131	0.002167505	-0.0005556741	
0.004572732	-0.001256793	-0.06690424	0.243392	0.003995938	-0.001798445	0.06794856	0.1605752	
0.09084488	0.07691131	0.003995938	-0.001798445	-0.1568847	0.1271334	0.001848176	-0.001694788	
0.002167505	-0.0005556741	0.06794856	0.1605752	0.001848176	-0.001694788	-0.1540921	0.1826665	

1.106e+10	-0.04173629	0.1749197	0.004376256	-0.002398015	0.09909363	0.06790927	0.002140213	-0.001173869	
0.004376256	-0.002398015	-0.0237001	0.2474476	0.003812016	-0.002630814	0.09108547	0.154011	
0.09909363	0.06790927	0.003812016	-0.002630814	-0.12979	0.1418396	0.001671324	-0.002024957	
0.002140213	-0.001173869	0.09108547	0.154011	0.001671324	-0.002024957	-0.1188175	0.1951902	

1.108e+10	-0.0106706	0.1741634	0.003878535	-0.003567746	0.1067002	0.05824007	0.001945814	-0.001863037	
0.003878535	-0.003567746	0.01976598	0.2411914	0.003454661	-0.003531974	0.1135702	0.1446282	
0.1067002	0.05824007	0.003454661	-0.003531974	-0.09918226	0.1484928	0.001462233	-0.002418529	
0.001945814	-0.001863037	0.1135702	0.1446282	0.001462233	-0.002418529	-0.08040635	0.1996143	

1.11e+10	0.01839011	0.1654108	0.00302553	-0.004634432	0.113439	0.0461043	0.001500687	-0.002541165	
0.00302553	-0.004634432	0.05933971	0.2257721	0.00283686	-0.004435363	0.1353752	0.1307394	
0.113439	0.0461043	0.00283686	-0.004435363	-0.06967193	0.1467288	0.001125458	-0.002867117	
0.001500687	-0.002541165	0.1353752	0.1307394	0.001125458	-0.002867117	-0.04239537	0.194933	

1.112e+10	0.04281062	0.1512895	0.001862452	-0.005448154	0.1168469	0.03096394	0.0008081021	-0.003067647	
0.001862452	-0.005448154	0.09362096	0.2044765	0.001942735	-0.005217444	0.1540936	0.1113076	
0.1168469	0.03096394	0.001942735	-0.005217444	-0.04384237	0.1399012	0.0006065637	-0.003280393	
0.0008081021	-0.003067647	0.1540936	0.1113076	0.0006065637	-0.003280393	-0.007857096	0.1829614	

1.114e+10	0.06285701	0.1346623	0.000517969	-0.005922794	0.1147746	0.01522531	-2.306869e-05	-0.00334612	
0.000517969	-0.005922794	0.1236387	0.178977	0.0008319405	-0.005782561	0.166887	0.08822045	
0.1147746	0.01522531	0.0008319405	-0.005782561	-0.02034172	0.1302714	-6.287606e-05	-0.003559445	
-2.306869e-05	-0.00334612	0.166887	0.08822045	-6.287606e-05	-0.003559445	0.02295215	0.1659604	

1.116e+10	0.08037835	0.1159556	-0.0008965955	-0.006072466	0.1082771	0.002225166	-0.0008698804	-0.00339534	
-0.0008965955	-0.006072466	0.1500945	0.1481426	-0.0004187025	-0.006100949	0.1738476	0.06479499	
0.1082771	0.002225166	-0.0004187025	-0.006100949	0.002366739	0.1170861	-0.0007992787	-0.003678158	
-0.0008698804	-0.00339534	0.1738476	0.06479499	-0.0007992787	-0.003678158	0.05074425	0.1445307	

1.118e+10	0.09524467	0.09345954	-0.002346463	-0.005926488	0.1003397	-0.007505307	-0.001708543	-0.00328348	
-0.002346463	-0.005926488	0.1706398	0.1109715	-0.001781784	-0.006161025	0.1772813	0.04213628	
0.1003397	-0.007505307	-0.001781784	-0.006161025	0.02299263	0.09796804	-0.001579743	-0.003664601	
-0.001708543	-0.00328348	0.1772813	0.04213628	-0.001579743	-0.003664601	0.07518402	0.1173633	

1.12e+10	0.104564	0.06687405	-0.003816279	-0.005440101	0.09202097	-0.01593216	-0.002575837	-0.003003158	
-0.003816279	-0.005440101	0.181822	0.06932563	-0.003233188	-0.005895763	0.1780237	0.0188609	
0.09202097	-0.01593216	-0.003233188	-0.005895763	0.03753235	0.07323115	-0.002429049	-0.003497548	
-0.002575837	-0.003003158	0.1780237	0.0188609	-0.002429049	-0.003497548	0.09338484	0.08432048	

1.122e+10	0.1057603	0.0391387	-0.005206519	-0.00452915	0.08160877	-0.02400484	-0.003449511	-0.002459604	
-0.005206519	-0.00452915	0.1822609	0.02713664	-0.004671232	-0.00521166	0.1742533	-0.006099979	
0.08160877	-0.02400484	-0.004671232	-0.00521166	0.04350487	0.04680043	-0.00332343	-0.003084001	
-0.003449511	-0.002459604	0.1742533	-0.006099979	-0.00332343	-0.003084001	0.1024492	0.04772498	

1.124e+10	0.1000396	0.014535	-0.00632311	-0.003217616	0.06763917	-0.02964647	-0.004182804	-0.00161401	
-0.00632311	-0.003217616	0.1740755	-0.01172596	-0.005905547	-0.004116703	0.16367	-0.03045855	
0.06763917	-0.02964647	-0.005905547	-0.004116703	0.04271307	0.02304865	-0.004130571	-0.002374224	
-0.004182804	-0.00161401	0.16367	-0.03045855	-0.004130571	-0.002374224	0.102369	0.01200042	

1.126e+10	0.09078641	-0.005808046	-0.007033138	-0.001650903	0.05154732	-0.02993505	-0.004632671	-0.0005499526	
-0.007033138	-0.001650903	0.1599442	-0.04704684	-0.006800576	-0.002733814	0.1467776	-0.05058545	
0.05154732	-0.02993505	-0.006800576	-0.002733814	0.03876328	0.002359048	-0.004711832	-0.001427074	
-0.004632671	-0.0005499526	0.1467776	-0.05058545	-0.004711832	-0.001427074	0.0954642	-0.02091756	

1.128e+10	0.07974162	-0.0233891	-0.007335099	3.840649e-06	0.03706758	-0.02440631	-0.004766929	0.0005701096	
-0.007335099	3.840649e-06	0.1399825	-0.07957606	-0.007339096	-0.001207085	0.1269881	-0.06456691	
0.03706758	-0.02440631	-0.007339096	-0.001207085	0.03232766	-0.01728385	-0.005017936	-0.0003799429	
-0.004766929	0.0005701096	0.1269881	-0.06456691	-0.005017936	-0.0003799429	0.08349116	-0.05099723	

1.13e+10	0.06584321	-0.03953757	-0.007297939	0.001679496	0.02646066	-0.01596335	-0.004668437	0.00166511	
-0.007297939	0.001679496	0.1127818	-0.1082559	-0.007562652	0.0003976654	0.1069546	-0.07417771	
0.02646066	-0.01596335	-0.007562652	0.0003976654	0.02141925	-0.03619634	-0.005102776	0.0006853885	
-0.004668437	0.00166511	0.1069546	-0.07417771	-0.005102776	0.0006853885	0.06606255	-0.07878891	

1.132e+10	0.0475866	-0.0524053	-0.006914723	0.003387488	0.01832935	-0.007098816	-0.004374626	0.00277194	
-0.006914723	0.003387488	0.07861541	-0.1294828	-0.007457894	0.002078073	0.08589175	-0.08126072	
0.01832935	-0.007098816	-0.007457894	0.002078073	0.004865186	-0.05128676	-0.005001732	0.00178202	
-0.004374626	0.00277194	0.08589175	-0.08126072	-0.005001732	0.00178202	0.04203659	-0.1025162	

1.134e+10	0.0264119	-0.05863497	-0.006075432	0.005065453	0.01071984	0.003059898	-0.00379216	0.003899564	
-0.006075432	0.005065453	0.0410401	-0.1403008	-0.006927371	0.003780063	0.06209028	-0.08448858	
0.01071984	0.003059898	-0.006927371	0.003780063	-0.01476183	-0.05920647	-0.004643567	0.002925342	
-0.00379216	0.003899564	0.06209028	-0.08448858	-0.004643567	0.002925342	0.01243617	-0.118821	

1.136e+10	0.00662322	-0.05753302	-0.004726752	0.006503429	0.004727856	0.01667678	-0.002824473	0.004902005	
-0.004726752	0.006503429	0.004473026	-0.1410791	-0.005915619	0.005324578	0.03673156	-0.08085795	
0.004727856	0.01667678	-0.005915619	0.005324578	-0.03285669	-0.05986506	-0.003940502	0.004002891	
-0.002824473	0.004902005	0.03673156	-0.08085795	-0.003940502	0.004002891	-0.01884859	-0.1256238	

1.138e+10	-0.00879338	-0.05231716	-0.00302475	0.007479	0.003583239	0.03329273	-0.001555463	0.00556729	
-0.00302475	0.007479	-0.02866686	-0.134867	-0.004535668	0.006513834	0.01394579	-0.06958326	
0.003583239	0.03329273	-0.004535668	0.006513834	-0.04707526	-0.0570257	-0.002936257	0.004838801	
-0.001555463	0.00556729	0.01394579	-0.06958326	-0.002936257	0.004838801	-0.04794685	-0.1247106	

1.14e+10	-0.02085049	-0.04607149	-0.00119431	0.007950497	0.008929187	0.04951228	-0.0001826221	0.005820836	
-0.00119431	0.007950497	-0.05910507	-0.1234171	-0.002968416	0.007292065	-0.003117421	-0.05349725	
0.008929187	0.04951228	-0.002968416	0.007292065	-0.05914233	-0.05310265	-0.001783332	0.005348424	
-0.0001826221	0.005820836	-0.003117421	-0.05349725	-0.001783332	0.005348424	-0.07404273	-0.1187235	

1.142e+10	-0.0317462	-0.03892469	0.0006248572	0.008007457	0.01877655	0.0619291	0.001134693	0.005747462	
0.0006248572	0.008007457	-0.08703712	-0.1057348	-0.001332094	0.007711999	-0.01494992	-0.03628919	
0.01877655	0.0619291	-0.001332094	0.007711999	-0.07077407	-0.04714692	-0.000616446	0.005578343	
0.001134693	0.005747462	-0.01494992	-0.03628919	-0.000616446	0.005578343	-0.09802541	-0.108563	

1.144e+10	-0.04135461	-0.0289138	0.002422201	0.007710386	0.02979186	0.07056155	0.002398267	0.005446349	
0.002422201	0.007710386	-0.1098417	-0.08107107	0.0003582548	0.007808186	-0.02405357	-0.01855721	
0.02979186	0.07056155	0.0003582548	0.007808186	-0.08066576	-0.03706799	0.0005545063	0.005602928	
0.002398267	0.005446349	-0.02405357	-0.01855721	0.0005545063	0.005602928	-0.1197616	-0.09306416	

1.146e+10	-0.04683938	-0.01573589	0.004188187	0.006993518	0.04134287	0.07771208	0.003651806	0.004879516	
0.004188187	0.006993518	-0.1241792	-0.05148748	0.002080797	0.007519926	-0.03054719	0.001691809	
0.04134287	0.07771208	0.002080797	0.007519926	-0.08536303	-0.02373746	0.001757629	0.005395643	
0.003651806	0.004879516	-0.03054719	0.001691809	0.001757629	0.005395643	-0.1364318	-0.07168908	

1.148e+10	-0.0459956	-0.00265209	0.005755878	0.005778425	0.0555764	0.08373478	0.004801579	0.003942237	
0.005755878	0.005778425	-0.1288463	-0.02133037	0.003703695	0.006771389	-0.03146488	0.02470711	
0.0555764	0.08373478	0.003703695	0.006771389	-0.08337965	-0.01100675	0.0029324	0.004864741	
0.004801579	0.003942237	-0.03146488	0.02470711	0.0029324	0.004864741	-0.1450171	-0.04711891	

1.15e+10	-0.04062914	0.006456832	0.006895604	0.004159695	0.07329719	0.0857927	0.005639706	0.002662265	
0.006895604	0.004159695	-0.1261939	0.005862859	0.005024748	0.005626393	-0.02477844	0.04707613	
0.07329719	0.0857927	0.005024748	0.005626393	-0.07718661	-0.002466142	0.00390797	0.004014306	
0.005639706	0.002662265	-0.02477844	0.04707613	0.00390797	0.004014306	-0.1455383	-0.0237285	

1.152e+10	-0.03477955	0.01113971	0.007512978	0.002383834	0.09192524	0.0812714	0.006046197	0.001238797	
0.007512978	0.002383834	-0.1192032	0.02987544	0.005953147	0.004268324	-0.01216147	0.0647966	
0.09192524	0.0812714	0.005953147	0.004268324	-0.07052557	0.002204034	0.004575354	0.002981384	
0.006046197	0.001238797	-0.01216147	0.0647966	0.004575354	0.002981384	-0.141159	-0.003794995	

1.154e+10	-0.02996873	0.01391102	0.007691989	0.0006306666	0.1075775	0.07077279	0.006080348	-0.0001417517	
0.007691989	0.0006306666	-0.1079851	0.05194652	0.006531959	0.002839634	0.002475472	0.07705725	
0.1075775	0.07077279	0.006531959	0.002839634	-0.06398725	0.005474392	0.004956169	0.001912029	
0.006080348	-0.0001417517	0.002475472	0.07705725	0.004956169	0.001912029	-0.1338962	0.01364791	

1.156e+10	-0.0247003	0.01636738	0.007539359	-0.001069224	0.1186328	0.05753849	0.005867316	-0.001432684	
0.007539359	-0.001069224	-0.09119554	0.07112169	0.006827189	0.001374619	0.01713439	0.08614041	
0.1186328	0.05753849	0.006827189	0.001374619	-0.05554462	0.007766748	0.005134218	0.0008560786	
0.005867316	-0.001432684	0.01713439	0.08614041	0.005134218	0.0008560786	-0.123209	0.02957986	

1.158e+10	-0.01730959	0.01685048	0.007043953	-0.002736413	0.1267466	0.04370423	0.005431515	-0.002688551	
0.007043953	-0.002736413	-0.06921302	0.08423134	0.006819809	-0.0001377343	0.03333416	0.09369598	
0.1267466	0.04370423	0.006819809	-0.0001377343	-0.04439456	0.006389445	0.005130321	-0.000226085	
0.005431515	-0.002688551	0.03333416	0.09369598	0.005130321	-0.000226085	-0.1075919	0.04257691	

1.16e+10	-0.009347856	0.01255025	0.006119992	-0.004283991	0.1335111	0.02821552	0.004685925	-0.003884117	
0.006119992	-0.004283991	-0.0454307	0.08904747	0.006432488	-0.001620624	0.05274497	0.09776991	
0.1335111	0.02821552	0.006432488	-0.001620624	-0.03342423	-0.001149678	0.004872883	-0.001318455	
0.004685925	-0.003884117	0.05274497	0.09776991	0.004872883	-0.001318455	-0.08806963	0.04930117	

1.162e+10	-0.004934858	0.003415784	0.004774407	-0.005509005	0.1372831	0.009033145	0.003587108	-0.004857088	
0.004774407	-0.005509005	-0.02370944	0.08643	0.005657134	-0.00291349	0.07364424	0.09513686	
0.1372831	0.009033145	0.005657134	-0.00291349	-0.02665458	-0.01396431	0.004312957	-0.002304453	
0.003587108	-0.004857088	0.07364424	0.09513686	0.004312957	-0.002304453	-0.06849341	0.0481737	

1.164e+10	-0.006211511	-0.006778675	0.003202242	-0.006254499	0.1347093	-0.01252174	0.002274468	-0.005439958	
0.003202242	-0.006254499	-0.005657335	0.07940973	0.004630245	-0.003876432	0.09168684	0.08576902	
0.1347093	-0.01252174	0.004630245	-0.003876432	-0.02568038	-0.02827189	0.00353618	-0.003044173	
0.002274468	-0.005439958	0.09168684	0.08576902	0.00353618	-0.003044173	-0.05239047	0.04125685	

1.166e+10	-0.01131598	-0.01471003	0.001626444	-0.006552048	0.1248088	-0.03245677	0.0009600722	-0.005631448	
0.001626444	-0.006552048	0.00982264	0.06970633	0.003519081	-0.004512166	0.1044201	0.07307498	
0.1248088	-0.03245677	0.003519081	-0.004512166	-0.02853264	-0.04143773	0.00269571	-0.003515023	
0.0009600722	-0.005631448	0.1044201	0.07307498	0.00269571	-0.003515023	-0.04008906	0.03177419	

1.168e+10	-0.01757522	-0.02076069	0.0001192523	-0.00652521	0.1099255	-0.04785399	-0.0002627582	-0.005555289	
0.0001192523	-0.00652521	0.02331379	0.05607673	0.002380971	-0.004899282	0.1133012	0.06004813	
0.1099255	-0.04785399	0.002380971	-0.004899282	-0.03342894	-0.05463666	0.001867347	-0.003798967	
-0.0002627582	-0.005555289	0.1133012	0.06004813	0.001867347	-0.003798967	-0.02983784	0.02024734	

1.17e+10	-0.02512185	-0.02700596	-0.001346232	-0.006221311	0.0931556	-0.05883593	-0.001427799	-0.005299013	
-0.001346232	-0.006221311	0.0324592	0.03765082	0.001202208	-0.005062409	0.1207258	0.04641242	
0.0931556	-0.05883593	0.001202208	-0.005062409	-0.04191097	-0.06928507	0.001030369	-0.003961599	
-0.001427799	-0.005299013	0.1207258	0.04641242	0.001030369	-0.003961599	-0.02181618	0.005080797	

1.172e+10	-0.03675006	-0.03320623	-0.0027747	-0.005570056	0.07469896	-0.06727813	-0.002600387	-0.004823391	
-0.0027747	-0.005570056	0.03413504	0.01645231	-2.604969e-05	-0.004942131	0.1261324	0.0297351	
0.07469896	-0.06727813	-2.604969e-05	-0.004942131	-0.05703465	-0.08376661	0.0001188555	-0.003981226	
-0.002600387	-0.004823391	0.1261324	0.0297351	0.0001188555	-0.003981226	-0.01890006	-0.01422154	

1.174e+10	-0.05393311	-0.03527939	-0.004074451	-0.004448042	0.052266	-0.07251661	-0.003786792	-0.003987657	
-0.004074451	-0.004448042	0.02755899	-0.003392364	-0.001268979	-0.004422544	0.1257563	0.009958194	
0.052266	-0.07251661	-0.001268979	-0.004422544	-0.07957303	-0.09346494	-0.0009278183	-0.003743536	
-0.003786792	-0.003987657	0.1257563	0.009958194	-0.0009278183	-0.003743536	-0.02417525	-0.03488747	

1.176e+10	-0.07313205	-0.02833669	-0.004927247	-0.002593448	0.02607522	-0.06974507	-0.004815049	-0.002395451	
-0.004927247	-0.002593448	0.01467535	-0.01843755	-0.002333624	-0.003142228	0.1171238	-0.008475057	
0.02607522	-0.06974507	-0.002333624	-0.003142228	-0.1063357	-0.09374757	-0.00209144	-0.002794668	
-0.004815049	-0.002395451	0.1171238	-0.008475057	-0.00209144	-0.002794668	-0.03788306	-0.0521607	

1.178e+10	-0.08613948	-0.01339668	-0.003879721	-0.0004983802	0.003361364	-0.05621359	-0.004069128	-2.414698e-05	
-0.003879721	-0.0004983802	-0.0008508763	-0.02713566	-0.001628169	-0.001149398	0.1029773	-0.01983403	
0.003361364	-0.05621359	-0.001628169	-0.001149398	-0.1297254	-0.08385888	-0.001764287	-0.0006192277	
-0.004069128	-2.414698e-05	0.1029773	-0.01983403	-0.001764287	-0.0006192277	-0.0565429	-0.06196581	

1.18e+10	-0.09190764	0.0007860237	-0.002443645	-0.001417671	-0.01090675	-0.03867241	-0.002070642	-0.0005890567	
-0.002443645	-0.001417671	-0.01562893	-0.03148427	0.0002617901	-0.002153546	0.09063659	-0.02406911	
-0.01090675	-0.03867241	0.0002617901	-0.002153546	-0.1466432	-0.07139598	0.0006029125	-0.001112649	
-0.002070642	-0.0005890567	0.09063659	-0.02406911	0.0006029125	-0.001112649	-0.07427497	-0.06474855	

1.182e+10	-0.09668909	0.0121461	-0.004019812	-0.001972766	-0.01953403	-0.0221726	-0.00316471	-0.001694059	
-0.004019812	-0.001972766	-0.03120816	-0.03469668	-0.001108927	-0.003755707	0.081996	-0.02809909	
-0.01953403	-0.0221726	-0.001108927	-0.003755707	-0.1621196	-0.05919906	-0.0001013074	-0.003139866	
-0.00316471	-0.001694059	0.081996	-0.02809909	-0.0001013074	-0.003139866	-0.09011905	-0.06602966	

1.184e+10	-0.103686	0.02479714	-0.005133997	-0.0004094644	-0.02685951	-0.006881362	-0.004425742	-0.000693844	
-0.005133997	-0.0004094644	-0.05070584	-0.0339446	-0.002813147	-0.003117744	0.07120949	-0.03396976	
-0.02685951	-0.006881362	-0.002813147	-0.003117744	-0.1790342	-0.04390877	-0.001764799	-0.003132014	
-0.004425742	-0.000693844	0.07120949	-0.03396976	-0.001764799	-0.003132014	-0.1090991	-0.06602073	

1.186e+10	-0.1098333	0.04288847	-0.004947001	0.001349635	-0.03385186	0.01053072	-0.004583513	0.0007793581	
-0.004947001	0.001349635	-0.0708932	-0.02531366	-0.003448378	-0.001869201	0.05590014	-0.03702897	
-0.03385186	0.01053072	-0.003448378	-0.001869201	-0.1943298	-0.02190062	-0.002636065	-0.002298776	
-0.004583513	0.0007793581	0.05590014	-0.03702897	-0.002636065	-0.002298776	-0.1310514	-0.05955789	

1.188e+10	-0.1101987	0.06543118	-0.004095697	0.002598206	-0.03761079	0.03207727	-0.004088628	0.001936179	
-0.004095697	0.002598206	-0.08703006	-0.009700467	-0.003439712	-0.0008264367	0.03924128	-0.03329198	
-0.03761079	0.03207727	-0.003439712	-0.0008264367	-0.2034555	0.005505345	-0.002931288	-0.001490345	
-0.004088628	0.001936179	0.03924128	-0.03329198	-0.002931288	-0.001490345	-0.1512137	-0.04476283	

1.19e+10	-0.1029894	0.08796124	-0.003093795	0.003306102	-0.0344783	0.05582512	-0.003420089	0.002667263	
-0.003093795	0.003306102	-0.09743609	0.009519355	-0.003221045	-0.0001001	0.02631964	-0.02350273	
-0.0344783	0.05582512	-0.003221045	-0.0001001	-0.2050505	0.03442407	-0.003037518	-0.0008870815	
-0.003420089	0.002667263	0.02631964	-0.02350273	-0.003037518	-0.0008870815	-0.1653879	-0.02406852	

1.192e+10	-0.09050331	0.1069447	-0.00220536	0.003711299	-0.02388446	0.07734934	-0.002867274	0.003188905	
-0.00220536	0.003711299	-0.102954	0.03008634	-0.003029554	0.0004641281	0.01924896	-0.01198282	
-0.02388446	0.07734934	-0.003029554	0.0004641281	-0.2008924	0.06226345	-0.00320151	-0.0003528845	
-0.002867274	0.003188905	0.01924896	-0.01198282	-0.00320151	-0.0003528845	-0.173112	-0.001661807	

1.194e+10	-0.07586554	0.1224063	-0.001412485	0.00406753	-0.008851836	0.09353809	-0.002412442	0.003827928	
-0.001412485	0.00406753	-0.1039296	0.05150069	-0.002864154	0.001068585	0.01615001	-0.002631555	
-0.008851836	0.09353809	-0.002864154	0.001068585	-0.1925824	0.08923043	-0.003432665	0.0003704822	
-0.002412442	0.003827928	0.01615001	-0.002631555	-0.003432665	0.0003704822	-0.1761938	0.02047981	

1.196e+10	-0.06004181	0.13652	-0.0005225281	0.004604748	0.006624105	0.1051115	-0.001687234	0.004875191	
-0.0005225281	0.004604748	-0.1006793	0.07250543	-0.002575048	0.00190196	0.01241594	0.003680599	
0.006624105	0.1051115	-0.002575048	0.00190196	-0.1795695	0.1161687	-0.003449204	0.001556651	
-0.001687234	0.004875191	0.01241594	0.003680599	-0.003449204	0.001556651	-0.1764568	0.04197284	

1.198e+10	-0.04053614	0.1506517	0.001243657	0.005030654	0.0221928	0.1156804	0.0002579634	0.005812879	
0.001243657	0.005030654	-0.09453248	0.09413733	-0.001516942	0.002806696	0.004857946	0.01236171	
0.0221928	0.1156804	-0.001516942	0.002806696	-0.1600566	0.1423049	-0.002420566	0.002893938	
0.0002579634	0.005812879	0.004857946	0.01236171	-0.002420566	0.002893938	-0.1755667	0.06553695	

1.2e+10	-0.01478178	0.1613945	0.003249152	0.004024131	0.04144746	0.1254504	0.002617785	0.005081437	
0.003249152	0.004024131	-0.08233933	0.11694	-1.865318e-05	0.002658535	-0.0002143039	0.02809718	
0.04144746	0.1254504	-1.865318e-05	0.002658535	-0.1331775	0.1643432	-0.0007690187	0.003034677	
0.002617785	0.005081437	-0.0002143039	0.02809718	-0.0007690187	0.003034677	-0.1685869	0.09329544	

1.202e+10	0.01459454	0.164534	0.00418474	0.002233974	0.06516274	0.1304168	0.003876946	0.003377788	
0.00418474	0.002233974	-0.06317236	0.1366549	0.0008147975	0.001793381	0.002717062	0.045532	
0.06516274	0.1304168	0.0008147975	0.001793381	-0.101543	0.1792575	0.0002271546	0.002319202	
0.003876946	0.003377788	0.002717062	0.045532	0.0002271546	0.002319202	-0.1521106	0.1198283	

1.204e+10	0.04323968	0.1601867	0.004211319	0.0005954005	0.08993238	0.1279086	0.004153927	0.001751271	
0.004211319	0.0005954005	-0.03973596	0.1514645	0.001002775	0.0009504008	0.01107754	0.05908961	
0.08993238	0.1279086	0.001002775	0.0009504008	-0.06824368	0.1872945	0.0005390739	0.00157352	
0.004153927	0.001751271	0.01107754	0.05908961	0.0005390739	0.00157352	-0.1293296	0.1408915	

1.206e+10	0.06951337	0.1509316	0.003792613	-0.0006523034	0.1118964	0.1189785	0.003940261	0.0005074294	
0.003792613	-0.0006523034	-0.01305779	0.1619043	0.0008813729	0.0003585695	0.02056948	0.06867049	
0.1118964	0.1189785	0.0008813729	0.0003585695	-0.03404826	0.1899933	0.000519012	0.001081179	
0.003940261	0.0005074294	0.02056948	0.06867049	0.000519012	0.001081179	-0.1032492	0.1570623	

1.208e+10	0.09449156	0.1380118	0.003202581	-0.001579269	0.1297663	0.1068722	0.003559696	-0.0004053433	
0.003202581	-0.001579269	0.01720489	0.1669156	0.0006735629	-1.670502e-05	0.03001594	0.0769393	
0.1297663	0.1068722	0.0006735629	-1.670502e-05	0.001755317	0.1869318	0.000431213	0.0008263795	
0.003559696	-0.0004053433	0.03001594	0.0769393	0.000431213	0.0008263795	-0.07368087	0.1690508	

1.21e+10	0.1185779	0.1200942	0.002516922	-0.002297138	0.1451894	0.09333165	0.003126285	-0.001131946	
0.002516922	-0.002297138	0.04965222	0.1642178	0.0004580322	-0.0002740941	0.04144267	0.08498135	
0.1451894	0.09333165	0.0004580322	-0.0002740941	0.03851241	0.1758522	0.0003947513	0.000687465	
0.003126285	-0.001131946	0.04144267	0.08498135	0.0003947513	0.000687465	-0.03972234	0.1751214	

1.212e+10	0.1397064	0.09568049	0.001722638	-0.002836364	0.1595281	0.07730102	0.002618671	-0.001750732	
0.001722638	-0.002836364	0.08093453	0.1529233	0.0002277822	-0.0004682459	0.05635435	0.09063928	
0.1595281	0.07730102	0.0002277822	-0.0004682459	0.07272632	0.155813	0.0004027437	0.0005600439	
0.002618671	-0.001750732	0.05635435	0.09063928	0.0004027437	0.0005600439	-0.003482125	0.1724148	

1.214e+10	0.1545875	0.06587977	0.0008313719	-0.003155311	0.1713283	0.05683729	0.002001836	-0.002243814	
0.0008313719	-0.003155311	0.1081117	0.1348537	-3.876016e-05	-0.0006016628	0.07297079	0.09104661	
0.1713283	0.05683729	-3.876016e-05	-0.0006016628	0.1012856	0.128591	0.0003964945	0.0004116015	
0.002001836	-0.002243814	0.07297079	0.09104661	0.0003964945	0.0004116015	0.0310942	0.1604142	

1.216e+10	0.1618012	0.03387867	-7.945377e-05	-0.00322112	0.177337	0.03288348	0.001308945	-0.002555812	
-7.945377e-05	-0.00322112	0.1305565	0.1124073	-0.0003289949	-0.000650171	0.08754216	0.08653045	
0.177337	0.03288348	-0.0003289949	-0.000650171	0.1233724	0.09701829	0.0003445923	0.0002755081	
0.001308945	-0.002555812	0.08754216	0.08653045	0.0003445923	0.0002755081	0.06092638	0.1414899	

1.218e+10	0.162612	0.002420267	-0.0009199365	-0.003074104	0.1764475	0.009061946	0.0006208186	-0.002691633	
-0.0009199365	-0.003074104	0.1489558	0.08657953	-0.0006053375	-0.0006203124	0.09873744	0.08035053	
0.1764475	0.009061946	-0.0006053375	-0.0006203124	0.1398434	0.06226813	0.0002736857	0.0001748476	
0.0006208186	-0.002691633	0.09873744	0.08035053	0.0002736857	0.0001748476	0.0861363	0.1183044	

1.22e+10	0.1587981	-0.02852651	-0.001678279	-0.00279423	0.1708485	-0.01200832	-3.50199e-05	-0.002718674	
-0.001678279	-0.00279423	0.1631817	0.05675564	-0.0008615472	-0.0005484434	0.1087188	0.07456121	
0.1708485	-0.01200832	-0.0008615472	-0.0005484434	0.1506409	0.0239953	0.0002001305	8.281904e-05	
-3.50199e-05	-0.002718674	0.1087188	0.07456121	0.0002001305	8.281904e-05	0.1078561	0.09134575	

1.222e+10	0.1498193	-0.05995378	-0.0024074	-0.002394828	0.1631759	-0.03081471	-0.0007145175	-0.002661042	
-0.0024074	-0.002394828	0.1711584	0.02287299	-0.001136294	-0.0004391431	0.1197494	0.06773718	
0.1631759	-0.03081471	-0.001136294	-0.0004391431	0.1536945	-0.01769716	8.422577e-05	-1.584917e-05	
-0.0007145175	-0.002661042	0.1197494	0.06773718	8.422577e-05	-1.584917e-05	0.1253182	0.05920555	

1.224e+10	0.1335759	-0.09089743	-0.003112839	-0.001802998	0.1532758	-0.04940041	-0.001452669	-0.002442687	
-0.003112839	-0.001802998	0.1708254	-0.01274249	-0.001445453	-0.0002385157	0.1308823	0.0570859	
0.1532758	-0.04940041	-0.001445453	-0.0002385157	0.1468535	-0.06034879	-0.0001132227	-7.044749e-05	
-0.001452669	-0.002442687	0.1308823	0.0570859	-0.0001132227	-7.044749e-05	0.1356625	0.02221899	

1.226e+10	0.1094045	-0.1179808	-0.003691204	-0.0009607987	0.1387258	-0.0676461	-0.002169531	-0.001963763	
-0.003691204	-0.0009607987	0.1624543	-0.04686851	-0.001729947	0.0001124771	0.1387349	0.04233346	
0.1387258	-0.0676461	-0.001729947	0.0001124771	0.1302049	-0.1002713	-0.000357318	1.184916e-06	
-0.002169531	-0.001963763	0.1387349	0.04233346	-0.000357318	1.184916e-06	0.136698	-0.0166643	

1.228e+10	0.07928675	-0.138213	-0.003994934	8.786735e-05	0.1182697	-0.08234051	-0.002701575	-0.00122492	
-0.003994934	8.786735e-05	0.147742	-0.07787576	-0.00188638	0.000604924	0.1412284	0.02653734	
0.1182697	-0.08234051	-0.00188638	0.000604924	0.1058992	-0.1351019	-0.0005410198	0.0002247618	
-0.002701575	-0.00122492	0.1412284	0.02653734	-0.0005410198	0.0002247618	0.1290355	-0.05382068	

1.23e+10	0.0465219	-0.1508283	-0.003944762	0.001184986	0.09456712	-0.09019048	-0.002929654	-0.00036335	
-0.003944762	0.001184986	0.1280338	-0.1055467	-0.00184504	0.001139965	0.1401574	0.01290234	
0.09456712	-0.09019048	-0.00184504	0.001139965	0.07577478	-0.1643531	-0.0005693395	0.0005200607	
-0.002929654	-0.00036335	0.1401574	0.01290234	-0.0005693395	0.0005200607	0.1149721	-0.08746485	

1.232e+10	0.01294939	-0.1572377	-0.003601936	0.002173684	0.07165763	-0.09158902	-0.002885652	0.0004498172	
-0.003601936	0.002173684	0.1032434	-0.1299111	-0.0016445	0.00160312	0.1385872	0.00087915	
0.07165763	-0.09158902	-0.0016445	0.00160312	0.04053722	-0.1878253	-0.0004575299	0.0007617587	
-0.002885652	0.0004498172	0.1385872	0.00087915	-0.0004575299	0.0007617587	0.09608299	-0.1181795	

1.234e+10	-0.02177893	-0.1580667	-0.003083029	0.003015964	0.05069945	-0.08943971	-0.002684997	0.001164128	
-0.003083029	0.003015964	0.07300132	-0.1494762	-0.001383121	0.001970174	0.1365257	-0.01220309	
0.05069945	-0.08943971	-0.001383121	0.001970174	5.705691e-05	-0.20432	-0.0003041152	0.0009062755	
-0.002684997	0.001164128	0.1365257	-0.01220309	-0.0003041152	0.0009062755	0.07149857	-0.146315	

1.236e+10	-0.05786142	-0.1516035	-0.002429239	0.003755032	0.03003674	-0.08497665	-0.002375368	0.001827959	
-0.002429239	0.003755032	0.0382534	-0.1618611	-0.001109443	0.002300113	0.131138	-0.02695693	
0.03003674	-0.08497665	-0.001109443	0.002300113	-0.04408101	-0.2113724	-0.0001766022	0.001008352	
-0.002375368	0.001827959	0.131138	-0.02695693	-0.0001766022	0.001008352	0.04016807	-0.1697112	

1.238e+10	-0.09260392	-0.1360071	-0.00161025	0.004393086	0.008602242	-0.07634188	-0.001912761	0.00245705	
-0.00161025	0.004393086	0.001956016	-0.1657785	-0.000791287	0.002649252	0.1205522	-0.04045789	
0.008602242	-0.07634188	-0.000791287	0.002649252	-0.08860445	-0.2078307	-5.356356e-05	0.001132033	
-0.001912761	0.00245705	0.1205522	-0.04045789	-5.356356e-05	0.001132033	0.003644393	-0.1852542	

1.24e+10	-0.1220912	-0.1120722	-0.000608398	0.00486168	-0.01132338	-0.06127452	-0.001257259	0.00297635	
-0.000608398	0.00486168	-0.03328041	-0.1621295	-0.0003579409	0.003008481	0.1065435	-0.04937902	
-0.01132338	-0.06127452	-0.0003579409	0.003008481	-0.130057	-0.1948648	0.0001266667	0.001277837	
-0.001257259	0.00297635	0.1065435	-0.04937902	0.0001266667	0.001277837	-0.03452602	-0.1916956	

1.242e+10	-0.144162	-0.08296379	0.0005251104	0.005077921	-0.02586062	-0.04068701	-0.0004587604	0.003281285	
0.0005251104	0.005077921	-0.06644903	-0.1524583	0.0002271863	0.003303597	0.09287374	-0.05363797	
-0.02586062	-0.04068701	0.0002271863	0.003303597	-0.1671789	-0.1745154	0.0003883402	0.00138509	
-0.0004587604	0.003281285	0.09287374	-0.05363797	0.0003883402	0.00138509	-0.07147895	-0.1904694	

1.244e+10	-0.159309	-0.05160898	0.001689089	0.005018156	-0.03344877	-0.01851044	0.0003550658	0.003348427	
0.001689089	0.005018156	-0.0975467	-0.1371601	0.0009340419	0.003463876	0.08092631	-0.05620756	
-0.03344877	-0.01851044	0.0009340419	0.003463876	-0.1996907	-0.1478713	0.0006852801	0.001412659	
0.0003550658	0.003348427	0.08092631	-0.05620756	0.0006852801	0.001412659	-0.1067202	-0.1835847	

1.246e+10	-0.168993	-0.01856745	0.002825334	0.004729214	-0.0362573	0.002312884	0.001114203	0.003264915	
0.002825334	0.004729214	-0.1260325	-0.11569	0.001714198	0.003468416	0.06842321	-0.0588761	
-0.0362573	0.002312884	0.001714198	0.003468416	-0.2268109	-0.1150677	0.000977101	0.001391874	
0.001114203	0.003264915	0.06842321	-0.0588761	0.000977101	0.001391874	-0.1410542	-0.1712342	

1.248e+10	-0.1725543	0.01679749	0.003948665	0.004220816	-0.03666606	0.02251303	0.001871568	0.003084856	
0.003948665	0.004220816	-0.1496365	-0.08793171	0.002556887	0.003297032	0.05340608	-0.05960362	
-0.03666606	0.02251303	0.002556887	0.003297032	-0.2465747	-0.07646911	0.001300283	0.001349496	
0.001871568	0.003084856	0.05340608	-0.05960362	0.001300283	0.001349496	-0.1737186	-0.1517581	

1.25e+10	-0.1677525	0.05327868	0.005040466	0.003418043	-0.03406507	0.0439006	0.002677873	0.002738089	
0.005040466	0.003418043	-0.1660795	-0.05563389	0.003432043	0.00288882	0.03726839	-0.05542778	
-0.03406507	0.0439006	0.003432043	0.00288882	-0.2567422	-0.03457604	0.001697873	0.00123394	
0.002677873	0.002738089	0.03726839	-0.05542778	0.001697873	0.00123394	-0.2015808	-0.1246933	

1.252e+10	-0.1538354	0.08731968	0.005955175	0.002250986	-0.02591115	0.06581296	0.003455554	0.002112261	
0.005955175	0.002250986	-0.1748503	-0.0216858	0.004233334	0.00218508	0.02365742	-0.04628442	
-0.02591115	0.06581296	0.004233334	0.00218508	-0.2571946	0.007363795	0.002132796	0.0009490021	
0.003455554	0.002112261	0.02365742	-0.04628442	0.002132796	0.0009490021	-0.2219283	-0.09251618	

1.254e+10	-0.1329543	0.1157793	0.006530085	0.0008097543	-0.01129763	0.08488649	0.004032228	0.001215329	
0.006530085	0.0008097543	-0.1771147	0.01213658	0.004825204	0.001231185	0.01448923	-0.03528278	
-0.01129763	0.08488649	0.004825204	0.001231185	-0.2494822	0.04704996	0.002481538	0.0004761173	
0.004032228	0.001215329	0.01448923	-0.03528278	0.002481538	0.0004761173	-0.2345868	-0.05861955	

1.256e+10	-0.1082275	0.137978	0.006676376	-0.0007330571	0.007169901	0.09805722	0.004288601	0.0001898167	
0.006676376	-0.0007330571	-0.1736757	0.04543339	0.005121708	0.0001463992	0.008052543	-0.02528679	
0.007169901	0.09805722	0.005121708	0.0001463992	-0.2350372	0.08383166	0.002643619	-0.0001023662	
0.004288601	0.0001898167	0.008052543	-0.02528679	0.002643619	-0.0001023662	-0.2413465	-0.02472789	

1.258e+10	-0.0811951	0.155114	0.006448994	-0.002210751	0.02570518	0.1057919	0.004263298	-0.0007966993	
0.006448994	-0.002210751	-0.1640773	0.07794471	0.005143392	-0.0009400924	0.001501899	-0.01554662	
0.02570518	0.1057919	0.005143392	-0.0009400924	-0.2140032	0.1173576	0.002628429	-0.0006635818	
0.004263298	-0.0007966993	0.001501899	-0.01554662	0.002628429	-0.0006635818	-0.2431571	0.009936231	

1.26e+10	-0.05134054	0.1677179	0.005954793	-0.003580406	0.04341015	0.1109178	0.004077446	-0.001704044	
0.005954793	-0.003580406	-0.1477194	0.1081539	0.004964191	-0.001982721	-0.004872062	-0.003299874	
0.04341015	0.1109178	0.004964191	-0.001982721	-0.1862401	0.1461359	0.002523975	-0.001166026	
0.004077446	-0.001704044	-0.004872062	-0.003299874	0.002523975	-0.001166026	-0.238613	0.04564736	

1.262e+10	-0.01847763	0.1739916	0.005210498	-0.004874021	0.06213259	0.1143388	0.003758135	-0.002604294	
0.005210498	-0.004874021	-0.1251939	0.133598	0.00460208	-0.003003378	-0.008084012	0.01194453	
0.06213259	0.1143388	0.00460208	-0.003003378	-0.1526907	0.1678637	0.002368425	-0.001663939	
0.003758135	-0.002604294	-0.008084012	0.01194453	0.002368425	-0.001663939	-0.2258156	0.0802761	

1.264e+10	0.01511085	0.1719573	0.004154797	-0.006051374	0.08299616	0.1141213	0.003219863	-0.003505993	
0.004154797	-0.006051374	-0.0989481	0.1527166	0.004012067	-0.003985407	-0.006263218	0.02741259	
0.08299616	0.1141213	0.004012067	-0.003985407	-0.1160885	0.1809654	0.002109053	-0.0021901	
0.003219863	-0.003505993	-0.006263218	0.02741259	0.002109053	-0.0021901	-0.2056378	0.1101696	

1.266e+10	0.04603796	0.1620575	0.002771501	-0.006976878	0.1040515	0.107918	0.002395066	-0.004291268	
0.002771501	-0.006976878	-0.07111551	0.166085	0.003168478	-0.004839544	-0.0009559326	0.04011761	
0.1040515	0.107918	0.003168478	-0.004839544	-0.07918895	0.1860156	0.001680417	-0.002687247	
0.002395066	-0.004291268	-0.0009559326	0.04011761	0.001680417	-0.002687247	-0.1812074	0.1336953	

1.268e+10	0.07234282	0.1467807	0.001174736	-0.007510281	0.121692	0.09621005	0.001352323	-0.004801392	
0.001174736	-0.007510281	-0.04229729	0.1747026	0.002127019	-0.005460025	0.004722449	0.050117	
0.121692	0.09621005	0.002127019	-0.005460025	-0.04313487	0.1843406	0.001099496	-0.003045293	
0.001352323	-0.004801392	0.004722449	0.050117	0.001099496	-0.003045293	-0.1549682	0.1519151	

1.27e+10	0.09438504	0.1282034	-0.0004583998	-0.007628039	0.1344376	0.0823028	0.0002667199	-0.004990978	
-0.0004583998	-0.007628039	-0.01245513	0.1782955	0.001001037	-0.005810501	0.009830365	0.06004361	
0.1344376	0.0823028	0.001001037	-0.005810501	-0.008107085	0.1760234	0.0004745116	-0.003214162	
0.0002667199	-0.004990978	0.009830365	0.06004361	0.0004745116	-0.003214162	-0.1268525	0.1662768	

1.272e+10	0.1130982	0.1065299	-0.002019928	-0.007424325	0.1441674	0.06867787	-0.0007459147	-0.004963768	
-0.002019928	-0.007424325	0.01766527	0.175865	-0.0001265938	-0.005939551	0.0168489	0.07147083	
0.1441674	0.06867787	-0.0001265938	-0.005939551	0.02468499	0.1604927	-0.0001028825	-0.003255675	
-0.0007459147	-0.004963768	0.0168489	0.07147083	-0.0001028825	-0.003255675	-0.09582814	0.1759804	

1.274e+10	0.1277119	0.08086411	-0.003521219	-0.006973852	0.1531423	0.0543178	-0.001728586	-0.004819801	
-0.003521219	-0.006973852	0.04593179	0.1671645	-0.001260176	-0.005898283	0.02808922	0.0822245	
0.1531423	0.0543178	-0.001260176	-0.005898283	0.05300546	0.1379041	-0.000657596	-0.003255447	
-0.001728586	-0.004819801	0.02808922	0.0822245	-0.000657596	-0.003255447	-0.06269301	0.1787231	

1.276e+10	0.135739	0.05175226	-0.004994306	-0.006222776	0.160505	0.03684607	-0.002760246	-0.00450961	
-0.004994306	-0.006222776	0.07044232	0.1534982	-0.002430043	-0.005653358	0.04242762	0.0891034	
0.160505	0.03684607	-0.002430043	-0.005653358	0.07460181	0.1099259	-0.001267317	-0.003197617	
-0.002760246	-0.00450961	0.04242762	0.0891034	-0.001267317	-0.003197617	-0.03079947	0.1736091	

1.278e+10	0.1357448	0.02227311	-0.006336969	-0.005089593	0.1631705	0.01647413	-0.003790805	-0.003907711	
-0.006336969	-0.005089593	0.09077738	0.1369211	-0.003584816	-0.005131075	0.05666298	0.0916128	
0.1631705	0.01647413	-0.003584816	-0.005131075	0.08874516	0.07924984	-0.001932647	-0.002986275	
-0.003790805	-0.003907711	0.05666298	0.0916128	-0.001932647	-0.002986275	-0.002872871	0.1626346	

1.28e+10	0.1290212	-0.00451138	-0.007368948	-0.003605227	0.1595611	-0.003522593	-0.004638007	-0.002993576	
-0.007368948	-0.003605227	0.1077311	0.1183368	-0.004602685	-0.004319187	0.06908433	0.09219924	
0.1595611	-0.003522593	-0.004602685	-0.004319187	0.09622443	0.04770344	-0.00254614	-0.002568456	
-0.004638007	-0.002993576	0.06908433	0.09219924	-0.00254614	-0.002568456	0.02096232	0.1486088	

1.282e+10	0.1179496	-0.02770611	-0.007975289	-0.001933846	0.1516086	-0.02006034	-0.005168289	-0.001910783	
-0.007975289	-0.001933846	0.1214588	0.09752978	-0.005380584	-0.003302395	0.08134682	0.09296427	
0.1516086	-0.02006034	-0.005380584	-0.003302395	0.09737761	0.01569291	-0.002997047	-0.002012414	
-0.005168289	-0.001910783	0.08134682	0.09296427	-0.002997047	-0.002012414	0.04226053	0.1322205	

1.284e+10	0.1035945	-0.04806059	-0.008189194	-0.0002430496	0.1425369	-0.03332152	-0.005422645	-0.000834625	
-0.008189194	-0.0002430496	0.1309232	0.07458946	-0.00591233	-0.002191731	0.09594878	0.09265018	
0.1425369	-0.03332152	-0.00591233	-0.002191731	0.09154447	-0.01583551	-0.003290798	-0.001439082	
-0.005422645	-0.000834625	0.09594878	0.09265018	-0.003290798	-0.001439082	0.06114971	0.1123804	

1.286e+10	0.08520864	-0.06577125	-0.008119799	0.001427356	0.1329318	-0.04582918	-0.005535064	0.0002087659	
-0.008119799	0.001427356	0.1352451	0.05096736	-0.006252333	-0.001030583	0.1123085	0.08808325	
0.1329318	-0.04582918	-0.006252333	-0.001030583	0.0784033	-0.04482388	-0.003523209	-0.0008810476	
-0.005535064	0.0002087659	0.1123085	0.08808325	-0.003523209	-0.0008810476	0.07563996	0.08864444	

1.288e+10	0.06211025	-0.07885722	-0.007749883	0.003120147	0.1201962	-0.05832525	-0.005520406	0.001331448	
-0.007749883	0.003120147	0.1347304	0.02839461	-0.006401975	0.0002213245	0.1269651	0.078247	
0.1201962	-0.05832525	-0.006401975	0.0002213245	0.05878215	-0.06907613	-0.003727157	-0.0002495177	
-0.005520406	0.001331448	0.1269651	0.078247	-0.003727157	-0.0002495177	0.08380021	0.06286639	

1.29e+10	0.03629573	-0.08459863	-0.00696781	0.004790634	0.1029152	-0.06785237	-0.005232051	0.002549582	
-0.00696781	0.004790634	0.1307561	0.007989828	-0.006268422	0.001552439	0.1374736	0.06580141	
0.1029152	-0.06785237	-0.006268422	0.001552439	0.03484559	-0.0868914	-0.003803007	0.0005081051	
-0.005232051	0.002549582	0.1374736	0.06580141	-0.003803007	0.0005081051	0.0859395	0.0382861	

1.292e+10	0.01140651	-0.08271118	-0.005725636	0.006246247	0.08334673	-0.07131072	-0.004561776	0.00369801	
-0.005725636	0.006246247	0.1244725	-0.01056384	-0.005781853	0.002840012	0.144931	0.05355697	
0.08334673	-0.07131072	-0.005781853	0.002840012	0.008882794	-0.09817496	-0.003640117	0.001304784	
-0.004561776	0.00369801	0.144931	0.05355697	-0.003640117	0.001304784	0.08446168	0.01613484	

1.294e+10	-0.01023119	-0.07549286	-0.004159376	0.007292162	0.06539026	-0.06902268	-0.003604103	0.004568501	
-0.004159376	0.007292162	0.1157942	-0.02778049	-0.004993356	0.003930795	0.1518869	0.04136926	
0.06539026	-0.06902268	-0.004993356	0.003930795	-0.01806278	-0.1035058	-0.003258686	0.001989111	
-0.003604103	0.004568501	0.1518869	0.04136926	-0.003258686	0.001989111	0.08092051	-0.004701982	

1.296e+10	-0.02890327	-0.06503996	-0.002477467	0.007900773	0.05058181	-0.06411437	-0.002563379	0.005127888	
-0.002477467	0.007900773	0.104254	-0.0430428	-0.004034148	0.004767015	0.1585105	0.02673947	
0.05058181	-0.06411437	-0.004034148	0.004767015	-0.04530603	-0.1027225	-0.002789633	0.002505633	
-0.002563379	0.005127888	0.1585105	0.02673947	-0.002789633	0.002505633	0.07457908	-0.02530748	

1.298e+10	-0.04545212	-0.05124797	-0.0007855772	0.008166	0.03706633	-0.05857654	-0.001530732	0.005500996	
-0.0007855772	0.008166	0.0903409	-0.05512268	-0.002987009	0.005388707	0.1618868	0.008503678	
0.03706633	-0.05857654	-0.002987009	0.005388707	-0.07137755	-0.09520433	-0.002310504	0.002931913	
-0.001530732	0.005500996	0.1618868	0.008503678	-0.002310504	0.002931913	0.06394153	-0.04467429	

1.3e+10	-0.05890482	-0.03298829	0.000936878	0.008138251	0.02290592	-0.05084452	-0.0004276516	0.005761551	
0.000936878	0.008138251	0.07549533	-0.0635437	-0.001841357	0.005829395	0.1593644	-0.01065202	
0.02290592	-0.05084452	-0.001841357	0.005829395	-0.09422495	-0.08116076	-0.001768141	0.003338028	
-0.0004276516	0.005761551	0.1593644	-0.01065202	-0.001768141	0.003338028	0.04931305	-0.06043362	

1.302e+10	-0.06640906	-0.0108154	0.002698898	0.007725859	0.009751771	-0.0384455	0.0008239087	0.005796336	
0.002698898	0.007725859	0.06093501	-0.06894964	-0.0005789018	0.006023144	0.1519837	-0.0271518	
0.009751771	-0.0384455	-0.0005789018	0.006023144	-0.1117705	-0.06213405	-0.001077658	0.003659211	
0.0008239087	0.005796336	0.1519837	-0.0271518	-0.001077658	0.003659211	0.03324714	-0.07132472	

1.304e+10	-0.06631721	0.01180095	0.004338384	0.006832508	0.001215334	-0.02207657	0.002105434	0.005446734	
0.004338384	0.006832508	0.04693861	-0.07240909	0.0007085702	0.005874219	0.1429422	-0.04035697	
0.001215334	-0.02207657	0.0007085702	0.005874219	-0.1231802	-0.0403805	-0.0002836677	0.003762121	
0.002105434	0.005446734	0.1429422	-0.04035697	-0.0002836677	0.003762121	0.01793848	-0.07871485	

1.306e+10	-0.06025982	0.03158347	0.005632639	0.005540399	-0.001461868	-0.005402924	0.003184259	0.004740285	
0.005632639	0.005540399	0.03287328	-0.07419675	0.001856859	0.005399751	0.1335132	-0.05243348	
-0.001461868	-0.005402924	0.001856859	0.005399751	-0.1289273	-0.0177984	0.0004561508	0.003621989	
0.003184259	0.004740285	0.1335132	-0.05243348	0.0004561508	0.003621989	0.003201671	-0.0846905	

1.308e+10	-0.05101582	0.04802447	0.006495947	0.004060853	-0.0005904302	0.008887008	0.003961556	0.003870108	
0.006495947	0.004060853	0.01863192	-0.07357862	0.002778743	0.004722079	0.1217366	-0.06482389	
-0.0005904302	0.008887008	0.002778743	0.004722079	-0.1295555	0.005203488	0.001050438	0.003351542	
0.003961556	0.003870108	0.1217366	-0.06482389	0.001050438	0.003351542	-0.01281087	-0.08927653	

1.31e+10	-0.03942719	0.06236764	0.007001516	0.002548759	0.001057956	0.02153903	0.00452282	0.002982363	
0.007001516	0.002548759	0.005309302	-0.07018547	0.003495779	0.003951538	0.1054998	-0.07553046	
0.001057956	0.02153903	0.003495779	0.003951538	-0.1245758	0.02789165	0.001542327	0.00306032	
0.00452282	0.002982363	0.1054998	-0.07553046	0.001542327	0.00306032	-0.0302732	-0.09058212	

1.312e+10	-0.02431116	0.07468897	0.007233401	0.001013795	0.003626187	0.0349705	0.00497732	0.002049065	
0.007233401	0.001013795	-0.006057246	-0.06482763	0.004060546	0.003104409	0.08576648	-0.08111667	
0.003626187	0.0349705	0.004060546	0.003104409	-0.1135689	0.04839438	0.002020327	0.002737503	
0.00497732	0.002049065	0.08576648	-0.08111667	0.002020327	0.002737503	-0.04704633	-0.08748422	

1.314e+10	-0.005173536	0.08280754	0.007159804	-0.0005767937	0.009772072	0.0493345	0.005283336	0.0009697689	
0.007159804	-0.0005767937	-0.01547508	-0.05869526	0.004455529	0.002148517	0.06625386	-0.08064442	
0.009772072	0.0493345	0.004455529	0.002148517	-0.09744346	0.06474128	0.002477906	0.00229304	
0.005283336	0.0009697689	0.06625386	-0.08064442	0.002477906	0.00229304	-0.06096067	-0.08119198	

1.316e+10	0.01572987	0.08430408	0.006671901	-0.002136719	0.02060021	0.0615997	0.005280321	-0.000217526	
0.006671901	-0.002136719	-0.0238332	-0.05236984	0.004592685	0.001121359	0.04931764	-0.07661406	
0.02060021	0.0615997	0.004592685	0.001121359	-0.07825098	0.07559249	0.002798956	0.001712918	
0.005280321	-0.000217526	0.04931764	-0.07661406	0.002798956	0.001712918	-0.07196718	-0.07434222	

1.318e+10	0.03482949	0.07947944	0.005773592	-0.003468027	0.03373954	0.06921003	0.004916284	-0.001312625	
0.005773592	-0.003468027	-0.03180225	-0.04530043	0.004442455	0.0001504064	0.03375297	-0.07138884	
0.03373954	0.06921003	0.004442455	0.0001504064	-0.05799986	0.08110303	0.002913554	0.001112986	
0.004916284	-0.001312625	0.03375297	-0.07138884	0.002913554	0.001112986	-0.08218522	-0.06779647	

1.32e+10	0.05052144	0.07099606	0.004631606	-0.004430856	0.04599509	0.07296833	0.004332815	-0.002160734	
0.004631606	-0.004430856	-0.03875541	-0.03679037	0.004088422	-0.0006527368	0.01753084	-0.06405122	
0.04599509	0.07296833	0.004088422	-0.0006527368	-0.03755493	0.08198927	0.002888527	0.000608866	
0.004332815	-0.002160734	0.01753084	-0.06405122	0.002888527	0.000608866	-0.09267885	-0.05975034	

1.322e+10	0.06382442	0.06063066	0.00342566	-0.0050498	0.05685533	0.07563343	0.003705032	-0.002789611	
0.00342566	-0.0050498	-0.04375173	-0.02728606	0.00364444	-0.001281551	0.001382085	-0.05205065	
0.05685533	0.07563343	0.00364444	-0.001281551	-0.01709574	0.07821137	0.002838923	0.0001962714	
0.003705032	-0.002789611	0.001382085	-0.05205065	0.002838923	0.0001962714	-0.1018249	-0.04874262	

1.324e+10	0.07564265	0.04771404	0.00221398	-0.005420593	0.06846868	0.07825523	0.00306657	-0.003317629	
0.00221398	-0.005420593	-0.04685614	-0.01796762	0.003155046	-0.001788676	-0.01133815	-0.03483317	
0.06846868	0.07825523	0.003155046	-0.001788676	0.002169258	0.06902692	0.002794062	-0.0002094246	
0.00306657	-0.003317629	-0.01133815	-0.03483317	0.002794062	-0.0002094246	-0.1074199	-0.03602562	

1.326e+10	0.08471158	0.03103022	0.0009639422	-0.005566149	0.08234708	0.07879162	0.002330026	-0.003777498	
0.0009639422	-0.005566149	-0.04911183	-0.009226522	0.002597789	-0.00219041	-0.018123	-0.01513706	
0.08234708	0.07879162	0.002597789	-0.00219041	0.01814888	0.05468819	0.00268469	-0.0006480567	
0.002330026	-0.003777498	-0.018123	-0.01513706	0.00268469	-0.0006480567	-0.1095254	-0.0241208	

1.328e+10	0.08842442	0.01142925	-0.000306387	-0.005412335	0.09673116	0.07478661	0.001458845	-0.004059211	
-0.000306387	-0.005412335	-0.05107188	-0.0003387265	0.001971604	-0.002433686	-0.0199724	0.003665622	
0.09673116	0.07478661	0.001971604	-0.002433686	0.02927934	0.0368884	0.002456093	-0.001050198	
0.001458845	-0.004059211	-0.0199724	0.003665622	0.002456093	-0.001050198	-0.1103582	-0.01413721	

1.33e+10	0.08558128	-0.007920304	-0.001449168	-0.004917513	0.1083723	0.0668459	0.0005815476	-0.004067336	
-0.001449168	-0.004917513	-0.05236456	0.009554023	0.001365866	-0.002466117	-0.01957728	0.02129014	
0.1083723	0.0668459	0.001365866	-0.002466117	0.03529416	0.01750559	0.002170594	-0.00132759	
0.0005815476	-0.004067336	-0.01957728	0.02129014	0.002170594	-0.00132759	-0.1116408	-0.00446444	

1.332e+10	0.07787925	-0.02420153	-0.002323252	-0.004213777	0.1162885	0.05802237	-0.0001491148	-0.003895747	
-0.002323252	-0.004213777	-0.05180783	0.02042854	0.0009025027	-0.002352204	-0.01722087	0.03989056	
0.1162885	0.05802237	0.0009025027	-0.002352204	0.03667899	-0.002234644	0.001945799	-0.001516072	
-0.0001491148	-0.003895747	-0.01722087	0.03989056	0.001945799	-0.001516072	-0.1121404	0.006858803	

1.334e+10	0.06788671	-0.03709608	-0.00300857	-0.003491617	0.1225378	0.05022144	-0.0007910776	-0.003724924	
-0.00300857	-0.003491617	-0.0487564	0.03114506	0.0005808583	-0.002251686	-0.01030252	0.05985075	
0.1225378	0.05022144	0.0005808583	-0.002251686	0.03367659	-0.02186482	0.001781168	-0.001758679	
-0.0007910776	-0.003724924	-0.01030252	0.05985075	0.001781168	-0.001758679	-0.1094555	0.01910304	

1.336e+10	0.05648259	-0.0478262	-0.003723343	-0.002612928	0.1292678	0.0422912	-0.001567789	-0.003457775	
-0.003723343	-0.002612928	-0.04374578	0.04059421	0.0002251491	-0.002195586	0.003090571	0.07820796	
0.1292678	0.0422912	0.0002251491	-0.002195586	0.02586928	-0.04072889	0.001499918	-0.002085051	
-0.001567789	-0.003457775	0.003090571	0.07820796	0.001499918	-0.002085051	-0.1033038	0.02952434	

1.338e+10	0.04313829	-0.05679966	-0.004095507	-0.001230269	0.1360387	0.03190509	-0.002258384	-0.002745492	
-0.004095507	-0.001230269	-0.03783686	0.04851619	-0.000147393	-0.001956155	0.02131048	0.09117258	
0.1360387	0.03190509	-0.000147393	-0.001956155	0.01325264	-0.05710332	0.001064473	-0.002270342	
-0.002258384	-0.002745492	0.02131048	0.09117258	0.001064473	-0.002270342	-0.09611787	0.03662698	

1.34e+10	0.02707479	-0.06334113	-0.003617288	9.470058e-06	0.1400543	0.01841662	-0.002404116	-0.00194265	
-0.003617288	9.470058e-06	-0.03173967	0.05560045	-0.0002490954	-0.001663756	0.04021402	0.09803241	
0.1400543	0.01841662	-0.0002490954	-0.001663756	-0.00302304	-0.06962941	0.0007139966	-0.002317715	
-0.002404116	-0.00194265	0.04021402	0.09803241	0.0007139966	-0.002317715	-0.09020022	0.04181216	

1.342e+10	0.008602102	-0.06534826	-0.002956366	0.0006063171	0.1392072	0.004501233	-0.002358111	-0.001458105	
-0.002956366	0.0006063171	-0.02500946	0.06259146	-0.0002743613	-0.00158229	0.05772521	0.1016189	
0.1392072	0.004501233	-0.0002743613	-0.00158229	-0.0217914	-0.0778382	0.0003862422	-0.002403868	
-0.002358111	-0.001458105	0.05772521	0.1016189	0.0003862422	-0.002403868	-0.08513958	0.0475829	

1.344e+10	-0.009575975	-0.06170032	-0.002459922	0.0009026385	0.1352013	-0.006756503	-0.002372219	-0.001118305	
-0.002459922	0.0009026385	-0.01672688	0.0692464	-0.000408886	-0.001621852	0.07548201	0.1039073	
0.1352013	-0.006756503	-0.000408886	-0.001621852	-0.04184556	-0.0813179	-1.804497e-05	-0.002479334	
-0.002372219	-0.001118305	0.07548201	0.1039073	-1.804497e-05	-0.002479334	-0.0785445	0.0542247	

1.346e+10	-0.0253177	-0.05409665	-0.002188931	0.001059585	0.1309429	-0.01569351	-0.002488845	-0.0008033954	
-0.002188931	0.001059585	-0.00686669	0.07457252	-0.0007959486	-0.001683082	0.0953877	0.1033888	
0.1309429	-0.01569351	-0.0007959486	-0.001683082	-0.06222923	-0.0801099	-0.0005516406	-0.002467898	
-0.002488845	-0.0008033954	0.0953877	0.1033888	-0.0005516406	-0.002467898	-0.06947107	0.05948084	

1.348e+10	-0.03907594	-0.04412075	-0.002225058	0.001464928	0.1269278	-0.02465388	-0.002704798	-0.0002890595	
-0.002225058	0.001464928	0.003948188	0.07815434	-0.001526458	-0.001291328	0.1162386	0.09736651	
0.1269278	-0.02465388	-0.001526458	-0.001291328	-0.08185704	-0.07419741	-0.00118849	-0.002134418	
-0.002704798	-0.0002890595	0.1162386	0.09736651	-0.00118849	-0.002134418	-0.05972852	0.06178592	

1.35e+10	-0.05147209	-0.03134476	-0.001861961	0.002523658	0.121109	-0.03454682	-0.00262021	0.0005770495	
-0.001861961	0.002523658	0.01548041	0.0800275	-0.001712297	3.287378e-06	0.1347289	0.0854653	
0.121109	-0.03454682	-0.001712297	3.287378e-06	-0.09970203	-0.06393387	-0.001462333	-0.001347041	
-0.00262021	0.0005770495	0.1347289	0.0854653	-0.001462333	-0.001347041	-0.05130815	0.06213121	

1.352e+10	-0.0611836	-0.01475666	-0.0003428709	0.003214164	0.1119988	-0.04338977	-0.001868134	0.001246833	
-0.0003428709	0.003214164	0.02769075	0.07956619	-0.0004645509	0.0009236567	0.1486962	0.06983804	
0.1119988	-0.04338977	-0.0004645509	0.0009236567	-0.11455	-0.04980775	-0.0009905205	-0.0007628035	
-0.001868134	0.001246833	0.1486962	0.06983804	-0.0009905205	-0.0007628035	-0.04390323	0.06237537	

1.354e+10	-0.06600843	0.004592605	0.001177826	0.002576991	0.1008139	-0.04906573	-0.001035141	0.001190374	
0.001177826	0.002576991	0.0391812	0.07654372	0.0007874124	0.0003417069	0.1582307	0.05321669	
0.1008139	-0.04906573	0.0007874124	0.0003417069	-0.1258785	-0.03318802	-0.0004944947	-0.0009491064	
-0.001035141	0.001190374	0.1582307	0.05321669	-0.0004944947	-0.0009491064	-0.0360342	0.06284294	

1.356e+10	-0.06521688	0.02402099	0.001842078	0.001496429	0.08998548	-0.05153934	-0.0006301208	0.0008277511	
0.001842078	0.001496429	0.04955058	0.07198075	0.001063025	-0.0006203604	0.1654037	0.03643901	
0.08998548	-0.05153934	0.001063025	-0.0006203604	-0.1338122	-0.01472572	-0.0005104732	-0.001342419	
-0.0006301208	0.0008277511	0.1654037	0.03643901	-0.0005104732	-0.001342419	-0.02671369	0.06214789	

1.358e+10	-0.06032274	0.04145867	0.001979826	0.0005405792	0.08025971	-0.05294163	-0.0005366596	0.0005057225	
0.001979826	0.0005405792	0.05895607	0.06595499	0.0008503921	-0.001320461	0.1705601	0.01764132	
0.08025971	-0.05294163	0.0008503921	-0.001320461	-0.1382035	0.00516431	-0.0008070494	-0.001574401	
-0.0005366596	0.0005057225	0.1705601	0.01764132	-0.0008070494	-0.001574401	-0.0171516	0.05854011	

1.36e+10	-0.05337227	0.05721472	0.001855301	-0.0002242171	0.06989513	-0.05415177	-0.0005948374	0.0003241812	
0.001855301	-0.0002242171	0.0670993	0.05885694	0.0004710375	-0.001774651	0.1713046	-0.00348094	
0.06989513	-0.05415177	0.0004710375	-0.001774651	-0.1387541	0.02616769	-0.001197713	-0.00161331	
-0.0005948374	0.0003241812	0.1713046	-0.00348094	-0.001197713	-0.00161331	-0.009627694	0.05256051	

1.362e+10	-0.04405144	0.0727949	0.001617375	-0.000831289	0.05775782	-0.053359	-0.0006565177	0.0002728787	
0.001617375	-0.000831289	0.07430556	0.05107261	4.435264e-05	-0.002054021	0.1659806	-0.02430035	
0.05775782	-0.053359	4.435264e-05	-0.002054021	-0.1347444	0.04779493	-0.00156766	-0.001486094	
-0.0006565177	0.0002728787	0.1659806	-0.02430035	-0.00156766	-0.001486094	-0.004538722	0.04648997	

1.364e+10	-0.03040507	0.08760674	0.001313515	-0.001372835	0.04545066	-0.0486751	-0.0006610564	0.0002385164	
0.001313515	-0.001372835	0.0808881	0.04215793	-0.0003903102	-0.002235685	0.155922	-0.04196298	
0.04545066	-0.0486751	-0.0003903102	-0.002235685	-0.1254734	0.06863777	-0.001855808	-0.001273078	
-0.0006610564	0.0002385164	0.155922	-0.04196298	-0.001855808	-0.001273078	-4.39722e-05	0.04130198	

1.366e+10	-0.01207809	0.09869571	0.0008764928	-0.001894906	0.03562594	-0.04067512	-0.0006876504	0.0001355349	
0.0008764928	-0.001894906	0.08621326	0.03146599	-0.0008655039	-0.002368943	0.1437873	-0.0559794	
0.03562594	-0.04067512	-0.0008655039	-0.002368943	-0.1113325	0.08670122	-0.002089382	-0.00105405	
-0.0006876504	0.0001355349	0.1437873	-0.0559794	-0.002089382	-0.00105405	0.005178437	0.03553163	

1.368e+10	0.008410311	0.1039403	0.0002304302	-0.002320085	0.02900277	-0.0319318	-0.0008482577	1.80647e-05	
0.0002304302	-0.002320085	0.08912125	0.01942669	-0.001432751	-0.002425547	0.1305696	-0.06807454	
0.02900277	-0.0319318	-0.001432751	-0.002425547	-0.0938806	0.1008862	-0.00234078	-0.0008270749	
-0.0008482577	1.80647e-05	0.1305696	-0.06807454	-0.00234078	-0.0008270749	0.00993584	0.027431	

1.37e+10	0.02793213	0.1040045	-0.000587918	-0.002502672	0.02374847	-0.02392153	-0.001137123	3.295447e-05	
-0.000587918	-0.002502672	0.08915404	0.007208715	-0.002085058	-0.002320574	0.1148406	-0.0789484	
0.02374847	-0.02392153	-0.002085058	-0.002320574	-0.07444904	0.1112107	-0.002626994	-0.0005139674	
-0.001137123	3.295447e-05	0.1148406	-0.0789484	-0.002626994	-0.0005139674	0.01185396	0.01747602	

1.372e+10	0.04572625	0.1013196	-0.001421101	-0.002379196	0.01820351	-0.01531033	-0.001410595	0.00024492	
-0.001421101	-0.002379196	0.08680915	-0.004164883	-0.002732368	-0.001999791	0.09536881	-0.08656922	
0.01820351	-0.01531033	-0.002732368	-0.001999791	-0.05346405	0.1179155	-0.002867161	-6.055909e-05	
-0.001410595	0.00024492	0.09536881	-0.08656922	-0.002867161	-6.055909e-05	0.0102121	0.008221016	

1.374e+10	0.06333627	0.09672901	-0.002140386	-0.002033281	0.01348702	-0.004129317	-0.001551765	0.0005611187	
-0.002140386	-0.002033281	0.08293238	-0.01457278	-0.00327802	-0.001503564	0.07386834	-0.08829543	
0.01348702	-0.004129317	-0.00327802	-0.001503564	-0.03096686	0.120608	-0.002969123	0.0004814248	
-0.001551765	0.0005611187	0.07386834	-0.08829543	-0.002969123	0.0004814248	0.006989651	0.001423839	

1.376e+10	0.08140396	0.08847964	-0.002753963	-0.001568285	0.01209823	0.009145508	-0.001595896	0.0008621777	
-0.002753963	-0.001568285	0.07760317	-0.02443096	-0.003704055	-0.0009070616	0.05367368	-0.0840726	
0.01209823	0.009145508	-0.003704055	-0.0009070616	-0.007812843	0.1182522	-0.002933983	0.001016556	
-0.001595896	0.0008621777	0.05367368	-0.0840726	-0.002933983	0.001016556	0.004262161	-0.003927503	

1.378e+10	0.09773095	0.07507835	-0.003318306	-0.0009722269	0.01481808	0.02196623	-0.001642635	0.00116133	
-0.003318306	-0.0009722269	0.07012018	-0.03356587	-0.004041389	-0.0002259487	0.03648835	-0.07624242	
0.01481808	0.02196623	-0.004041389	-0.0002259487	0.0140714	0.1105178	-0.00282907	0.001519478	
-0.001642635	0.00116133	0.03648835	-0.07624242	-0.00282907	0.001519478	0.001562178	-0.009883301	

1.38e+10	0.1093847	0.05782824	-0.003794285	-0.0001656621	0.0199593	0.03250055	-0.001688993	0.001564573	
-0.003794285	-0.0001656621	0.06027822	-0.04078381	-0.004277683	0.0005760849	0.02141385	-0.06664838	
0.0199593	0.03250055	-0.004277683	0.0005760849	0.0330087	0.09853828	-0.00267967	0.002040622	
-0.001688993	0.001564573	0.02141385	-0.06664838	-0.00267967	0.002040622	-0.003244819	-0.0163277	

1.382e+10	0.1158169	0.03984729	-0.00403838	0.0008583842	0.0255073	0.04142587	-0.001604079	0.002111	
-0.00403838	0.0008583842	0.04913934	-0.04503422	-0.004334303	0.001505124	0.007148612	-0.05462321	
0.0255073	0.04142587	-0.004334303	0.001505124	0.04869141	0.08381156	-0.002424102	0.002614129	
-0.001604079	0.002111	0.007148612	-0.05462321	-0.002424102	0.002614129	-0.01077603	-0.02090503	

1.384e+10	0.1189208	0.02297589	-0.00392896	0.001964904	0.03171464	0.0506124	-0.00126627	0.002686091	
-0.00392896	0.001964904	0.03805348	-0.04633201	-0.004127831	0.002486138	-0.005260001	-0.03836409	
0.03171464	0.0506124	-0.004127831	0.002486138	0.06144698	0.06697073	-0.001980984	0.003181345	
-0.00126627	0.002686091	-0.005260001	-0.03836409	-0.001980984	0.003181345	-0.01900549	-0.02172509	

1.386e+10	0.1204446	0.006314132	-0.003499046	0.002972661	0.04067898	0.05996755	-0.0007181658	0.003118166	
-0.003499046	0.002972661	0.02770089	-0.04548124	-0.003660777	0.003394667	-0.01277911	-0.01832524	
0.04067898	0.05996755	-0.003660777	0.003394667	0.07108247	0.04795476	-0.0013624	0.003622687	
-0.0007181658	0.003118166	-0.01277911	-0.01832524	-0.0013624	0.003622687	-0.02523404	-0.01983584	

1.388e+10	0.1194954	-0.01162967	-0.002879198	0.003822213	0.05312271	0.06703379	-0.0001074971	0.003368185	
-0.002879198	0.003822213	0.01788493	-0.04303776	-0.003017366	0.004163736	-0.01395635	0.002332988	
0.05312271	0.06703379	-0.003017366	0.004163736	0.07662552	0.0270623	-0.0006722896	0.003886076	
-0.0001074971	0.003368185	-0.01395635	0.002332988	-0.0006722896	0.003886076	-0.02929076	-0.01790723	

1.39e+10	0.1138234	-0.0300373	-0.002117022	0.004573268	0.06703874	0.06985365	0.0005040134	0.003529899	
-0.002117022	0.004573268	0.008378398	-0.03859506	-0.002249705	0.004815728	-0.01044648	0.02088844	
0.06703874	0.06985365	-0.002249705	0.004815728	0.07724374	0.00567595	1.734338e-05	0.004023063	
0.0005040134	0.003529899	-0.01044648	0.02088844	1.734338e-05	0.004023063	-0.03335467	-0.01678294	

1.392e+10	0.1032151	-0.04584858	-0.001141264	0.005229926	0.07991055	0.06912554	0.001198115	0.003649883	
-0.001141264	0.005229926	3.686557e-05	-0.03152598	-0.00133249	0.005360263	-0.004558092	0.03743049	
0.07991055	0.06912554	-0.00133249	0.005360263	0.07333614	-0.01433482	0.000734528	0.004083971	
0.001198115	0.003649883	-0.004558092	0.03743049	0.000734528	0.004083971	-0.03855682	-0.01443115	

1.394e+10	0.09016939	-0.05715924	9.144539e-05	0.005663762	0.0912838	0.06692715	0.002043296	0.003630266	
9.144539e-05	0.005663762	-0.005732952	-0.02236078	-0.0002401234	0.00572917	0.003529822	0.0533694	
0.0912838	0.06692715	-0.0002401234	0.00572917	0.06621137	-0.03212909	0.001527453	0.004031007	
0.002043296	0.003630266	0.003529822	0.0533694	0.001527453	0.004031007	-0.04310914	-0.00923393	

1.396e+10	0.07726475	-0.06500076	0.001480019	0.005719513	0.1027021	0.06397869	0.002964075	0.003326922	
0.001480019	0.005719513	-0.008435667	-0.01260105	0.0009759183	0.00582187	0.01554778	0.06862785	
0.1027021	0.06397869	0.0009759183	0.00582187	0.05675105	-0.04802291	0.002364635	0.003774233	
0.002964075	0.003326922	0.01554778	0.06862785	0.002364635	0.003774233	-0.04450492	-0.002332404	

1.398e+10	0.06458858	-0.07150919	0.002824602	0.005369594	0.1150533	0.05865042	0.003777008	0.002721059	
0.002824602	0.005369594	-0.008688224	-0.003364707	0.002189365	0.005598966	0.03222394	0.08062273	
0.1150533	0.05865042	0.002189365	0.005598966	0.04490616	-0.06211071	0.003131557	0.003283635	
0.003777008	0.002721059	0.03222394	0.08062273	0.003131557	0.003283635	-0.0425792	0.003403403	

1.4e+10	0.05026662	-0.07694141	0.004001437	0.004733386	0.1265393	0.04926184	0.004373956	0.001948417	
0.004001437	0.004733386	-0.007328552	0.005231266	0.00329767	0.005121693	0.05130324	0.0869186	
0.1265393	0.04926184	0.00329767	0.005121693	0.03047918	-0.07375431	0.003735923	0.002638139	
0.004373956	0.001948417	0.05130324	0.0869186	0.003735923	0.002638139	-0.03977283	0.006620014	

1.402e+10	0.03368766	-0.0790752	0.005034225	0.003911	0.1345146	0.03677127	0.00480826	0.001124492	
0.005034225	0.003911	-0.004426063	0.01359779	0.004290359	0.004464577	0.06961005	0.08803416	
0.1345146	0.03677127	0.004290359	0.004464577	0.01406057	-0.08188763	0.004192852	0.001930181	
0.00480826	0.001124492	0.06961005	0.08803416	0.004192852	0.001930181	-0.03795284	0.008915736	

1.404e+10	0.01714791	-0.07614707	0.005960805	0.002868742	0.1384547	0.02388592	0.005156638	0.0002193189	
0.005960805	0.002868742	0.0006949696	0.02146975	0.005188919	0.00362442	0.08620771	0.08629804	
0.1384547	0.02388592	0.005188919	0.00362442	-0.002914249	-0.08608068	0.004557974	0.001165796	
0.005156638	0.0002193189	0.08620771	0.08629804	0.004557974	0.001165796	-0.03612015	0.0122752	

1.406e+10	0.003585363	-0.06940946	0.006688016	0.001536306	0.1401152	0.01202196	0.005366535	-0.000852981	
0.006688016	0.001536306	0.008228995	0.02755969	0.005944233	0.002555811	0.10239	0.08268911	
0.1401152	0.01202196	0.005944233	0.002555811	-0.01917082	-0.087049	0.004819009	0.0002895432	
0.005366535	-0.000852981	0.10239	0.08268911	0.004819009	0.0002895432	-0.03193586	0.01608302	

1.408e+10	-0.006775512	-0.06173732	0.007047631	-3.124331e-05	0.1409397	0.0002706836	0.005292103	-0.00206522	
0.007047631	-3.124331e-05	0.01699642	0.03082583	0.006443919	0.001282477	0.118877	0.07591687	
0.1409397	0.0002706836	0.006443919	0.001282477	-0.03454481	-0.08580307	0.00488686	-0.0006961819	
0.005292103	-0.00206522	0.118877	0.07591687	0.00488686	-0.0006961819	-0.02528506	0.01765879	

1.41e+10	-0.01602888	-0.05425164	0.006954253	-0.001647761	0.1400314	-0.01285254	0.004854999	-0.003257383	
0.006954253	-0.001647761	0.02554398	0.0314801	0.006610318	-8.774657e-05	0.1340194	0.0644243	
0.1400314	-0.01285254	0.006610318	-8.774657e-05	-0.04956211	-0.08248521	0.004692459	-0.001702909	
0.004854999	-0.003257383	0.1340194	0.0644243	0.004692459	-0.001702909	-0.01865074	0.01562211	

1.412e+10	-0.02548591	-0.04534116	0.006477277	-0.003140588	0.1352451	-0.02661985	0.004131433	-0.004271505	
0.006477277	-0.003140588	0.03337816	0.03042508	0.006459022	-0.001428028	0.1449912	0.04907117	
0.1352451	-0.02661985	0.006459022	-0.001428028	-0.06402543	-0.07651926	0.004261519	-0.002615044	
0.004131433	-0.004271505	0.1449912	0.04907117	0.004261519	-0.002615044	-0.01434262	0.01147007	

1.414e+10	-0.03358937	-0.03318148	0.005739019	-0.004469635	0.1262264	-0.03826872	0.0032548	-0.005085282	
0.005739019	-0.004469635	0.04086147	0.02812113	0.00605997	-0.002683132	0.1509098	0.03283194	
0.1262264	-0.03826872	0.00605997	-0.002683132	-0.076938	-0.06771074	0.003679162	-0.003389805	
0.0032548	-0.005085282	0.1509098	0.03283194	0.003679162	-0.003389805	-0.01198916	0.007640881	

1.416e+10	-0.03760425	-0.01874879	0.004763493	-0.005675501	0.1152561	-0.04603615	0.002261539	-0.005764548	
0.004763493	-0.005675501	0.0482	0.02407261	0.0054404	-0.003860435	0.1535481	0.01765723	
0.1152561	-0.04603615	0.0054404	-0.003860435	-0.08726141	-0.05681992	0.002989453	-0.004058798	
0.002261539	-0.005764548	0.1535481	0.01765723	0.002989453	-0.004058798	-0.009425103	0.004485452	

1.418e+10	-0.03717367	-0.005224419	0.003485032	-0.006716135	0.1045968	-0.05093621	0.001084489	-0.006306736	
0.003485032	-0.006716135	0.05454005	0.01765696	0.004562507	-0.004933618	0.1546243	0.002817489	
0.1045968	-0.05093621	0.004562507	-0.004933618	-0.09493728	-0.04518111	0.002158332	-0.004632145	
0.001084489	-0.006306736	0.1546243	0.002817489	0.002158332	-0.004632145	-0.00593262	-0.0001532789	

1.42e+10	-0.03483402	0.005710533	0.001899406	-0.007433777	0.09406587	-0.0548114	-0.0003039749	-0.006584988	
0.001899406	-0.007433777	0.05847911	0.00930006	0.003412035	-0.005797576	0.1534626	-0.0130911	
0.09406587	-0.0548114	0.003412035	-0.005797576	-0.1008342	-0.03342582	0.001156365	-0.005035223	
-0.0003039749	-0.006584988	0.1534626	-0.0130911	0.001156365	-0.005035223	-0.003697143	-0.007772157	

1.422e+10	-0.03265635	0.01561828	0.0001560884	-0.007688716	0.08204652	-0.05758842	-0.001783953	-0.006467783	
0.0001560884	-0.007688716	0.05952558	0.0005372387	0.002072074	-0.006339143	0.1480934	-0.02943343	
0.08204652	-0.05758842	0.002072074	-0.006339143	-0.1054467	-0.02101292	4.374665e-05	-0.005167915	
-0.001783953	-0.006467783	0.1480934	-0.02943343	4.374665e-05	-0.005167915	-0.005188789	-0.01676227	

1.424e+10	-0.0297957	0.02661237	-0.001540254	-0.007483639	0.06824563	-0.05717563	-0.003164467	-0.005954003	
-0.001540254	-0.007483639	0.05837606	-0.007586803	0.0006831815	-0.006525233	0.1380063	-0.04353441	
0.06824563	-0.05717563	0.0006831815	-0.006525233	-0.1081811	-0.007488869	-0.001049134	-0.00500012	
-0.003164467	-0.005954003	0.1380063	-0.04353441	-0.001049134	-0.00500012	-0.01028264	-0.02418917	

1.426e+10	-0.02377611	0.03828722	-0.003076392	-0.006935737	0.05487694	-0.05206717	-0.004336247	-0.005165907	
-0.003076392	-0.006935737	0.05575332	-0.01512695	-0.0006523875	-0.006409283	0.1253161	-0.05332524	
0.05487694	-0.05206717	-0.0006523875	-0.006409283	-0.1081337	0.006519026	-0.002024198	-0.004595988	
-0.004336247	-0.005165907	0.1253161	-0.05332524	-0.002024198	-0.004595988	-0.01657689	-0.02896833	

1.428e+10	-0.0140688	0.04774015	-0.004461963	-0.006136859	0.04468992	-0.0435654	-0.005318958	-0.004214243	
-0.004461963	-0.006136859	0.05154116	-0.02242678	-0.001908034	-0.006055196	0.1127674	-0.059453	
0.04468992	-0.0435654	-0.001908034	-0.006055196	-0.1053151	0.01969017	-0.002865644	-0.004041309	
-0.005318958	-0.004214243	0.1127674	-0.059453	-0.002865644	-0.004041309	-0.02239158	-0.03264094	

1.43e+10	-0.003198824	0.05315283	-0.005715173	-0.005052802	0.03782159	-0.03435591	-0.006159297	-0.00307897	
-0.005715173	-0.005052802	0.04499249	-0.02912032	-0.003087397	-0.005456956	0.1005929	-0.06406255	
0.03782159	-0.03435591	-0.003087397	-0.005456956	-0.1007478	0.03134086	-0.00360484	-0.00334748	
-0.006159297	-0.00307897	0.1005929	-0.06406255	-0.00360484	-0.00334748	-0.02899569	-0.03695301	

1.432e+10	0.006125739	0.05599694	-0.006721079	-0.003631043	0.03239629	-0.02530347	-0.006779817	-0.001697941	
-0.006721079	-0.003631043	0.03592468	-0.03380047	-0.004117444	-0.00457931	0.08709361	-0.06742049	
0.03239629	-0.02530347	-0.004117444	-0.00457931	-0.09538461	0.04197023	-0.004208031	-0.002472788	
-0.006779817	-0.001697941	0.08709361	-0.06742049	-0.004208031	-0.002472788	-0.03869631	-0.04079165	

1.434e+10	0.01431602	0.0590041	-0.007301382	-0.001957765	0.02764668	-0.01497533	-0.007018021	-0.0001286264	
-0.007301382	-0.001957765	0.02549132	-0.03524336	-0.004873357	-0.003462034	0.07180414	-0.06748992	
0.02764668	-0.01497533	-0.004873357	-0.003462034	-0.08896374	0.05238273	-0.004566457	-0.001438922	
-0.007018021	-0.0001286264	0.07180414	-0.06748992	-0.004566457	-0.001438922	-0.05130032	-0.04106992	

1.436e+10	0.02390957	0.06237767	-0.007392191	-0.0002465158	0.02520296	-0.002303407	-0.006803432	0.001432468	
-0.007392191	-0.0002465158	0.01532391	-0.03357865	-0.005284434	-0.002243109	0.05688019	-0.06267293	
0.02520296	-0.002303407	-0.005284434	-0.002243109	-0.08048822	0.06223081	-0.004611627	-0.0003694226	
-0.006803432	0.001432468	0.05688019	-0.06267293	-0.004611627	-0.0003694226	-0.06371451	-0.03641584	

1.438e+10	0.03577011	0.06369991	-0.007089814	0.001326823	0.02720758	0.01130036	-0.006232383	0.002806176	
-0.007089814	0.001326823	0.006008319	-0.02969628	-0.005386927	-0.001058826	0.04514474	-0.0540404	
0.02720758	0.01130036	-0.005386927	-0.001058826	-0.06999695	0.07031531	-0.004388044	0.0005979667	
-0.006232383	0.002806176	0.04514474	-0.0540404	-0.004388044	0.0005979667	-0.07344217	-0.02860437	

1.44e+10	0.04770258	0.06109607	-0.006526198	0.002739341	0.03356957	0.02288845	-0.005454581	0.003967351	
-0.006526198	0.002739341	-0.002729841	-0.0239298	-0.005268707	4.505968e-05	0.03713765	-0.04444293	
0.03356957	0.02288845	-0.005268707	4.505968e-05	-0.05859875	0.07595482	-0.004003375	0.001419242	
-0.005454581	0.003967351	0.03713765	-0.04444293	-0.004003375	0.001419242	-0.08091041	-0.02018823	

1.442e+10	0.05697121	0.05582345	-0.005716706	0.004038672	0.04180509	0.0310506	-0.004507074	0.004984579	
-0.005716706	0.004038672	-0.01086475	-0.01572585	-0.004958848	0.001088459	0.03089756	-0.03524929	
0.04180509	0.0310506	-0.004958848	0.001088459	-0.0473577	0.07969608	-0.003510482	0.002136085	
-0.004507074	0.004984579	0.03089756	-0.03524929	-0.003510482	0.002136085	-0.08832099	-0.01114188	

1.444e+10	0.06357451	0.05082903	-0.004589284	0.005170853	0.05003134	0.03709833	-0.003320519	0.005838051	
-0.004589284	0.005170853	-0.01727347	-0.004531609	-0.004419636	0.002046841	0.02517809	-0.02507022	
0.05003134	0.03709833	-0.004419636	0.002046841	-0.03625939	0.08244477	-0.00287684	0.002757827	
-0.003320519	0.005838051	0.02517809	-0.02507022	-0.00287684	0.002757827	-0.0957619	0.0008858463	

1.446e+10	0.07013999	0.04708771	-0.003164686	0.005959435	0.05891983	0.04260855	-0.001893381	0.006375598	
-0.003164686	0.005959435	-0.02032138	0.009009439	-0.003648732	0.002814978	0.02145259	-0.01248671	
0.05891983	0.04260855	-0.003648732	0.002814978	-0.02442267	0.08433801	-0.002084625	0.003203916	
-0.001893381	0.006375598	0.02145259	-0.01248671	-0.002084625	0.003203916	-0.1003724	0.0170488	

1.448e+10	0.07815858	0.04241545	-0.00162684	0.006285996	0.07010186	0.04681933	-0.0003895152	0.006476097	
-0.00162684	0.006285996	-0.0193585	0.0231443	-0.002748887	0.003299317	0.02203187	0.001279686	
0.07010186	0.04681933	-0.002748887	0.003299317	-0.0116604	0.08437812	-0.001222194	0.003387353	
-0.0003895152	0.006476097	0.02203187	0.001279686	-0.001222194	0.003387353	-0.09943453	0.03501643	

1.45e+10	0.08586878	0.03475602	-0.0001812814	0.006210355	0.08319978	0.04748134	0.0009856781	0.006192545	
-0.0001812814	0.006210355	-0.01516739	0.03652714	-0.001857789	0.003517655	0.02698585	0.01328571	
0.08319978	0.04748134	-0.001857789	0.003517655	0.000971535	0.08185623	-0.0004265667	0.00332757	
0.0009856781	0.006192545	0.02698585	0.01328571	-0.0004265667	0.00332757	-0.09353739	0.0513801	

1.452e+10	0.09064461	0.02509028	0.001111329	0.005878168	0.09568535	0.04367088	0.002160895	0.005685607	
0.001111329	0.005878168	-0.008478288	0.04909938	-0.001031818	0.003560818	0.0339141	0.0219249	
0.09568535	0.04367088	-0.001031818	0.003560818	0.01236733	0.07752372	0.0002414686	0.003136017	
0.002160895	0.005685607	0.0339141	0.0219249	0.0002414686	0.003136017	-0.08536673	0.06522059	

1.454e+10	0.09233848	0.01645963	0.002314754	0.005352411	0.105386	0.03720327	0.00321976	0.005052843	
0.002314754	0.005352411	0.0009209031	0.06099405	-0.0002218526	0.003481639	0.0406353	0.02842778	
0.105386	0.03720327	-0.0002218526	0.003481639	0.02275883	0.07267685	0.0008549644	0.002906043	
0.00321976	0.005052843	0.0406353	0.02842778	0.0008549644	0.002906043	-0.07603473	0.07837959	

1.456e+10	0.09389044	0.01010825	0.003461664	0.004529963	0.1130911	0.03049316	0.004260606	0.004192297	
0.003461664	0.004529963	0.01375355	0.07152873	0.0006302213	0.003188106	0.04762534	0.03470354	
0.1130911	0.03049316	0.0006302213	0.003188106	0.03363492	0.06752022	0.001552255	0.0025445	
0.004260606	0.004192297	0.04762534	0.03470354	0.001552255	0.0025445	-0.06367961	0.09196503	

1.458e+10	0.09754392	0.00339557	0.004329634	0.00328518	0.1210625	0.02290345	0.005081541	0.002879331	
0.004329634	0.00328518	0.02988535	0.07901838	0.001341514	0.00250727	0.05677882	0.04025672	
0.1210625	0.02290345	0.001341514	0.00250727	0.04587261	0.06013364	0.002173738	0.001755364	
0.005081541	0.002879331	0.05677882	0.04025672	0.002173738	0.001755364	-0.04625372	0.10379	

1.46e+10	0.1011926	-0.006787907	0.004595443	0.001876489	0.1285718	0.01188538	0.005230103	0.001361852	
0.004595443	0.001876489	0.0478138	0.08218532	0.001562072	0.001644585	0.06805821	0.04272761	
0.1285718	0.01188538	0.001562072	0.001644585	0.05744012	0.04859568	0.002201869	0.000731824	
0.005230103	0.001361852	0.06805821	0.04272761	0.002201869	0.000731824	-0.02491413	0.110373	

1.462e+10	0.1011478	-0.01955123	0.004389995	0.0007197153	0.1326726	-0.002697551	0.004849235	0.0001885689	
0.004389995	0.0007197153	0.0657654	0.08121061	0.00139987	0.001012406	0.07905453	0.04101299	
0.1326726	-0.002697551	0.00139987	0.001012406	0.06578374	0.03392881	0.001753222	6.694138e-05	
0.004849235	0.0001885689	0.07905453	0.04101299	0.001753222	6.694138e-05	-0.003210083	0.1108335	

1.464e+10	0.09664161	-0.03144925	0.004031711	-0.0001131934	0.1312529	-0.01835413	0.004365078	-0.0005658401	
0.004031711	-0.0001131934	0.0831228	0.07700491	0.001161169	0.0006645772	0.08742296	0.03664872	
0.1312529	-0.01835413	0.001161169	0.0006645772	0.07045162	0.01817805	0.001284192	-0.000172306	
0.004365078	-0.0005658401	0.08742296	0.03664872	0.001284192	-0.000172306	0.01662721	0.107269	

1.466e+10	0.08996856	-0.04030708	0.003695791	-0.0007633437	0.1248319	-0.03188654	0.00399311	-0.001100561	
0.003695791	-0.0007633437	0.1000364	0.06978114	0.0009943296	0.000465503	0.093251	0.03210525	
0.1248319	-0.03188654	0.0009943296	0.000465503	0.07229683	0.00246958	0.0009991267	-0.0002072729	
0.00399311	-0.001100561	0.093251	0.03210525	0.0009991267	-0.0002072729	0.03544734	0.1016994	

1.468e+10	0.08364649	-0.04711314	0.003371676	-0.001399008	0.1160491	-0.04195423	0.003733883	-0.001638827	
0.003371676	-0.001399008	0.1161031	0.05896874	0.0008882642	0.0002669484	0.09844347	0.02811668	
0.1160491	-0.04195423	0.0008882642	0.0002669484	0.07195717	-0.0133001	0.0008868255	-0.0002551476	
0.003733883	-0.001638827	0.09844347	0.02811668	0.0008868255	-0.0002551476	0.05481598	0.09336809	

1.47e+10	0.0774582	-0.05423681	0.002916781	-0.002082825	0.1067581	-0.04986606	0.003428514	-0.002311604	
0.002916781	-0.002082825	0.1300734	0.0443921	0.0007236932	1.354688e-05	0.1039059	0.02327142	
0.1067581	-0.04986606	0.0007236932	1.354688e-05	0.06920884	-0.02940878	0.0007945247	-0.0004375524	
0.003428514	-0.002311604	0.1039059	0.02327142	0.0007945247	-0.0004375524	0.07380484	0.08011611	

1.472e+10	0.06900324	-0.06186743	0.002191715	-0.00267537	0.09618026	-0.05699646	0.00285126	-0.003040429	
0.002191715	-0.00267537	0.1407883	0.02697907	0.0003843613	-0.0001832733	0.1083413	0.01662867	
0.09618026	-0.05699646	0.0003843613	-0.0001832733	0.06329506	-0.04552568	0.0005201522	-0.0006767743	
0.00285126	-0.003040429	0.1083413	0.01662867	0.0005201522	-0.0006767743	0.08940848	0.06180323	

1.474e+10	0.05729548	-0.06744588	0.001284774	-0.002957601	0.08279126	-0.06234466	0.001972585	-0.00355191	
0.001284774	-0.002957601	0.1481405	0.007690346	-4.721162e-05	-0.0001453024	0.1105187	0.009188638	
0.08279126	-0.06234466	-4.721162e-05	-0.0001453024	0.05389602	-0.06056176	6.097695e-05	-0.0007290544	
0.001972585	-0.00355191	0.1105187	0.009188638	6.097695e-05	-0.0007290544	0.1000223	0.04102824	

1.476e+10	0.0444936	-0.06892425	0.0004193035	-0.002901156	0.06716509	-0.06357929	0.001016369	-0.003702015	
0.0004193035	-0.002901156	0.1520828	-0.01326299	-0.0003755532	0.0001434849	0.1107256	0.002323431	
0.06716509	-0.06357929	-0.0003755532	0.0001434849	0.04154725	-0.07343452	-0.0003627927	-0.0004883227	
0.001016369	-0.003702015	0.1107256	0.002323431	-0.0003627927	-0.0004883227	0.106861	0.01974572	

1.478e+10	0.03321614	-0.06719888	-0.0002673402	-0.002635576	0.05185232	-0.05965979	0.000184037	-0.003579772	
-0.0002673402	-0.002635576	0.1519475	-0.03554664	-0.0004615534	0.00054194	0.1100868	-0.003422691	
0.05185232	-0.05965979	-0.0004615534	0.00054194	0.02706376	-0.083776	-0.0005497423	-7.657645e-05	
0.000184037	-0.003579772	0.1100868	-0.003422691	-0.0005497423	-7.657645e-05	0.1111624	-0.002479339	

1.48e+10	0.02371956	-0.06477469	-0.000797056	-0.002314819	0.03928217	-0.05215571	-0.0004999053	-0.003354556	
-0.000797056	-0.002314819	0.1469984	-0.05833437	-0.0003452832	0.0008602202	0.1096663	-0.008939326	
0.03928217	-0.05215571	-0.0003452832	0.0008602202	0.01090694	-0.09167244	-0.0004990013	0.0002849717	
-0.0004999053	-0.003354556	0.1096663	-0.008939326	-0.0004990013	0.0002849717	0.1124301	-0.02684269	

1.482e+10	0.0138054	-0.06251479	-0.001282406	-0.001948569	0.0291611	-0.04340121	-0.001144364	-0.003062368	
-0.001282406	-0.001948569	0.1367512	-0.08033096	-0.000182646	0.001057848	0.1086114	-0.01562774	
0.0291611	-0.04340121	-0.000182646	0.001057848	-0.007098169	-0.0969134	-0.0003711261	0.0005187659	
-0.001144364	-0.003062368	0.1086114	-0.01562774	-0.0003711261	0.0005187659	0.10834	-0.05345559	

1.484e+10	0.002026834	-0.05821573	-0.001708342	-0.001437539	0.01972858	-0.03344708	-0.001746473	-0.002604915	
-0.001708342	-0.001437539	0.1213485	-0.0997903	-2.929785e-05	0.001232252	0.1049395	-0.02285749	
0.01972858	-0.03344708	-2.929785e-05	0.001232252	-0.02679866	-0.09849954	-0.0002441268	0.0007130362	
-0.001746473	-0.002604915	0.1049395	-0.02285749	-0.0002441268	0.0007130362	0.09685786	-0.07967892	

1.486e+10	-0.009699734	-0.04934877	-0.001940627	-0.0007959093	0.01113235	-0.02034209	-0.002167358	-0.001983236	
-0.001940627	-0.0007959093	0.1019065	-0.1152735	0.0001870139	0.001421854	0.09846986	-0.02813351	
0.01113235	-0.02034209	0.0001870139	0.001421854	-0.04704625	-0.09540035	-5.254067e-05	0.0009134402	
-0.002167358	-0.001983236	0.09846986	-0.02813351	-5.254067e-05	0.0009134402	0.07884726	-0.1018584	

1.488e+10	-0.01789233	-0.03655507	-0.001937858	-0.0001722674	0.006084466	-0.003486722	-0.002350295	-0.001348752	
-0.001937858	-0.0001722674	0.0799827	-0.1262224	0.0005064085	0.001550917	0.09155867	-0.03014015	
0.006084466	-0.003486722	0.0005064085	0.001550917	-0.06610111	-0.08762364	0.0002443063	0.001040298	
-0.002350295	-0.001348752	0.09155867	-0.03014015	0.0002443063	0.001040298	0.05741142	-0.1185499	

1.49e+10	-0.0215341	-0.02321404	-0.001812485	0.0003437832	0.006844862	0.01462883	-0.002406953	-0.0008100291	
-0.001812485	0.0003437832	0.05646456	-0.1330222	0.0008566025	0.001555195	0.0863584	-0.03039127	
0.006844862	0.01462883	0.0008566025	0.001555195	-0.08271601	-0.07635487	0.0005629095	0.001019751	
-0.002406953	-0.0008100291	0.0863584	-0.03039127	0.0005629095	0.001019751	0.03478561	-0.1311761	

1.492e+10	-0.022836	-0.01126643	-0.001656312	0.0008182406	0.01262953	0.03082614	-0.002451992	-0.000300198	
-0.001656312	0.0008182406	0.03143175	-0.1355844	0.001156407	0.00148024	0.08224868	-0.03119571	
0.01262953	0.03082614	0.001156407	0.00148024	-0.09697617	-0.06249688	0.0007980034	0.0009036935	
-0.002451992	-0.000300198	0.08224868	-0.03119571	0.0007980034	0.0009036935	0.01008596	-0.1411902	

1.494e+10	-0.02389703	0.0006174184	-0.001407522	0.001341771	0.02083247	0.04419514	-0.002434224	0.0002980227	
-0.001407522	0.001341771	0.005252499	-0.1329163	0.001426547	0.001411883	0.07692966	-0.03264361	
0.02083247	0.04419514	0.001426547	0.001411883	-0.1090199	-0.04600698	0.0009581006	0.000805168	
-0.002434224	0.0002980227	0.07692966	-0.03264361	0.0009581006	0.000805168	-0.01828253	-0.1471788	

1.496e+10	-0.02361234	0.01472599	-0.0009317403	0.001857402	0.03027593	0.05631323	-0.0021978	0.0009574557	
-0.0009317403	0.001857402	-0.02056966	-0.1240765	0.001760353	0.001347353	0.06963477	-0.03239432	
0.03027593	0.05631323	0.001760353	0.001347353	-0.1180104	-0.0265948	0.001150494	0.0007504269	
-0.0021978	0.0009574557	0.06963477	-0.03239432	0.001150494	0.0007504269	-0.04932064	-0.1461313	

1.498e+10	-0.01890337	0.0305118	-0.0002182998	0.002175173	0.04245817	0.06811117	-0.001693286	0.001489684	
-0.0002182998	0.002175173	-0.0439305	-0.1092806	0.002190153	0.001178093	0.0624506	-0.02870558	
0.04245817	0.06811117	0.002190153	0.001178093	-0.122572	-0.004901574	0.001434318	0.0006357518	
-0.001693286	0.001489684	0.0624506	-0.02870558	0.001434318	0.0006357518	-0.07935787	-0.1368445	

1.5e+10	-0.008855499	0.04447903	0.0005580587	0.002170507	0.0589275	0.07760598	-0.001073008	0.001743468	
0.0005580587	0.002170507	-0.06328303	-0.08987583	0.002616956	0.0008128869	0.05798786	-0.02288413	
0.0589275	0.07760598	0.002616956	0.0008128869	-0.1219692	0.0172285	0.001726031	0.000360618	
-0.001073008	0.001743468	0.05798786	-0.02288413	0.001726031	0.000360618	-0.1052103	-0.1214581	

1.502e+10	0.003961704	0.05412922	0.001207936	0.001922632	0.07839065	0.08192801	-0.0005357519	0.001771144	
0.001207936	0.001922632	-0.07839752	-0.06726603	0.002911683	0.0002931192	0.05603193	-0.01764315	
0.07839065	0.08192801	0.002911683	0.0002931192	-0.1168582	0.03828547	0.001892754	-4.546131e-05	
-0.0005357519	0.001771144	0.05603193	-0.01764315	0.001892754	-4.546131e-05	-0.1270119	-0.1029256	

1.504e+10	0.0165422	0.0604681	0.001724318	0.001582318	0.09759082	0.08051921	-9.591095e-05	0.001746669	
0.001724318	0.001582318	-0.08939516	-0.0418377	0.003042283	-0.0002614843	0.05426194	-0.01358637	
0.09759082	0.08051921	0.003042283	-0.0002614843	-0.1083265	0.05781664	0.00190216	-0.0004497216	
-9.591095e-05	0.001746669	0.05426194	-0.01358637	0.00190216	-0.0004497216	-0.1465775	-0.08151701	

1.506e+10	0.02899807	0.06600935	0.002197084	0.001181673	0.1145863	0.07542098	0.0003612248	0.00169289	
0.002197084	0.001181673	-0.09537077	-0.01362422	0.003083123	-0.0007963165	0.05162925	-0.008753198	
0.1145863	0.07542098	0.003083123	-0.0007963165	-0.09651894	0.07595292	0.001840422	-0.0007889578	
0.0003612248	0.00169289	0.05162925	-0.008753198	0.001840422	-0.0007889578	-0.1635557	-0.05520151	

1.508e+10	0.04361807	0.07094732	0.002646927	0.0006322958	0.1300401	0.06852467	0.0008678723	0.001513185	
0.002646927	0.0006322958	-0.09483478	0.01624448	0.003080577	-0.001360431	0.04988296	-0.001516307	
0.1300401	0.06852467	0.003080577	-0.001360431	-0.08089222	0.09227238	0.001778317	-0.00111545	
0.0008678723	0.001513185	0.04988296	-0.001516307	0.001778317	-0.00111545	-0.1747466	-0.02350245	

1.51e+10	0.06127857	0.07259302	0.002949481	-0.0001266677	0.1453966	0.05936781	0.001321796	0.001117993	
0.002949481	-0.0001266677	-0.08721296	0.04551634	0.002975987	-0.002004307	0.05149851	0.006924801	
0.1453966	0.05936781	0.002975987	-0.002004307	-0.0615538	0.1052523	0.001674425	-0.001502481	
0.001321796	0.001117993	0.05149851	0.006924801	0.001674425	-0.001502481	-0.1773255	0.01056613	

1.512e+10	0.07954782	0.06867352	0.002961262	-0.000990422	0.1600244	0.04605556	0.001562815	0.0005746015	
0.002961262	-0.000990422	-0.07349953	0.07200119	0.00267837	-0.002676408	0.05641349	0.01362702	
0.1600244	0.04605556	0.00267837	-0.002676408	-0.03971789	0.1136708	0.001429841	-0.001921847	
0.001562815	0.0005746015	0.05641349	0.01362702	0.001429841	-0.001921847	-0.1719474	0.04303072	

1.514e+10	0.09507737	0.06017512	0.002688705	-0.001773615	0.1711395	0.02833902	0.001571306	6.37859e-05	
0.002688705	-0.001773615	-0.05522006	0.09491566	0.002180745	-0.003256452	0.06205131	0.01742314	
0.1711395	0.02833902	0.002180745	-0.003256452	-0.01699078	0.1173564	0.001027916	-0.002254305	
0.001571306	6.37859e-05	0.06205131	0.01742314	0.001027916	-0.002254305	-0.1614938	0.072375	

1.516e+10	0.1072459	0.05012129	0.002273647	-0.002396176	0.1768581	0.008659398	0.001485121	-0.0003260904	
0.002273647	-0.002396176	-0.03306586	0.1143346	0.001579932	-0.003674209	0.06663513	0.02005616	
0.1768581	0.008659398	0.001579932	-0.003674209	0.005723413	0.11694	0.0005683402	-0.002425606	
0.001485121	-0.0003260904	0.06663513	0.02005616	0.0005683402	-0.002425606	-0.1473361	0.1001295	

1.518e+10	0.1181654	0.0398061	0.001809102	-0.002929872	0.1780011	-0.01032052	0.001408967	-0.0006763644	
0.001809102	-0.002929872	-0.006939878	0.1297345	0.0009624722	-0.003969894	0.07125378	0.02339123	
0.1780011	-0.01032052	0.0009624722	-0.003969894	0.02835126	0.1127295	0.0001523156	-0.002483934	
0.001408967	-0.0006763644	0.07125378	0.02339123	0.0001523156	-0.002483934	-0.1277556	0.1269997	

1.52e+10	0.1291813	0.0275196	0.001241815	-0.003445123	0.1766801	-0.02809529	0.001287779	-0.001088065	
0.001241815	-0.003445123	0.0227364	0.1394993	0.0003172031	-0.004207861	0.07797519	0.02675619	
0.1766801	-0.02809529	0.0003172031	-0.004207861	0.05057183	0.1041624	-0.0002230025	-0.002520052	
0.001287779	-0.001088065	0.07797519	0.02675619	-0.0002230025	-0.002520052	-0.1010992	0.150338	

1.522e+10	0.1386081	0.01120133	0.0004803757	-0.003880983	0.1734613	-0.04608965	0.0009993382	-0.001525637	
0.0004803757	-0.003880983	0.05400114	0.1423835	-0.0004164588	-0.004377133	0.08679337	0.02776107	
0.1734613	-0.04608965	-0.0004164588	-0.004377133	0.07118556	0.09068848	-0.0006349147	-0.002548399	
0.0009993382	-0.001525637	0.08679337	0.02776107	-0.0006349147	-0.002548399	-0.06882039	0.1664757	

1.524e+10	0.1433296	-0.008305493	-0.0004553871	-0.004094051	0.1667113	-0.06490418	0.0005264762	-0.00184308	
-0.0004553871	-0.004094051	0.08466109	0.1386101	-0.001246187	-0.004395145	0.09541102	0.02527104	
0.1667113	-0.06490418	-0.001246187	-0.004395145	0.08855167	0.072776	-0.001114525	-0.002493887	
0.0005264762	-0.00184308	0.09541102	0.02527104	-0.001114525	-0.002493887	-0.03479509	0.1742907	

1.526e+10	0.1423731	-0.02779058	-0.001420948	-0.004010409	0.154853	-0.08269424	-4.451809e-06	-0.001947095	
-0.001420948	-0.004010409	0.1134674	0.1293437	-0.002090584	-0.004200403	0.1017431	0.02081269	
0.154853	-0.08269424	-0.002090584	-0.004200403	0.1016259	0.05172065	-0.001592691	-0.002289023	
-4.451809e-06	-0.001947095	0.1017431	0.02081269	-0.001592691	-0.002289023	-0.001744537	0.1756613	

1.528e+10	0.1377754	-0.04494148	-0.002279249	-0.003699078	0.1387209	-0.09661476	-0.0004554191	-0.001899878	
-0.002279249	-0.003699078	0.1401368	0.1153269	-0.002849397	-0.003825545	0.1063331	0.01672225	
0.1387209	-0.09661476	-0.002849397	-0.003825545	0.1102464	0.0286965	-0.001968181	-0.001969555	
-0.0004554191	-0.001899878	0.1063331	0.01672225	-0.001968181	-0.001969555	0.03077793	0.172577	

1.53e+10	0.1318415	-0.0605957	-0.003027447	-0.003283112	0.1211654	-0.1058819	-0.0008310924	-0.001836391	
-0.003027447	-0.003283112	0.164393	0.09641409	-0.003503144	-0.003358221	0.1113409	0.01310949	
0.1211654	-0.1058819	-0.003503144	-0.003358221	0.1145652	0.00440976	-0.002227453	-0.00164342	
-0.0008310924	-0.001836391	0.1113409	0.01310949	-0.002227453	-0.00164342	0.063998	0.1642311	

1.532e+10	0.1239528	-0.07680608	-0.003751276	-0.002776812	0.1037629	-0.1121519	-0.001248693	-0.00177803	
-0.003751276	-0.002776812	0.184857	0.07251166	-0.004107287	-0.002831312	0.117326	0.008023171	
0.1037629	-0.1121519	-0.004107287	-0.002831312	0.1142356	-0.02094556	-0.002456631	-0.001357812	
-0.001248693	-0.00177803	0.117326	0.008023171	-0.002456631	-0.001357812	0.09664711	0.1481772	

1.534e+10	0.1115804	-0.09310061	-0.004460476	-0.002086592	0.08563326	-0.1168019	-0.001755379	-0.001611329	
-0.004460476	-0.002086592	0.1998435	0.04460074	-0.00469246	-0.002190125	0.1225399	0.0001568798	
0.08563326	-0.1168019	-0.00469246	-0.002190125	0.1083333	-0.04649665	-0.002721805	-0.001051349	
-0.001755379	-0.001611329	0.1225399	0.0001568798	-0.002721805	-0.001051349	0.1249517	0.124104	

1.536e+10	0.09377621	-0.1062972	-0.005040039	-0.00114877	0.06529461	-0.1188786	-0.002252493	-0.001236783	
-0.005040039	-0.00114877	0.2085926	0.01455841	-0.00519813	-0.001375346	0.1249459	-0.009412935	
0.06529461	-0.1188786	-0.00519813	-0.001375346	0.09647839	-0.07047972	-0.0029845	-0.0006430912	
-0.002252493	-0.001236783	0.1249459	-0.009412935	-0.0029845	-0.0006430912	0.1461313	0.09484076	

1.538e+10	0.07293168	-0.1136639	-0.005347776	-3.640172e-05	0.04337061	-0.1160185	-0.002594083	-0.0006989659	
-0.005347776	-3.640172e-05	0.2114526	-0.01603876	-0.005523226	-0.0004123853	0.1245671	-0.01840891	
0.04337061	-0.1160185	-0.005523226	-0.0004123853	0.079382	-0.09113527	-0.003150151	-0.0001386403	
-0.002594083	-0.0006989659	0.1245671	-0.01840891	-0.003150151	-0.0001386403	0.1605168	0.06363411	

1.54e+10	0.05247569	-0.1155748	-0.005356747	0.001087895	0.02281664	-0.1073623	-0.00274987	-0.0001489276	
-0.005356747	0.001087895	0.2089292	-0.04654042	-0.005626288	0.0005963112	0.1233777	-0.02606049	
0.02281664	-0.1073623	-0.005626288	0.0005963112	0.05847569	-0.1074259	-0.003187866	0.0003615208	
-0.00274987	-0.0001489276	0.1233777	-0.02606049	-0.003187866	0.0003615208	0.1699289	0.03147911	

1.542e+10	0.03322614	-0.1145068	-0.005171897	0.002136984	0.005880947	-0.09492901	-0.002843435	0.0003375492	
-0.005171897	0.002136984	0.2009355	-0.07648479	-0.005566541	0.001576222	0.1225237	-0.03394889	
0.005880947	-0.09492901	-0.005566541	0.001576222	0.03478428	-0.119115	-0.003188224	0.0007972781	
-0.002843435	0.0003375492	0.1225237	-0.03394889	-0.003188224	0.0007972781	0.1745461	-0.002888011	

1.544e+10	0.01335066	-0.1112518	-0.004877256	0.00317217	-0.008004696	-0.08109891	-0.002977542	0.0008644923	
-0.004877256	0.00317217	0.1868749	-0.1049937	-0.005412857	0.002564427	0.1205798	-0.04368735	
-0.008004696	-0.08109891	-0.005412857	0.002564427	0.008812442	-0.1259922	-0.003254057	0.001247812	
-0.002977542	0.0008644923	0.1205798	-0.04368735	-0.003254057	0.001247812	0.1719783	-0.03960632	

1.546e+10	-0.007930157	-0.1034866	-0.004403152	0.004280383	-0.02059858	-0.06581065	-0.003075504	0.001581273	
-0.004403152	0.004280383	0.1667388	-0.1302144	-0.005123269	0.003650346	0.1152691	-0.05442099	
-0.02059858	-0.06581065	-0.005123269	0.003650346	-0.0189802	-0.1270905	-0.003351104	0.001877477	
-0.003075504	0.001581273	0.1152691	-0.05442099	-0.003351104	0.001877477	0.1601381	-0.07563198	

1.548e+10	-0.02799055	-0.08888284	-0.003591772	0.005414248	-0.03157877	-0.0472967	-0.002932788	0.002500414	
-0.003591772	0.005414248	0.1416376	-0.1504073	-0.004545416	0.004838684	0.106211	-0.0635861	
-0.03157877	-0.0472967	-0.004545416	0.004838684	-0.04672965	-0.1214181	-0.00327494	0.002781284	
-0.002932788	0.002500414	0.106211	-0.0635861	-0.00327494	0.002781284	0.1400865	-0.1068913	

1.55e+10	-0.04296038	-0.06853785	-0.002367679	0.006369901	-0.03849594	-0.02512392	-0.00238566	0.00344148	
-0.002367679	0.006369901	0.113402	-0.1647543	-0.003516757	0.005958373	0.09537797	-0.06952786	
-0.03849594	-0.02512392	-0.003516757	0.005958373	-0.07220242	-0.1092102	-0.002730137	0.003817637	
-0.00238566	0.00344148	0.09537797	-0.06952786	-0.002730137	0.003817637	0.1151576	-0.1316918	

1.552e+10	-0.05148874	-0.04623065	-0.0008622033	0.006930071	-0.03929705	-0.001681389	-0.001494765	0.004115771	
-0.0008622033	0.006930071	0.08326392	-0.1734277	-0.002102624	0.00669719	0.08473873	-0.07323489	
-0.03929705	-0.001681389	-0.002102624	0.00669719	-0.09392269	-0.0918796	-0.001684098	0.004555152	
-0.001494765	0.004115771	0.08473873	-0.07323489	-0.001684098	0.004555152	0.08778288	-0.1512752	

1.554e+10	-0.05552742	-0.02421318	0.0007076738	0.007092482	-0.03477261	0.02008407	-0.0005217512	0.004499047	
0.0007076738	0.007092482	0.05173634	-0.17641	-0.0006077691	0.006965033	0.07376849	-0.07652303	
-0.03477261	0.02008407	-0.0006077691	0.006965033	-0.1114929	-0.07070094	-0.0005411905	0.004787106	
-0.0005217512	0.004499047	0.07376849	-0.07652303	-0.0005411905	0.004787106	0.05727798	-0.1670004	

1.556e+10	-0.05668305	-0.001504098	0.002333236	0.006948312	-0.02728609	0.03942081	0.0005207402	0.004756379	
0.002333236	0.006948312	0.01945372	-0.172889	0.000833712	0.006896489	0.06047724	-0.07888387	
-0.02728609	0.03942081	0.000833712	0.006896489	-0.1246252	-0.04624869	0.0004897134	0.004739668	
0.0005207402	0.004756379	0.06047724	-0.07888387	0.0004897134	0.004739668	0.02240724	-0.1770981	

1.558e+10	-0.05346251	0.02314637	0.004045972	0.006338691	-0.01767016	0.05768845	0.001825903	0.004767081	
0.004045972	0.006338691	-0.01179452	-0.1621215	0.002225372	0.006508675	0.04474935	-0.07773358	
-0.01767016	0.05768845	0.002225372	0.006508675	-0.1325081	-0.01883509	0.001480604	0.004495348	
0.001825903	0.004767081	0.04474935	-0.07773358	0.001480604	0.004495348	-0.01527748	-0.178387	

1.56e+10	-0.04323413	0.04806696	0.005534353	0.005091595	-0.004564445	0.0753619	0.003209451	0.004184907	
0.005534353	0.005091595	-0.03977633	-0.1445056	0.003437223	0.005770344	0.02902015	-0.07152171	
-0.004564445	0.0753619	0.003437223	0.005770344	-0.1338761	0.0102777	0.002373653	0.003970015	
0.003209451	0.004184907	0.02902015	-0.07152171	0.002373653	0.003970015	-0.05157455	-0.1700719	

1.562e+10	-0.02597724	0.06936853	0.006427827	0.003435456	0.01317154	0.09059753	0.004207422	0.003061361	
0.006427827	0.003435456	-0.06291931	-0.1215394	0.004329987	0.004812484	0.01576873	-0.06133957	
0.01317154	0.09059753	0.004329987	0.004812484	-0.1282473	0.0390134	0.003000413	0.003240832	
0.004207422	0.003061361	0.01576873	-0.06133957	0.003000413	0.003240832	-0.08342752	-0.1546183	

1.564e+10	-0.004605878	0.08463477	0.006661356	0.001763365	0.03439256	0.1008256	0.004630538	0.00176749	
0.006661356	0.001763365	-0.08078074	-0.09468244	0.004897306	0.003807372	0.005325762	-0.04937762	
0.03439256	0.1008256	0.004897306	0.003807372	-0.1164319	0.06523171	0.003338548	0.002492921	
0.004630538	0.00176749	0.005325762	-0.04937762	0.003338548	0.002492921	-0.1108774	-0.1348883	

1.566e+10	0.01785104	0.09452824	0.006417248	0.000393485	0.05625053	0.1053877	0.004577104	0.000621452	
0.006417248	0.000393485	-0.09315629	-0.06476942	0.005219357	0.002889684	-0.003640527	-0.03627478	
0.05625053	0.1053877	0.005219357	0.002889684	-0.09974083	0.0880572	0.003469886	0.001846059	
0.004577104	0.000621452	-0.003640527	-0.03627478	0.003469886	0.001846059	-0.1353716	-0.1110768	

1.568e+10	0.04070459	0.1009096	0.006056318	-0.0005776101	0.076707	0.1058848	0.004290319	-0.0002149509	
0.006056318	-0.0005776101	-0.0993132	-0.03228798	0.005463741	0.002106639	-0.01159276	-0.0204818	
0.076707	0.1058848	0.005463741	0.002106639	-0.07899592	0.1071475	0.003530165	0.001350581	
0.004290319	-0.0002149509	-0.01159276	-0.0204818	0.003530165	0.001350581	-0.1562274	-0.08139617	

1.57e+10	0.06526132	0.1040113	0.005835085	-0.001406482	0.09618039	0.1041677	0.004033821	-0.0008163653	
0.005835085	-0.001406482	-0.09801147	0.001437026	0.005759003	0.001324278	-0.01630093	-0.0009570338	
0.09618039	0.1041677	0.005759003	0.001324278	-0.05464217	0.1219257	0.003650813	0.0009320057	
0.004033821	-0.0008163653	-0.01630093	-0.0009570338	0.003650813	0.0009320057	-0.1699152	-0.04587845	

1.572e+10	0.09171353	0.1017724	0.00561415	-0.00237925	0.1158935	0.09993431	0.003843178	-0.001415309	
0.00561415	-0.00237925	-0.08869248	0.03411692	0.00601759	0.000373987	-0.0152003	0.0206398	
0.1158935	0.09993431	0.00601759	0.000373987	-0.02737662	0.1313881	0.003824833	0.000437739	
0.003843178	-0.001415309	-0.0152003	0.0206398	0.003824833	0.000437739	-0.173731	-0.007889077	

1.574e+10	0.1173155	0.09258708	0.005127973	-0.003445336	0.1353863	0.09166684	0.003547219	-0.002074904	
0.005127973	-0.003445336	-0.07238635	0.06319114	0.006055406	-0.0007203377	-0.008058843	0.0410005	
0.1353863	0.09166684	0.006055406	-0.0007203377	0.001388979	0.1346528	0.003917901	-0.0001748343	
0.003547219	-0.002074904	-0.008058843	0.0410005	0.003917901	-0.0001748343	-0.168354	0.02826343	

1.576e+10	0.1389725	0.07782517	0.004327799	-0.00437458	0.1525156	0.07908362	0.00307048	-0.00265917	
0.004327799	-0.00437458	-0.05084936	0.08754359	0.005810122	-0.001805203	0.002991644	0.05837039	
0.1525156	0.07908362	0.005810122	-0.001805203	0.02989705	0.1317094	0.00385477	-0.0008107116	
0.00307048	-0.00265917	0.002991644	0.05837039	0.00385477	-0.0008107116	-0.1566998	0.06090573	

1.578e+10	0.1561101	0.06043515	0.003363187	-0.005037361	0.1656945	0.06398601	0.002520342	-0.003070608	
0.003363187	-0.005037361	-0.02527787	0.1069329	0.005357473	-0.002765198	0.0162256	0.07332216	
0.1656945	0.06398601	0.005357473	-0.002765198	0.05681346	0.1233115	0.003687867	-0.001383681	
0.002520342	-0.003070608	0.0162256	0.07332216	0.003687867	-0.001383681	-0.1402604	0.09080798	

1.58e+10	0.1703452	0.0418471	0.002374803	-0.005480497	0.1754951	0.04852401	0.002007381	-0.003375981	
0.002374803	-0.005480497	0.003781314	0.1208609	0.004788609	-0.003601013	0.03215329	0.08688436	
0.1754951	0.04852401	0.004788609	-0.003601013	0.08157392	0.1101041	0.003488662	-0.001919574	
0.002007381	-0.003375981	0.03215329	0.08688436	0.003488662	-0.001919574	-0.117811	0.1183056	

1.582e+10	0.1827179	0.02072892	0.001363203	-0.005794302	0.1836746	0.03296885	0.001494517	-0.003684426	
0.001363203	-0.005794302	0.03521071	0.1282337	0.004115312	-0.004356083	0.05194992	0.09793439	
0.1836746	0.03296885	0.004115312	-0.004356083	0.1035974	0.09222406	0.003236983	-0.002483286	
0.001494517	-0.003684426	0.05194992	0.09793439	0.003236983	-0.002483286	-0.08858744	0.1407289	

1.584e+10	0.1914742	-0.004189015	0.0002603897	-0.005961516	0.1906758	0.01592872	0.0008664349	-0.003977832	
0.0002603897	-0.005961516	0.06716042	0.1283733	0.003296462	-0.005016667	0.07511444	0.1040377	
0.1906758	0.01592872	0.003296462	-0.005016667	0.1218038	0.07000916	0.002852167	-0.003063395	
0.0008664349	-0.003977832	0.07511444	0.1040377	0.002852167	-0.003063395	-0.05468303	0.1547634	

1.586e+10	0.1939065	-0.03163457	-0.0009166007	-0.005873408	0.1949214	-0.003336688	0.0001018228	-0.004122143	
-0.0009166007	-0.005873408	0.0975106	0.1217305	0.002330466	-0.005504384	0.09901085	0.1040225	
0.1949214	-0.003336688	0.002330466	-0.005504384	0.1350177	0.04423754	0.002304437	-0.003565528	
0.0001018228	-0.004122143	0.09901085	0.1040225	0.002304437	-0.003565528	-0.02012144	0.1598385	

1.588e+10	0.1894229	-0.05832839	-0.002029823	-0.005475574	0.1948706	-0.02347979	-0.0006736185	-0.004031004	
-0.002029823	-0.005475574	0.1249366	0.1096051	0.001295089	-0.00575754	0.121319	0.09910059	
0.1948706	-0.02347979	0.001295089	-0.00575754	0.1424603	0.01630158	0.001663027	-0.00391177	
-0.0006736185	-0.004031004	0.121319	0.09910059	0.001663027	-0.00391177	0.01240691	0.1581742	

1.59e+10	0.1800731	-0.08196535	-0.002941842	-0.004855646	0.1908128	-0.04236857	-0.001324067	-0.003774605	
-0.002941842	-0.004855646	0.1489728	0.09315362	0.000289742	-0.005795662	0.1417896	0.09109373	
0.1908128	-0.04236857	0.000289742	-0.005795662	0.1439991	-0.01225951	0.001019911	-0.00411942	
-0.001324067	-0.003774605	0.1417896	0.09109373	0.001019911	-0.00411942	0.04319446	0.1518667	

1.592e+10	0.1679821	-0.1030848	-0.003645852	-0.004158762	0.1845597	-0.0592592	-0.001849352	-0.003492819	
-0.003645852	-0.004158762	0.169432	0.07282528	-0.0006480646	-0.005691523	0.1614377	0.08033162	
0.1845597	-0.0592592	-0.0006480646	-0.005691523	0.140012	-0.04034887	0.0003965086	-0.004260489	
-0.001849352	-0.003492819	0.1614377	0.08033162	0.0003965086	-0.004260489	0.07305356	0.1405142	

1.594e+10	0.1528632	-0.1231206	-0.004238642	-0.003437287	0.1771578	-0.07533407	-0.00236678	-0.003223159	
-0.004238642	-0.003437287	0.1855346	0.04893722	-0.001553309	-0.005485622	0.1803252	0.06555102	
0.1771578	-0.07533407	-0.001553309	-0.005485622	0.1306961	-0.06728694	-0.0002670199	-0.004363237	
-0.00236678	-0.003223159	0.1803252	0.06555102	-0.0002670199	-0.004363237	0.1008576	0.122607	

1.596e+10	0.1328992	-0.1413699	-0.004768019	-0.002628831	0.1675261	-0.09171789	-0.002938348	-0.002867414	
-0.004768019	-0.002628831	0.1962711	0.0226177	-0.002454129	-0.005145187	0.1965142	0.0459726	
0.1675261	-0.09171789	-0.002454129	-0.005145187	0.1160007	-0.09220171	-0.001013769	-0.004366768	
-0.002938348	-0.002867414	0.1965142	0.0459726	-0.001013769	-0.004366768	0.1235215	0.09852124	

1.598e+10	0.1076311	-0.1549821	-0.005159846	-0.001663602	0.1539521	-0.1074304	-0.003479118	-0.002324673	
-0.005159846	-0.001663602	0.2013059	-0.004668807	-0.003306915	-0.004617347	0.2078789	0.02284098	
0.1539521	-0.1074304	-0.003306915	-0.004617347	0.09615284	-0.1138097	-0.00179396	-0.004193705	
-0.003479118	-0.002324673	0.2078789	0.02284098	-0.00179396	-0.004193705	0.1391172	0.071049	

1.6e+10	0.07970896	-0.1614561	-0.005290752	-0.0006056114	0.1365128	-0.1200646	-0.003847241	-0.001633849	
-0.005290752	-0.0006056114	0.2010115	-0.03153435	-0.00401939	-0.003912783	0.2140545	-0.001538605	
0.1365128	-0.1200646	-0.00401939	-0.003912783	0.07187562	-0.1307575	-0.002510305	-0.003842	
-0.003847241	-0.001633849	0.2140545	-0.001538605	-0.002510305	-0.003842	0.1483573	0.04309616	

1.602e+10	0.05229905	-0.1612088	-0.005145267	0.0003922936	0.1171332	-0.1283717	-0.004012964	-0.0009404934	
-0.005145267	0.0003922936	0.1961398	-0.05719925	-0.004542668	-0.003116256	0.2162266	-0.02596528	
0.1171332	-0.1283717	-0.004542668	-0.003116256	0.04443289	-0.1420635	-0.003114527	-0.00338821	
-0.004012964	-0.0009404934	0.2162266	-0.02596528	-0.003114527	-0.00338821	0.1531779	0.01539882	

1.604e+10	0.02654963	-0.1564229	-0.004840899	0.00123843	0.09769557	-0.1331668	-0.004088232	-0.0003246228	
-0.004840899	0.00123843	0.1869919	-0.08137238	-0.004910579	-0.00230865	0.2151556	-0.05096769	
0.09769557	-0.1331668	-0.004910579	-0.00230865	0.01547874	-0.1473693	-0.003645184	-0.002896395	
-0.004088232	-0.0003246228	0.2151556	-0.05096769	-0.003645184	-0.002896395	0.1540315	-0.0130102	

1.606e+10	0.001420292	-0.1479532	-0.004487284	0.001985681	0.07793449	-0.1357954	-0.004169917	0.000291589	
-0.004487284	0.001985681	0.1735312	-0.1034946	-0.005185757	-0.001485033	0.2098338	-0.07709986	
0.07793449	-0.1357954	-0.005185757	-0.001485033	-0.01406037	-0.1468283	-0.004160091	-0.002333579	
-0.004169917	0.000291589	0.2098338	-0.07709986	-0.004160091	-0.002333579	0.1493258	-0.04218457	

1.608e+10	-0.023561	-0.1340451	-0.004054471	0.00272963	0.05655649	-0.1358148	-0.004199424	0.001023709	
-0.004054471	0.00272963	0.1558925	-0.122574	-0.005361119	-0.0005937673	0.1985736	-0.1033312	
0.05655649	-0.1358148	-0.005361119	-0.0005937673	-0.04341881	-0.1402635	-0.004630098	-0.00162416	
-0.004199424	0.001023709	0.1985736	-0.1033312	-0.004630098	-0.00162416	0.1377662	-0.07004403	

1.61e+10	-0.04576971	-0.1130567	-0.00343343	0.003445436	0.03377498	-0.1310889	-0.004026367	0.001852773	
-0.00343343	0.003445436	0.1349302	-0.1374498	-0.005359297	0.0003662999	0.1809743	-0.1270352	
0.03377498	-0.1310889	-0.005359297	0.0003662999	-0.07142311	-0.1272224	-0.004950114	-0.0007565897	
-0.004026367	0.001852773	0.1809743	-0.1270352	-0.004950114	-0.0007565897	0.1202624	-0.09382081	

1.612e+10	-0.06155662	-0.08617188	-0.002598925	0.003983702	0.01222555	-0.120421	-0.00359194	0.002614489	
-0.002598925	0.003983702	0.1118369	-0.1475695	-0.005125808	0.001303694	0.1587551	-0.1461875	
0.01222555	-0.120421	-0.005125808	0.001303694	-0.0961678	-0.1077848	-0.005042508	0.0001708015	
-0.00359194	0.002614489	0.1587551	-0.1461875	-0.005042508	0.0001708015	0.09934466	-0.1122927	

1.614e+10	-0.06946442	-0.05713998	-0.001689297	0.004234257	-0.005519094	-0.1052754	-0.003015604	0.003180006	
-0.001689297	0.004234257	0.08770048	-0.152985	-0.004709923	0.002114748	0.13386	-0.1608064	
-0.005519094	-0.1052754	-0.004709923	0.002114748	-0.115846	-0.08299879	-0.004943887	0.001053562	
-0.003015604	0.003180006	0.13386	-0.1608064	-0.004943887	0.001053562	0.07677833	-0.1264919	

1.616e+10	-0.07110526	-0.02881504	-0.0008722772	0.004260728	-0.0192333	-0.08806418	-0.002445896	0.003600378	
-0.0008722772	0.004260728	0.06319996	-0.1538985	-0.004216072	0.002786326	0.1065237	-0.1716178	
-0.0192333	-0.08806418	-0.004216072	0.002786326	-0.1295025	-0.05451763	-0.004739792	0.001884276	
-0.002445896	0.003600378	0.1065237	-0.1716178	-0.004739792	0.001884276	0.05204113	-0.1374906	

1.618e+10	-0.06834175	-0.0008469233	-0.0001515357	0.004210874	-0.03018817	-0.06962734	-0.001867823	0.004007385	
-0.0001515357	0.004210874	0.03871186	-0.1500983	-0.003677163	0.003387252	0.07612344	-0.1779953	
-0.03018817	-0.06962734	-0.003677163	0.003387252	-0.1368544	-0.02398338	-0.004433594	0.002725432	
-0.001867823	0.004007385	0.07612344	-0.1779953	-0.004433594	0.002725432	0.02427107	-0.1440496	

1.62e+10	-0.06025615	0.02766378	0.0005843143	0.004112295	-0.03860459	-0.04893455	-0.001143893	0.004397767	
0.0005843143	0.004112295	0.01514462	-0.1410593	-0.00303332	0.003940269	0.04297412	-0.1777695	
-0.03860459	-0.04893455	-0.00303332	0.003940269	-0.1377867	0.00784822	-0.003935717	0.003578716	
-0.001143893	0.004397767	0.04297412	-0.1777695	-0.003935717	0.003578716	-0.005652935	-0.1437489	

1.622e+10	-0.04460587	0.05512299	0.001368675	0.003846873	-0.04270415	-0.02560855	-0.0002312994	0.0046089	
0.001368675	0.003846873	-0.005847455	-0.1268653	-0.002243634	0.004367515	0.009642485	-0.1692355	
-0.04270415	-0.02560855	-0.002243634	0.004367515	-0.1316063	0.03985963	-0.003190845	0.004331121	
-0.0002312994	0.0046089	0.009642485	-0.1692355	-0.003190845	0.004331121	-0.03462861	-0.1355569	

1.624e+10	-0.02139692	0.07762812	0.002068959	0.003327416	-0.04066348	-0.001675867	0.0007206077	0.004509487	
0.002068959	0.003327416	-0.02287666	-0.1084637	-0.001377108	0.004572738	-0.02060201	-0.1530193	
-0.04066348	-0.001675867	-0.001377108	0.004572738	-0.1179482	0.069949	-0.002274047	0.004852365	
0.0007206077	0.004509487	-0.02060201	-0.1530193	-0.002274047	0.004852365	-0.05970013	-0.1210599	

1.626e+10	0.005984589	0.09236933	0.002519084	0.002647148	-0.0330564	0.01990943	0.00151596	0.004169141	
0.002519084	0.002647148	-0.03524673	-0.08723873	-0.0005626653	0.004560823	-0.04623383	-0.1313613	
-0.0330564	0.01990943	-0.0005626653	0.004560823	-0.09755345	0.09593246	-0.001326613	0.005129633	
0.00151596	0.004169141	-0.04623383	-0.1313613	-0.001326613	0.005129633	-0.08030125	-0.1028179	

1.628e+10	0.03389987	0.1001586	0.002720479	0.00200095	-0.0222743	0.03804164	0.002137536	0.003771476	
0.002720479	0.00200095	-0.04300303	-0.06430998	0.0001449401	0.004436933	-0.06758256	-0.1055947	
-0.0222743	0.03804164	0.0001449401	0.004436933	-0.07216583	0.1163462	-0.0004068616	0.00525407	
0.002137536	0.003771476	-0.06758256	-0.1055947	-0.0004068616	0.00525407	-0.09763379	-0.0815477	

1.63e+10	0.06143605	0.1032319	0.002824465	0.001461313	-0.009830392	0.05366709	0.002720689	0.003372992	
0.002824465	0.001461313	-0.04600384	-0.04015999	0.0007990524	0.004267639	-0.08443877	-0.07536449	
-0.009830392	0.05366709	0.0007990524	0.004267639	-0.04359787	0.1306792	0.0005331434	0.005266985	
0.002720689	0.003372992	-0.08443877	-0.07536449	0.0005331434	0.005266985	-0.1112724	-0.05613461	

1.632e+10	0.0898814	0.1018787	0.002916611	0.0009270528	0.004898177	0.067687	0.003325284	0.002850616	
0.002916611	0.0009270528	-0.04358122	-0.01550144	0.001451705	0.004011823	-0.09477703	-0.04058233	
0.004898177	0.067687	0.001451705	0.004011823	-0.01276539	0.1389247	0.001524448	0.005098055	
0.003325284	0.002850616	-0.09477703	-0.04058233	0.001524448	0.005098055	-0.1185261	-0.02658061	

1.634e+10	0.1188738	0.09400222	0.002911479	0.0003152852	0.02283423	0.07901788	0.003822606	0.002112107	
0.002911479	0.0003152852	-0.03529355	0.007927859	0.002053546	0.003609759	-0.09623916	-0.003478472	
0.02283423	0.07901788	0.002053546	0.003609759	0.01944551	0.1404604	0.002480349	0.004672922	
0.003822606	0.002112107	-0.09623916	-0.003478472	0.002480349	0.004672922	-0.1171035	0.004232595	

1.636e+10	0.1453213	0.07844061	0.002690337	-0.0002944307	0.043141	0.085672	0.004054034	0.001255864	
0.002690337	-0.0002944307	-0.02187233	0.02833014	0.002510075	0.003096147	-0.08851812	0.03223546	
0.043141	0.085672	0.002510075	0.003096147	0.05128717	0.1346321	0.003266674	0.004036455	
0.004054034	0.001255864	-0.08851812	0.03223546	0.003266674	0.004036455	-0.1077019	0.03208686	

1.638e+10	0.1659142	0.05705434	0.002275132	-0.0007336639	0.06337346	0.08704386	0.004027658	0.0004709675	
0.002275132	-0.0007336639	-0.004725112	0.04473113	0.002802309	0.00257821	-0.07372881	0.0640463	
0.06337346	0.08704386	0.002802309	0.00257821	0.08065757	0.1216618	0.003848816	0.003313427	
0.004027658	0.0004709675	-0.07372881	0.0640463	0.003848816	0.003313427	-0.09337879	0.05529008	

1.64e+10	0.1798951	0.03340329	0.001835807	-0.0009292639	0.08167203	0.08458568	0.003901676	-0.0001682018	
0.001835807	-0.0009292639	0.01495401	0.0569163	0.003010289	0.002128014	-0.05391192	0.09170719	
0.08167203	0.08458568	0.003010289	0.002128014	0.1058394	0.1026622	0.004301957	0.002574362	
0.003901676	-0.0001682018	-0.05391192	0.09170719	0.004301957	0.002574362	-0.0760979	0.07480731	

1.642e+10	0.1890369	0.009390969	0.001515295	-0.0009838936	0.09809197	0.08005034	0.003775819	-0.0007683363	
0.001515295	-0.0009838936	0.03669451	0.06471231	0.003241383	0.00171217	-0.02936208	0.1154445	
0.09809197	0.08005034	0.003241383	0.00171217	0.1255597	0.07923451	0.004687169	0.001771882	
0.003775819	-0.0007683363	-0.02936208	0.1154445	0.004687169	0.001771882	-0.05538386	0.09130571	

1.644e+10	0.1944945	-0.01548536	0.001289589	-0.001054127	0.1136727	0.07376634	0.003559234	-0.001426619	
0.001289589	-0.001054127	0.05967182	0.06725253	0.003507482	0.001190766	0.0001823945	0.1339799	
0.1136727	0.07376634	0.003507482	0.001190766	0.1393253	0.05287184	0.004933172	0.0008275392	
0.003559234	-0.001426619	0.0001823945	0.1339799	0.004933172	0.0008275392	-0.03052597	0.1030539	

1.646e+10	0.1951798	-0.04196408	0.001009335	-0.001154498	0.1285027	0.06482977	0.003125632	-0.002049956	
0.001009335	-0.001154498	0.08196446	0.064063	0.003626075	0.0004882605	0.0333643	0.1451754	
0.1285027	0.06482977	0.003626075	0.0004882605	0.1469364	0.02507117	0.004898127	-0.0001922853	
0.003125632	-0.002049956	0.0333643	0.1451754	0.004898127	-0.0001922853	-0.003308436	0.1076092	

1.648e+10	0.1892328	-0.06853121	0.0006411043	-0.001127127	0.1413937	0.05274123	0.002532242	-0.002466285	
0.0006411043	-0.001127127	0.1017625	0.0560138	0.003444182	-0.0001967991	0.06734241	0.148153	
0.1413937	0.05274123	0.003444182	-0.0001967991	0.1486929	-0.002839473	0.004577824	-0.001100306	
0.002532242	-0.002466285	0.06734241	0.148153	0.004577824	-0.001100306	0.02254407	0.1046595	

1.65e+10	0.1766992	-0.09209748	0.0003567405	-0.000899189	0.1508407	0.03839275	0.00195749	-0.002647038	
0.0003567405	-0.000899189	0.1181146	0.04467185	0.003103886	-0.0006620164	0.09949921	0.1440709	
0.1508407	0.03839275	0.003103886	-0.0006620164	0.1447849	-0.02994925	0.00410888	-0.001806581	
0.00195749	-0.002647038	0.09949921	0.1440709	0.00410888	-0.001806581	0.04471103	0.09678128	

1.652e+10	0.1599451	-0.110582	0.0002900396	-0.0006080807	0.1567405	0.02361859	0.001511405	-0.002717356	
0.0002900396	-0.0006080807	0.1310078	0.0314933	0.002798534	-0.0009434968	0.1290028	0.1348806	
0.1567405	0.02361859	0.002798534	-0.0009434968	0.1354805	-0.05502946	0.003613532	-0.002350064	
0.001511405	-0.002717356	0.1290028	0.1348806	0.003613532	-0.002350064	0.06358432	0.0864931	

1.654e+10	0.1416147	-0.1245299	0.0003818762	-0.000424325	0.1603584	0.009164211	0.001138052	-0.002816354	
0.0003818762	-0.000424325	0.1410081	0.01709032	0.002569665	-0.001172202	0.1563792	0.121252	
0.1603584	0.009164211	0.002569665	-0.001172202	0.1216534	-0.07699229	0.003110434	-0.002817206	
0.001138052	-0.002816354	0.1563792	0.121252	0.003110434	-0.002817206	0.08066805	0.07401713	

1.656e+10	0.1218152	-0.1356795	0.0004786316	-0.000364778	0.1622039	-0.005868656	0.0007011435	-0.002934911	
0.0004786316	-0.000364778	0.1482228	0.001461947	0.002347271	-0.001408432	0.1813126	0.1024189	
0.1622039	-0.005868656	0.002347271	-0.001408432	0.1042237	-0.09543985	0.002538865	-0.003230033	
0.0007011435	-0.002934911	0.1813126	0.1024189	0.002538865	-0.003230033	0.09569861	0.0579754	

1.658e+10	0.09902059	-0.1435385	0.000532801	-0.0003140317	0.1609656	-0.02191047	0.0001803622	-0.002940474	
0.000532801	-0.0003140317	0.1520189	-0.01502855	0.002085326	-0.001608006	0.2017872	0.07822757	
0.1609656	-0.02191047	0.002085326	-0.001608006	0.08357293	-0.1101552	0.001876912	-0.003521207	
0.0001803622	-0.002940474	0.2017872	0.07822757	0.001876912	-0.003521207	0.1064278	0.03833104	

1.66e+10	0.07330476	-0.1453961	0.0006428463	-0.0002152306	0.1552627	-0.03738421	-0.0002972723	-0.002768385	
0.0006428463	-0.0002152306	0.1520414	-0.03135068	0.001830513	-0.001719989	0.2157662	0.05046847	
0.1552627	-0.03738421	0.001830513	-0.001719989	0.05995823	-0.1202734	0.001199588	-0.003634238	
-0.0002972723	-0.002768385	0.2157662	0.05046847	0.001199588	-0.003634238	0.1111683	0.01758167	

1.662e+10	0.04789702	-0.1392847	0.0008978242	-0.0001656078	0.1457422	-0.04981346	-0.0006146557	-0.002511891	
0.0008978242	-0.0001656078	0.1487185	-0.04626942	0.001656343	-0.001784185	0.2230583	0.0217893	
0.1457422	-0.04981346	0.001656343	-0.001784185	0.03442001	-0.1245619	0.0005965718	-0.003607505	
-0.0006146557	-0.002511891	0.2230583	0.0217893	0.0005965718	-0.003607505	0.1109392	-0.001550866	

1.664e+10	0.02650729	-0.1265742	0.001234262	-0.0003116516	0.1346681	-0.05815892	-0.0008054968	-0.002316977	
0.001234262	-0.0003116516	0.1430948	-0.05918112	0.001561441	-0.001897685	0.2249735	-0.006238104	
0.1346681	-0.05815892	0.001561441	-0.001897685	0.00882406	-0.1224725	8.053562e-05	-0.003532582	
-0.0008054968	-0.002316977	0.2249735	-0.006238104	8.053562e-05	-0.003532582	0.1081432	-0.01847516	

1.666e+10	0.01021372	-0.110499	0.001479424	-0.0006724982	0.1239201	-0.06353869	-0.001005719	-0.002212988	
0.001479424	-0.0006724982	0.1358708	-0.07029941	0.001455885	-0.002109717	0.222519	-0.03372394	
0.1239201	-0.06353869	0.001455885	-0.002109717	-0.01491504	-0.1145733	-0.000412956	-0.00345239	
-0.001005719	-0.002212988	0.222519	-0.03372394	-0.000412956	-0.00345239	0.1037444	-0.03459363	

1.668e+10	-0.002570629	-0.09266735	0.001535992	-0.001113426	0.1131554	-0.06724819	-0.00128183	-0.0020844	
0.001535992	-0.001113426	0.1270858	-0.07981354	0.001255573	-0.002366667	0.2150772	-0.06088908	
0.1131554	-0.06724819	0.001255573	-0.002366667	-0.03586107	-0.1019466	-0.0009350762	-0.003317746	
-0.00128183	-0.0020844	0.2150772	-0.06088908	-0.0009350762	-0.003317746	0.09640967	-0.05072573	

1.67e+10	-0.01250954	-0.07175777	0.001471109	-0.001521091	0.1014007	-0.06866116	-0.001538056	-0.001846032	
0.001471109	-0.001521091	0.1165278	-0.08726281	0.0009709899	-0.002586978	0.2014467	-0.08631521	
0.1014007	-0.06866116	0.0009709899	-0.002586978	-0.05373498	-0.08516479	-0.001445789	-0.003066898	
-0.001538056	-0.001846032	0.2014467	-0.08631521	-0.001445789	-0.003066898	0.08458201	-0.0653229	

1.672e+10	-0.01710943	-0.04688045	0.001373056	-0.001943261	0.08969278	-0.06611997	-0.001660716	-0.00158646	
0.001373056	-0.001943261	0.1047293	-0.09171261	0.0006586914	-0.002770473	0.1821769	-0.1072847	
0.08969278	-0.06611997	0.0006586914	-0.002770473	-0.06760109	-0.06430819	-0.001864486	-0.002735284	
-0.001660716	-0.00158646	0.1821769	-0.1072847	-0.001864486	-0.002735284	0.06910692	-0.0755916	

1.674e+10	-0.01323976	-0.02055984	0.001161059	-0.002485706	0.08068607	-0.05964791	-0.001718461	-0.001468742	
0.001161059	-0.002485706	0.09305662	-0.09281331	0.0002903612	-0.002969337	0.1597066	-0.1222419	
0.08068607	-0.05964791	0.0002903612	-0.002969337	-0.07582717	-0.03997913	-0.002217166	-0.002415377	
-0.001718461	-0.001468742	0.1597066	-0.1222419	-0.002217166	-0.002415377	0.05286608	-0.08059428	

1.676e+10	-0.001122215	0.002454525	0.0006189854	-0.003067062	0.07605262	-0.05168336	-0.001956711	-0.001488457	
0.0006189854	-0.003067062	0.0826339	-0.09140463	-0.0002513274	-0.003123706	0.1363748	-0.131806	
0.07605262	-0.05168336	-0.0002513274	-0.003123706	-0.07706614	-0.01424163	-0.002645774	-0.002093258	
-0.001956711	-0.001488457	0.1363748	-0.131806	-0.002645774	-0.002093258	0.03800493	-0.08207708	

1.678e+10	0.01585227	0.0197897	-0.0002930354	-0.003316078	0.07497409	-0.04474675	-0.002511926	-0.001307626	
-0.0002930354	-0.003316078	0.07330119	-0.08844237	-0.0009295344	-0.002984391	0.1125296	-0.1373228	
0.07497409	-0.04474675	-0.0009295344	-0.002984391	-0.07150564	0.01025317	-0.003181799	-0.001518322	
-0.002511926	-0.001307626	0.1125296	-0.1373228	-0.003181799	-0.001518322	0.02376629	-0.08209819	

1.68e+10	0.03482188	0.03226348	-0.00111145	-0.00300142	0.07542093	-0.03940397	-0.002993695	-0.0005911387	
-0.00111145	-0.00300142	0.06466834	-0.0837103	-0.001372253	-0.002503359	0.08739091	-0.1382441	
0.07542093	-0.03940397	-0.001372253	-0.002503359	-0.06054603	0.0319223	-0.003451429	-0.000539245	
-0.002993695	-0.0005911387	0.08739091	-0.1382441	-0.003451429	-0.000539245	0.008150496	-0.07979683	

1.682e+10	0.05593629	0.04137406	-0.001473263	-0.002517152	0.07683956	-0.03448472	-0.00291996	0.0003383674	
-0.001473263	-0.002517152	0.05742043	-0.07659092	-0.001432827	-0.002050856	0.06218766	-0.1326901	
0.07683956	-0.03448472	-0.001432827	-0.002050856	-0.04535157	0.0503857	-0.003166483	0.0004715391	
-0.00291996	0.0003383674	0.06218766	-0.1326901	-0.003166483	0.0004715391	-0.007883569	-0.07232259	

1.684e+10	0.08045725	0.04587526	-0.00155696	-0.002222743	0.08053873	-0.02985452	-0.002387484	0.00101146	
-0.00155696	-0.002222743	0.05298011	-0.06749523	-0.001315188	-0.001831626	0.04010518	-0.1203222	
0.08053873	-0.02985452	-0.001315188	-0.001831626	-0.02602599	0.0652016	-0.00248607	0.001174629	
-0.002387484	0.00101146	0.04010518	-0.1203222	-0.00248607	0.001174629	-0.02062601	-0.05909696	

1.686e+10	0.1070595	0.04267124	-0.001605869	-0.002167042	0.08703315	-0.02754837	-0.001685216	0.001281468	
-0.001605869	-0.002167042	0.05212718	-0.05800091	-0.00119669	-0.001860462	0.0237065	-0.1034997	
0.08703315	-0.02754837	-0.00119669	-0.001860462	-0.002909637	0.07485447	-0.001643003	0.001457188	
-0.001685216	0.001281468	0.0237065	-0.1034997	-0.001643003	0.001457188	-0.02730021	-0.04313464	

1.688e+10	0.1314397	0.03088699	-0.001764253	-0.002284324	0.09445727	-0.02940027	-0.001023142	0.001168726	
-0.001764253	-0.002284324	0.05422156	-0.04979295	-0.001215975	-0.002087577	0.01302348	-0.08541787	
0.09445727	-0.02940027	-0.001215975	-0.002087577	0.02210453	0.07776337	-0.0008635843	0.00131869	
-0.001023142	0.001168726	0.01302348	-0.08541787	-0.0008635843	0.00131869	-0.02877577	-0.02822855	

1.69e+10	0.1503144	0.01316667	-0.002100724	-0.002480597	0.1003004	-0.03499503	-0.0005520426	0.0007441397	
-0.002100724	-0.002480597	0.05788927	-0.04323741	-0.001449865	-0.002363186	0.006317598	-0.06718362	
0.1003004	-0.03499503	-0.001449865	-0.002363186	0.04655517	0.07383402	-0.0003144655	0.000900491	
-0.0005520426	0.0007441397	0.006317598	-0.06718362	-0.0003144655	0.000900491	-0.02803785	-0.01488917	

1.692e+10	0.1636119	-0.007417842	-0.002635913	-0.002754473	0.1035304	-0.04264677	-0.0003735703	4.606723e-05	
-0.002635913	-0.002754473	0.06270092	-0.03784899	-0.001790304	-0.002675335	0.003224337	-0.04813814	
0.1035304	-0.04264677	-0.001790304	-0.002675335	0.06871349	0.06400913	3.611059e-05	0.0002816143	
-0.0003735703	4.606723e-05	0.003224337	-0.04813814	3.611059e-05	0.0002816143	-0.02554301	-0.001083967	

1.694e+10	0.1723015	-0.02997847	-0.003685155	-0.003076899	0.1043843	-0.05134762	-0.0008209816	-0.0008442339	
-0.003685155	-0.003076899	0.06887624	-0.0337302	-0.002489663	-0.003191212	0.005074534	-0.02861554	
0.1043843	-0.05134762	-0.002489663	-0.003191212	0.08740781	0.0490911	-4.174053e-05	-0.0006498709	
-0.0008209816	-0.0008442339	0.005074534	-0.02861554	-4.174053e-05	-0.0006498709	-0.01900107	0.01340378	

1.696e+10	0.1760178	-0.05466172	-0.005402801	-0.002743369	0.1029344	-0.0607613	-0.00205338	-0.001221633	
-0.005402801	-0.002743369	0.07641905	-0.03148518	-0.003923347	-0.003365091	0.01272565	-0.01067317	
0.1029344	-0.0607613	-0.003923347	-0.003365091	0.1014316	0.03029785	-0.0009080812	-0.001374044	
-0.00205338	-0.001221633	0.01272565	-0.01067317	-0.0009080812	-0.001374044	-0.006919676	0.02584262	

1.698e+10	0.1732659	-0.08077681	-0.007044198	-0.001325922	0.09898954	-0.0708983	-0.003379727	-0.0006771765	
-0.007044198	-0.001325922	0.08471224	-0.03196954	-0.005566379	-0.002625275	0.02517919	0.002876776	
0.09898954	-0.0708983	-0.005566379	-0.002625275	0.1103501	0.008919847	-0.002081614	-0.001368926	
-0.003379727	-0.0006771765	0.02517919	0.002876776	-0.002081614	-0.001368926	0.008909546	0.03278805	

1.7e+10	0.1625242	-0.1057502	-0.008016369	0.0009218546	0.09128342	-0.08119634	-0.004336972	0.000574824	
-0.008016369	0.0009218546	0.09236037	-0.03546122	-0.006858107	-0.001061691	0.03954377	0.01099545	
0.09128342	-0.08119634	-0.006858107	-0.001061691	0.1134516	-0.01406399	-0.003134636	-0.0007277227	
-0.004336972	0.000574824	0.03954377	0.01099545	-0.003134636	-0.0007277227	0.02457349	0.03384362	

1.702e+10	0.145029	-0.1257433	-0.007893045	0.003588753	0.07946603	-0.08936956	-0.004580749	0.002326963	
-0.007893045	0.003588753	0.09833454	-0.04118264	-0.007370557	0.00108576	0.05393002	0.01481532	
0.07946603	-0.08936956	-0.007370557	0.00108576	0.1101686	-0.0367294	-0.003769709	0.0004635299	
-0.004580749	0.002326963	0.05393002	0.01481532	-0.003769709	0.0004635299	0.03825649	0.03158784	

1.704e+10	0.1243973	-0.1394881	-0.006598786	0.005887573	0.06542076	-0.09382382	-0.003874492	0.003999563	
-0.006598786	0.005887573	0.1023413	-0.0483787	-0.006877946	0.003191177	0.06821101	0.01506582	
0.06542076	-0.09382382	-0.006877946	0.003191177	0.1014476	-0.05695069	-0.003677329	0.001806283	
-0.003874492	0.003999563	0.06821101	0.01506582	-0.003677329	0.001806283	0.05121642	0.02750345	

1.706e+10	0.1027462	-0.1487557	-0.00475724	0.007300376	0.05095451	-0.0951334	-0.002613442	0.005035387	
-0.00475724	0.007300376	0.1042372	-0.05665742	-0.005780818	0.004726492	0.08223791	0.01124384	
0.05095451	-0.0951334	-0.005780818	0.004726492	0.08868344	-0.07407463	-0.003058593	0.002794837	
-0.002613442	0.005035387	0.08223791	0.01124384	-0.003058593	0.002794837	0.06437254	0.02019164	

1.708e+10	0.07888761	-0.1546855	-0.002984242	0.008011543	0.03585553	-0.09447478	-0.001367442	0.005464193	
-0.002984242	0.008011543	0.1034952	-0.0657789	-0.004587405	0.005734217	0.0943734	0.002480814	
0.03585553	-0.09447478	-0.004587405	0.005734217	0.07236268	-0.08801117	-0.002355061	0.003362126	
-0.001367442	0.005464193	0.0943734	0.002480814	-0.002355061	0.003362126	0.07570943	0.007788554	

1.71e+10	0.05165149	-0.1551164	-0.001442903	0.008471599	0.01898285	-0.09121568	-0.0003829621	0.005653845	
-0.001442903	0.008471599	0.09926063	-0.07475209	-0.00349017	0.00653102	0.1018491	-0.01031438	
0.01898285	-0.09121568	-0.00349017	0.00653102	0.052521	-0.09794715	-0.001802807	0.003759381	
-0.0003829621	0.005653845	0.1018491	-0.01031438	-0.001802807	0.003759381	0.08159956	-0.00863334	

1.712e+10	0.0231644	-0.1466518	0.0001259362	0.009030222	0.0006811242	-0.08303121	0.0004673181	0.005994011	
0.0001259362	0.009030222	0.0915211	-0.08159105	-0.002326846	0.007420435	0.1032143	-0.02400923	
0.0006811242	-0.08303121	-0.002326846	0.007420435	0.02986985	-0.1022463	-0.001341469	0.004312264	
0.0004673181	0.005994011	0.1032143	-0.02400923	-0.001341469	0.004312264	0.08053204	-0.02505981	

1.714e+10	-0.001432381	-0.128832	0.002322096	0.009645522	-0.0161262	-0.06859286	0.001704203	0.006679523	
0.002322096	0.009645522	0.0819992	-0.08457524	-0.0005992829	0.008426417	0.09992045	-0.03547203	
-0.0161262	-0.06859286	-0.0005992829	0.008426417	0.006642116	-0.0996599	-0.0005491102	0.005231461	
0.001704203	0.006679523	0.09992045	-0.03547203	-0.0005491102	0.005231461	0.07475376	-0.03786571	

1.716e+10	-0.01858494	-0.105465	0.005605701	0.009316557	-0.02849057	-0.04954662	0.004115123	0.007055751	
0.005605701	0.009316557	0.07323222	-0.08401277	0.002163292	0.008767044	0.09480943	-0.04423253	
-0.02849057	-0.04954662	0.002163292	0.008767044	-0.01455119	-0.09077512	0.001288563	0.006045091	
0.004115123	0.007055751	0.09480943	-0.04423253	0.001288563	0.006045091	0.06793786	-0.04702837	

1.718e+10	-0.02948328	-0.08065408	0.008695064	0.00673438	-0.0363724	-0.0285709	0.007117654	0.005514455	
0.008695064	0.00673438	0.06593974	-0.08189243	0.005082262	0.00726011	0.08866451	-0.05214196	
-0.0363724	-0.0285709	0.005082262	0.00726011	-0.0327671	-0.07719446	0.003885905	0.005400446	
0.007117654	0.005514455	0.08866451	-0.05214196	0.003885905	0.005400446	0.06100294	-0.05522491	

1.72e+10	-0.0361564	-0.0539894	0.009486239	0.002904399	-0.04082407	-0.005926483	0.008487625	0.002130369	
0.009486239	0.002904399	0.05939876	-0.07891074	0.006396735	0.004376657	0.08019856	-0.05938715	
-0.04082407	-0.005926483	0.006396735	0.004376657	-0.04764785	-0.05932556	0.005523852	0.003030614	
0.008487625	0.002130369	0.08019856	-0.05938715	0.005523852	0.003030614	0.05191166	-0.06290898	

1.722e+10	-0.03713822	-0.02428406	0.008158962	0.000275137	-0.04101532	0.01905608	0.007448723	-0.000809677	
0.008158962	0.000275137	0.05307206	-0.07524559	0.005737992	0.001997394	0.06886906	-0.06488303	
-0.04101532	0.01905608	0.005737992	0.001997394	-0.05786797	-0.03729336	0.005141242	0.0004916856	
0.007448723	-0.000809677	0.06886906	-0.06488303	0.005141242	0.0004916856	0.04026146	-0.06830405	

1.724e+10	-0.02966422	0.006952217	0.006888491	-0.0006162357	-0.0352692	0.04551797	0.005821783	-0.001961057	
0.006888491	-0.0006162357	0.04603238	-0.06994451	0.004635742	0.001139763	0.05447832	-0.06704991	
-0.0352692	0.04551797	0.004635742	0.001139763	-0.06190353	-0.01256066	0.003774481	-0.0006746486	
0.005821783	-0.001961057	0.05447832	-0.06704991	0.003774481	-0.0006746486	0.02685215	-0.07022318	

1.726e+10	-0.01260655	0.0355998	0.006419903	-0.00115628	-0.0222846	0.07124095	0.004860177	-0.002330171	
0.006419903	-0.00115628	0.03972822	-0.06139403	0.004150084	0.0009583513	0.03906627	-0.06396818	
-0.0222846	0.07124095	0.004150084	0.0009583513	-0.058881	0.01296738	0.002758577	-0.000850125	
0.004860177	-0.002330171	0.03906627	-0.06396818	0.002758577	-0.000850125	0.01359082	-0.06788592	

1.728e+10	0.01171382	0.05769896	0.006159144	-0.001951784	-0.002738369	0.09319778	0.00427506	-0.002710106	
0.006159144	-0.001951784	0.03616791	-0.05043878	0.004079324	0.0007439133	0.02489362	-0.05634815	
-0.002738369	0.09319778	0.004079324	0.0007439133	-0.04888532	0.03682435	0.002201319	-0.0007757251	
0.00427506	-0.002710106	0.02489362	-0.05634815	0.002201319	-0.0007757251	0.001948112	-0.06279279	

1.73e+10	0.03929606	0.07241955	0.00574401	-0.002852726	0.02097622	0.1097738	0.003723368	-0.003123169	
0.00574401	-0.002852726	0.03554505	-0.0385171	0.004115453	0.0004067003	0.01222875	-0.04526835	
0.02097622	0.1097738	0.004115453	0.0004067003	-0.03328108	0.05702226	0.001887333	-0.0006654126	
0.003723368	-0.003123169	0.01222875	-0.04526835	0.001887333	-0.0006654126	-0.009170039	-0.05600422	

1.732e+10	0.06844858	0.08139481	0.005180611	-0.003692566	0.04715308	0.1214045	0.003176233	-0.003474764	
0.005180611	-0.003692566	0.03767958	-0.02589355	0.0041746	1.589379e-06	0.001279043	-0.02995471	
0.04715308	0.1214045	0.0041746	1.589379e-06	-0.01348131	0.07288061	0.001749321	-0.0005441496	
0.003176233	-0.003474764	0.001279043	-0.02995471	0.001749321	-0.0005441496	-0.02041979	-0.04564901	

1.734e+10	0.09956522	0.08485658	0.004531481	-0.004495088	0.07540473	0.1282677	0.002672717	-0.003819306	
0.004531481	-0.004495088	0.04339602	-0.01285861	0.004251918	-0.0004964313	-0.005644776	-0.009928532	
0.07540473	0.1282677	0.004251918	-0.0004964313	0.009403029	0.08386954	0.0017816	-0.0004886608	
0.002672717	-0.003819306	-0.005644776	-0.009928532	0.0017816	-0.0004886608	-0.02900969	-0.03001943	

1.736e+10	0.1322314	0.08090774	0.003695331	-0.005321839	0.1055376	0.1294895	0.002098396	-0.004248208	
0.003695331	-0.005321839	0.05361935	-0.001017374	0.004256883	-0.001150827	-0.005706731	0.01290228	
0.1055376	0.1294895	0.004256883	-0.001150827	0.03453724	0.08934281	0.00188546	-0.0006061536	
0.002098396	-0.004248208	-0.005706731	0.01290228	0.00188546	-0.0006061536	-0.03112975	-0.01102974	

1.738e+10	0.163161	0.06827514	0.002475901	-0.006037771	0.1358641	0.1238915	0.001239805	-0.00466051	
0.002475901	-0.006037771	0.06758813	0.00716642	0.004009458	-0.001913358	0.001504888	0.03459228	
0.1358641	0.1238915	0.004009458	-0.001913358	0.06040767	0.08864404	0.001867513	-0.0008850035	
0.001239805	-0.00466051	0.001504888	0.03459228	0.001867513	-0.0008850035	-0.02623292	0.006594121	

1.74e+10	0.1889203	0.04859437	0.0008552267	-0.006223917	0.16397	0.1117689	5.003872e-05	-0.004676832	
0.0008552267	-0.006223917	0.08271063	0.01051229	0.003399007	-0.002513664	0.01336207	0.05262098	
0.16397	0.1117689	0.003399007	-0.002513664	0.08507833	0.08186698	0.001600406	-0.001092952	
5.003872e-05	-0.004676832	0.01336207	0.05262098	0.001600406	-0.001092952	-0.01779406	0.02003489	

1.742e+10	0.2083546	0.02542401	-0.0005935467	-0.005477938	0.1882429	0.09491932	-0.0009775087	-0.003929337	
-0.0005935467	-0.005477938	0.09654974	0.01026604	0.002696523	-0.002587408	0.02724465	0.06776635	
0.1882429	0.09491932	0.002696523	-0.002587408	0.1070385	0.0700814	0.001307607	-0.0009138629	
-0.0009775087	-0.003929337	0.02724465	0.06776635	0.001307607	-0.0009138629	-0.009104696	0.03091518	

1.744e+10	0.2229884	0.0008574634	-0.0009699151	-0.004317906	0.2089277	0.07502507	-0.001045868	-0.002865715	
-0.0009699151	-0.004317906	0.108963	0.008703027	0.002551566	-0.00230301	0.04343471	0.08183002	
0.2089277	0.07502507	0.002551566	-0.00230301	0.1255801	0.05455946	0.001546956	-0.0004991762	
-0.001045868	-0.002865715	0.04343471	0.08183002	0.001546956	-0.0004991762	0.0005013208	0.04205301	

1.746e+10	0.2341719	-0.02544211	-0.0005487097	-0.00399893	0.2266674	0.05237613	-0.0003832337	-0.002617696	
-0.0005487097	-0.00399893	0.1216315	0.006592435	0.00297408	-0.002503343	0.06403224	0.09451126	
0.2266674	0.05237613	0.00297408	-0.002503343	0.1407069	0.03616405	0.00232251	-0.0006069168	
-0.0003832337	-0.002617696	0.06403224	0.09451126	0.00232251	-0.0006069168	0.01400988	0.05319815	

1.748e+10	0.2410347	-0.05459365	-0.0006023983	-0.004559679	0.2412296	0.02640062	-0.0001631745	-0.003268529	
-0.0006023983	-0.004559679	0.1358186	0.002412218	0.00313261	-0.003405137	0.08997162	0.1028244	
0.2412296	0.02640062	0.00313261	-0.003405137	0.1521925	0.01530325	0.002861403	-0.001460978	
-0.0001631745	-0.003268529	0.08997162	0.1028244	0.002861403	-0.001460978	0.03245193	0.06086397	

1.75e+10	0.2414237	-0.08563017	-0.001442829	-0.005048366	0.2511942	-0.002821767	-0.000742741	-0.00393461	
-0.001442829	-0.005048366	0.1502347	-0.00588803	0.002654867	-0.00441914	0.1188201	0.103657	
0.2511942	-0.002821767	0.002654867	-0.00441914	0.1594836	-0.007503758	0.002770889	-0.002516986	
-0.000742741	-0.00393461	0.1188201	0.103657	0.002770889	-0.002516986	0.0528521	0.06203955	

1.752e+10	0.2345761	-0.1158634	-0.002585958	-0.005010202	0.2553548	-0.03401219	-0.001695334	-0.004133652	
-0.002585958	-0.005010202	0.1624451	-0.01818697	0.001769566	-0.005149116	0.1470478	0.09705594	
0.2553548	-0.03401219	0.001769566	-0.005149116	0.1620656	-0.0314554	0.002238309	-0.003370713	
-0.001695334	-0.004133652	0.1470478	0.09705594	0.002238309	-0.003370713	0.0714587	0.0576702	

1.754e+10	0.2220109	-0.1428351	-0.003620645	-0.004527394	0.2536583	-0.06526525	-0.002609791	-0.003905829	
-0.003620645	-0.004527394	0.1712764	-0.03275328	0.000749419	-0.00554428	0.1728265	0.08491382	
0.2536583	-0.06526525	0.000749419	-0.00554428	0.1598144	-0.05520329	0.001525567	-0.003947035	
-0.002609791	-0.003905829	0.1728265	0.08491382	0.001525567	-0.003947035	0.087334	0.0506726	

1.756e+10	0.2057239	-0.1664374	-0.004418202	-0.003828517	0.2469587	-0.09571954	-0.003342577	-0.003471025	
-0.004418202	-0.003828517	0.177029	-0.04845289	-0.0002729641	-0.00569316	0.196496	0.06815424	
0.2469587	-0.09571954	-0.0002729641	-0.00569316	0.1531141	-0.07783047	0.0007611814	-0.004326146	
-0.003342577	-0.003471025	0.196496	0.06815424	0.0007611814	-0.004326146	0.1021604	0.04195528	

1.758e+10	0.1863237	-0.1874654	-0.005044229	-0.003070558	0.2357116	-0.125309	-0.003961518	-0.002979801	
-0.005044229	-0.003070558	0.1799523	-0.06493588	-0.001281553	-0.005677457	0.2174725	0.04626884	
0.2357116	-0.125309	-0.001281553	-0.005677457	0.1426046	-0.09864837	-4.610623e-05	-0.004578168	
-0.003961518	-0.002979801	0.2174725	0.04626884	-4.610623e-05	-0.004578168	0.1162182	0.03016862	

1.76e+10	0.1627349	-0.2058807	-0.005593829	-0.002238505	0.2193285	-0.1539923	-0.004564548	-0.002407632	
-0.005593829	-0.002238505	0.1796323	-0.08199194	-0.002307775	-0.005503419	0.233915	0.01917953	
0.2193285	-0.1539923	-0.002307775	-0.005503419	0.1286196	-0.1174994	-0.0009331169	-0.004695378	
-0.004564548	-0.002407632	0.233915	0.01917953	-0.0009331169	-0.004695378	0.1275344	0.01453477	

1.762e+10	0.1346186	-0.219755	-0.006043988	-0.00125495	0.1970026	-0.1805006	-0.00512708	-0.001659955	
-0.006043988	-0.00125495	0.1756425	-0.09871116	-0.003338738	-0.005123568	0.2439187	-0.01150803	
0.1970026	-0.1805006	-0.003338738	-0.005123568	0.1111478	-0.1339257	-0.001885173	-0.004617173	
-0.00512708	-0.001659955	0.2439187	-0.01150803	-0.001885173	-0.004617173	0.1340712	-0.003224418	

1.764e+10	0.1033818	-0.2270187	-0.0062823	-0.0001228201	0.1688976	-0.2028899	-0.005525774	-0.0007255198	
-0.0062823	-0.0001228201	0.1682916	-0.1137707	-0.004300278	-0.004511005	0.2470524	-0.04319442	
0.1688976	-0.2028899	-0.004300278	-0.004511005	0.09036318	-0.1470788	-0.002823193	-0.004309365	
-0.005525774	-0.0007255198	0.2470524	-0.04319442	-0.002823193	-0.004309365	0.1360939	-0.0202352	

1.766e+10	0.07170264	-0.2272043	-0.006235381	0.001042326	0.1363106	-0.219581	-0.005675123	0.0002855033	
-0.006235381	0.001042326	0.1586065	-0.1264599	-0.005112335	-0.003700713	0.2444582	-0.07440261	
0.1363106	-0.219581	-0.005112335	-0.003700713	0.06671852	-0.1560344	-0.003669387	-0.003802416	
-0.005675123	0.0002855033	0.2444582	-0.07440261	-0.003669387	-0.003802416	0.1358632	-0.03552142	

1.768e+10	0.04120416	-0.2215408	-0.005961273	0.002112169	0.1009412	-0.230136	-0.005629314	0.001243866	
-0.005961273	0.002112169	0.1476384	-0.1368967	-0.005745149	-0.002776076	0.2370753	-0.1049583	
0.1009412	-0.230136	-0.005745149	-0.002776076	0.0414752	-0.1600845	-0.004400532	-0.003169096	
-0.005629314	0.001243866	0.2370753	-0.1049583	-0.004400532	-0.003169096	0.134882	-0.05031229	

1.77e+10	0.01182422	-0.211029	-0.005579621	0.003086472	0.06342732	-0.2346487	-0.005505496	0.002163124	
-0.005579621	0.003086472	0.1355294	-0.1456328	-0.006238866	-0.00176895	0.2242779	-0.1351863	
0.06342732	-0.2346487	-0.006238866	-0.00176895	0.01551754	-0.1591754	-0.005058046	-0.002424495	
-0.005505496	0.002163124	0.2242779	-0.1351863	-0.005058046	-0.002424495	0.1321505	-0.06625681	

1.772e+10	-0.01682483	-0.1948148	-0.005100614	0.004067396	0.02395458	-0.2323987	-0.005300162	0.003158277	
-0.005100614	0.004067396	0.121928	-0.1525508	-0.006601144	-0.0006472479	0.2049199	-0.163767	
0.02395458	-0.2323987	-0.006601144	-0.0006472479	-0.01052758	-0.1533591	-0.005639539	-0.001514275	
-0.005300162	0.003158277	0.2049199	-0.163767	-0.005639539	-0.001514275	0.1256693	-0.08271896	

1.774e+10	-0.04301199	-0.1713645	-0.004403699	0.005074814	-0.01630627	-0.2217312	-0.004870938	0.004256681	
-0.004403699	0.005074814	0.1068727	-0.1568753	-0.006756271	0.0006160578	0.1790981	-0.1882294	
-0.01630627	-0.2217312	-0.006756271	0.0006160578	-0.03606865	-0.1421246	-0.006053662	-0.0004020838	
-0.004870938	0.004256681	0.1790981	-0.1882294	-0.006053662	-0.0004020838	0.1150718	-0.09727765	

1.776e+10	-0.06347235	-0.1407721	-0.003390555	0.00597331	-0.05472041	-0.2015436	-0.004093349	0.005323005	
-0.003390555	0.00597331	0.09128096	-0.1578932	-0.006601815	0.001954293	0.1485229	-0.2066915	
-0.05472041	-0.2015436	-0.006601815	0.001954293	-0.05989658	-0.1247343	-0.00618202	0.0008545271	
-0.004093349	0.005323005	0.1485229	-0.2066915	-0.00618202	0.0008545271	0.1021015	-0.1084499	

1.778e+10	-0.07560799	-0.105764	-0.002134495	0.006577111	-0.08801804	-0.1726706	-0.003022977	0.006154343	
-0.002134495	0.006577111	0.07632465	-0.1558324	-0.006116113	0.003223297	0.1154625	-0.2188831	
-0.08801804	-0.1726706	-0.006116113	0.003223297	-0.0798808	-0.1012919	-0.005988907	0.002110202	
-0.003022977	0.006154343	0.1154625	-0.2188831	-0.005988907	0.002110202	0.088798	-0.1168981	

1.78e+10	-0.07934675	-0.06943837	-0.0008231582	0.006839241	-0.1142629	-0.13724	-0.001835207	0.006694612	
-0.0008231582	0.006839241	0.06245215	-0.1515353	-0.005385128	0.004318933	0.08068762	-0.2255626	
-0.1142629	-0.13724	-0.005385128	0.004318933	-0.09406133	-0.07304036	-0.005545144	0.003271556	
-0.001835207	0.006694612	0.08068762	-0.2255626	-0.005545144	0.003271556	0.07488478	-0.1243881	

1.782e+10	-0.07588573	-0.03339052	0.0004347365	0.00687547	-0.1329064	-0.09727275	-0.0006208004	0.007047611	
0.0004347365	0.00687547	0.04935093	-0.1454666	-0.00450168	0.005246638	0.04401527	-0.2265234	
-0.1329064	-0.09727275	-0.00450168	0.005246638	-0.101484	-0.04189086	-0.004915631	0.004347454	
-0.0006208004	0.007047611	0.04401527	-0.2265234	-0.004915631	0.004347454	0.05849078	-0.1308742	

1.784e+10	-0.06521533	0.002414133	0.00171511	0.00676167	-0.1434232	-0.05350963	0.0007135746	0.007265844	
0.00171511	0.00676167	0.03672144	-0.1370559	-0.003452612	0.006043266	0.005838349	-0.2200226	
-0.1434232	-0.05350963	-0.003452612	0.006043266	-0.1018854	-0.009200586	-0.004056545	0.00535788	
0.0007135746	0.007265844	0.005838349	-0.2200226	-0.004056545	0.00535788	0.03885775	-0.1338539	

1.786e+10	-0.04586397	0.03648185	0.003080673	0.006391171	-0.1441874	-0.007455605	0.002237154	0.007203924	
0.003080673	0.006391171	0.02544557	-0.1256188	-0.002192867	0.006638389	-0.03122623	-0.2046615	
-0.1441874	-0.007455605	-0.002192867	0.006638389	-0.09485723	0.02349236	-0.002903793	0.006201751	
0.002237154	0.007203924	-0.03122623	-0.2046615	-0.002903793	0.006201751	0.0180828	-0.1310887	

1.788e+10	-0.01744412	0.06528463	0.004403772	0.005609883	-0.1339232	0.03807323	0.00380849	0.006672392	
0.004403772	0.005609883	0.01700603	-0.1114601	-0.0007779164	0.006896163	-0.06405441	-0.1810849	
-0.1339232	0.03807323	-0.0007779164	0.006896163	-0.07987046	0.0545248	-0.001516276	0.00671186	
0.00380849	0.006672392	-0.06405441	-0.1810849	-0.001516276	0.00671186	-0.0006844772	-0.1229381	

1.79e+10	0.01733397	0.08522202	0.005432265	0.004454338	-0.1133389	0.07918403	0.005145155	0.005684077	
0.005432265	0.004454338	0.01221925	-0.09603777	0.0006135876	0.006764428	-0.09071978	-0.151762	
-0.1133389	0.07918403	0.0006135876	0.006764428	-0.05735522	0.08118582	-8.219085e-05	0.006814704	
0.005145155	0.005684077	-0.09071978	-0.151762	-8.219085e-05	0.006814704	-0.01622913	-0.1118891	

1.792e+10	0.05424598	0.0955562	0.006046381	0.003156673	-0.08518162	0.1134513	0.006102529	0.004464741	
0.006046381	0.003156673	0.0105297	-0.08055674	0.00183551	0.006343481	-0.1115825	-0.1184499	
-0.08518162	0.1134513	0.00183551	0.006343481	-0.02914058	0.1012916	0.001244239	0.006601365	
0.006102529	0.004464741	-0.1115825	-0.1184499	0.001244239	0.006601365	-0.03002451	-0.09919566	

1.794e+10	0.09070532	0.09798028	0.006353375	0.001908038	-0.05201672	0.1403935	0.006767589	0.003201626	
0.006353375	0.001908038	0.01122994	-0.06512283	0.002879825	0.005768722	-0.1266721	-0.08141572	
-0.05201672	0.1403935	0.002879825	0.005768722	0.002151288	0.1137997	0.002449447	0.00618912	
0.006767589	0.003201626	-0.1266721	-0.08141572	0.002449447	0.00618912	-0.04279345	-0.08358975	

1.796e+10	0.1262617	0.09383181	0.006497574	0.000688977	-0.01519347	0.1603418	0.007258754	0.001864542	
0.006497574	0.000688977	0.01467172	-0.04930016	0.003812685	0.005063096	-0.1344239	-0.04045699	
-0.01519347	0.1603418	0.003812685	0.005063096	0.03450062	0.1190621	0.003584974	0.00557646	
0.007258754	0.001864542	-0.1344239	-0.04045699	0.003584974	0.00557646	-0.05257765	-0.06339759	

1.798e+10	0.160724	0.08265058	0.006442989	-0.0006003635	0.02464013	0.1727415	0.007502566	0.0003621197	
0.006442989	-0.0006003635	0.02192	-0.03375642	0.004615789	0.004174052	-0.1324894	0.002335742	
0.02464013	0.1727415	0.004615789	0.004174052	0.06647677	0.1175212	0.004595425	0.004701714	
0.007502566	0.0003621197	-0.1324894	0.002335742	0.004595425	0.004701714	-0.05607161	-0.04011373	

1.8e+10	0.1918577	0.06380768	0.006048051	-0.001897083	0.06577471	0.1764386	0.007327898	-0.001214137	
0.006048051	-0.001897083	0.03310958	-0.02039305	0.005178997	0.003117887	-0.1204855	0.04297406	
0.06577471	0.1764386	0.005178997	0.003117887	0.09686371	0.1094807	0.005337876	0.003597326	
0.007327898	-0.001214137	-0.1204855	0.04297406	0.005337876	0.003597326	-0.05255372	-0.01772713	

1.802e+10	0.2169136	0.03864991	0.005297543	-0.002993057	0.105649	0.1714885	0.006715934	-0.002622215	
0.005297543	-0.002993057	0.04675024	-0.01062311	0.005439983	0.002023976	-0.1007726	0.07864725	
0.105649	0.1714885	0.005439983	0.002023976	0.124163	0.09541483	0.005743951	0.002418901	
0.006715934	-0.002622215	-0.1007726	0.07864725	0.005743951	0.002418901	-0.04468288	0.00112324	

1.804e+10	0.2345328	0.01032646	0.004376631	-0.003743151	0.1420496	0.159293	0.005860742	-0.003695565	
0.004376631	-0.003743151	0.06102258	-0.004273001	0.005462771	0.001023909	-0.07594295	0.1089427	
0.1420496	0.159293	0.005462771	0.001023909	0.1468698	0.07652402	0.005883184	0.001309227	
0.005860742	-0.003695565	-0.07594295	0.1089427	0.005883184	0.001309227	-0.03519163	0.01722497	

1.806e+10	0.2458156	-0.01862319	0.003485385	-0.004213856	0.1744235	0.1417198	0.004965455	-0.004497506	
0.003485385	-0.004213856	0.0754445	-0.0002757165	0.005364615	0.000134453	-0.04655477	0.1346702	
0.1744235	0.1417198	0.005364615	0.000134453	0.1643654	0.05451466	0.005871584	0.0002788175	
0.004965455	-0.004497506	-0.04655477	0.1346702	0.005871584	0.0002788175	-0.02372933	0.03257685	

1.808e+10	0.252346	-0.04751253	0.002659186	-0.004566923	0.2028666	0.1198412	0.004058466	-0.005171304	
0.002659186	-0.004566923	0.09042889	0.00153981	0.005194276	-0.000706476	-0.01228915	0.1547328	
0.2028666	0.1198412	0.005194276	-0.000706476	0.1766478	0.03113093	0.005737366	-0.0007242689	
0.004058466	-0.005171304	-0.01228915	0.1547328	0.005737366	-0.0007242689	-0.008477294	0.04632574	

1.81e+10	0.2543733	-0.07702756	0.001784651	-0.004849757	0.2274031	0.09356631	0.003030949	-0.00574069	
0.001784651	-0.004849757	0.1058795	0.0003181988	0.004903874	-0.001538003	0.02596505	0.166953	
0.2274031	0.09356631	0.004903874	-0.001538003	0.1844473	0.007256305	0.005423333	-0.001712885	
0.003030949	-0.00574069	0.02596505	0.166953	0.005423333	-0.001712885	0.01042828	0.05573378	

1.812e+10	0.2507279	-0.1067067	0.0008183857	-0.004955275	0.2467527	0.06304784	0.001866812	-0.006081004	
0.0008183857	-0.004955275	0.1203689	-0.004418357	0.004448106	-0.002304005	0.06486398	0.1699955	
0.2467527	0.06304784	0.004448106	-0.002304005	0.1881818	-0.01668487	0.004903863	-0.002598325	
0.001866812	-0.006081004	0.06486398	0.1699955	0.004903863	-0.002598325	0.02974373	0.05924698	

1.814e+10	0.2408939	-0.1344821	-0.0001259805	-0.004788643	0.259659	0.02959359	0.0006972095	-0.006109849	
-0.0001259805	-0.004788643	0.1324249	-0.01169142	0.003859035	-0.002930972	0.1014692	0.1653364	
0.259659	0.02959359	0.003859035	-0.002930972	0.1878433	-0.04031126	0.00424625	-0.003304901	
0.0006972095	-0.006109849	0.1014692	0.1653364	0.00424625	-0.003304901	0.04672598	0.05882686	

1.816e+10	0.2261103	-0.1583595	-0.0008835965	-0.00440995	0.2657851	-0.004886161	-0.0003219856	-0.005901423	
-0.0008835965	-0.00440995	0.1419809	-0.01976488	0.003214573	-0.003394566	0.1348395	0.1553012	
0.2657851	-0.004886161	0.003214573	-0.003394566	0.1833757	-0.06276567	0.003554345	-0.003836059	
-0.0003219856	-0.005901423	0.1348395	0.1553012	0.003554345	-0.003836059	0.06141132	0.05734117	

1.818e+10	0.208646	-0.1777727	-0.001412816	-0.004009676	0.2658527	-0.03894437	-0.001178197	-0.005615226	
-0.001412816	-0.004009676	0.1501451	-0.02787112	0.002569026	-0.003737398	0.1658264	0.1408949	
0.2658527	-0.03894437	0.002569026	-0.003737398	0.1753603	-0.08318469	0.002858946	-0.00427274	
-0.001178197	-0.005615226	0.1658264	0.1408949	0.002858946	-0.00427274	0.07619714	0.05548654	

1.82e+10	0.1897099	-0.1939149	-0.001868962	-0.003714401	0.2606978	-0.07212152	-0.001990385	-0.005315042	
-0.001868962	-0.003714401	0.1576807	-0.03663252	0.001915701	-0.004011664	0.1943217	0.1213691	
0.2606978	-0.07212152	0.001915701	-0.004011664	0.1648059	-0.1009378	0.002110398	-0.004654289	
-0.001990385	-0.005315042	0.1943217	0.1213691	0.002110398	-0.004654289	0.09187909	0.05129899	

1.822e+10	0.1687962	-0.2075704	-0.002425669	-0.003429701	0.250186	-0.1044653	-0.00283575	-0.004911663	
-0.002425669	-0.003429701	0.1640485	-0.04667781	0.001193549	-0.004215386	0.2185285	0.09648282	
0.250186	-0.1044653	0.001193549	-0.004215386	0.1525689	-0.1165127	0.001247155	-0.004927625	
-0.00283575	-0.004911663	0.2185285	0.09648282	0.001247155	-0.004927625	0.1066415	0.04346748	

1.824e+10	0.1449218	-0.2178855	-0.00305618	-0.00294514	0.2335004	-0.1351051	-0.003644531	-0.004297484	
-0.00305618	-0.00294514	0.168335	-0.0576405	0.0003925559	-0.004254227	0.2364297	0.06783979	
0.2335004	-0.1351051	0.0003925559	-0.004254227	0.1386981	-0.1302371	0.0003036494	-0.004998986	
-0.003644531	-0.004297484	0.2364297	0.06783979	0.0003036494	-0.004998986	0.1183229	0.03322788	

1.826e+10	0.118815	-0.2229233	-0.00354124	-0.002200799	0.2104429	-0.162057	-0.004271357	-0.00349482	
-0.00354124	-0.002200799	0.1703655	-0.06828278	-0.0003786319	-0.004061489	0.2477805	0.03814858	
0.2104429	-0.162057	-0.0003786319	-0.004061489	0.122686	-0.1420279	-0.0006253466	-0.004816877	
-0.004271357	-0.00349482	0.2477805	0.03814858	-0.0006253466	-0.004816877	0.1270627	0.02312557	

1.828e+10	0.09261313	-0.2218228	-0.003719653	-0.001362672	0.1823356	-0.1834208	-0.004664211	-0.002639958	
-0.003719653	-0.001362672	0.1710957	-0.07783942	-0.000996082	-0.003699344	0.2541635	0.008921331	
0.1823356	-0.1834208	-0.000996082	-0.003699344	0.104529	-0.1509027	-0.001404056	-0.00442079	
-0.004664211	-0.002639958	0.2541635	0.008921331	-0.001404056	-0.00442079	0.1350562	0.01409799	

1.83e+10	0.06841575	-0.2156999	-0.003659418	-0.0006419619	0.1512556	-0.1984364	-0.00490802	-0.001829178	
-0.003659418	-0.0006419619	0.1715604	-0.08673659	-0.001439975	-0.003286587	0.2567748	-0.02009634	
0.1512556	-0.1984364	-0.001439975	-0.003286587	0.08519182	-0.1560843	-0.001988548	-0.003943494	
-0.00490802	-0.001829178	0.2567748	-0.02009634	-0.001988548	-0.003943494	0.1438909	0.004460114	

1.832e+10	0.04642246	-0.2063117	-0.003535964	-5.554736e-05	0.1185178	-0.2075901	-0.005087671	-0.001024006	
-0.003535964	-5.554736e-05	0.1716846	-0.09595523	-0.001765268	-0.002890839	0.255137	-0.04952892	
0.1185178	-0.2075901	-0.001765268	-0.002890839	0.0657773	-0.1578645	-0.002440176	-0.003473308	
-0.005087671	-0.001024006	0.255137	-0.04952892	-0.002440176	-0.003473308	0.1524653	-0.007902318	

1.834e+10	0.0254853	-0.1937107	-0.003390177	0.0005145319	0.08415357	-0.2109219	-0.005176231	-0.000142777	
-0.003390177	0.0005145319	0.1706579	-0.1055857	-0.002028947	-0.002512706	0.2480807	-0.07838619	
0.08415357	-0.2109219	-0.002028947	-0.002512706	0.04642942	-0.1568838	-0.002837527	-0.003009005	
-0.005176231	-0.000142777	0.2480807	-0.07838619	-0.002837527	-0.003009005	0.1584402	-0.02264305	

1.836e+10	0.00602499	-0.176237	-0.003118459	0.001102467	0.04866937	-0.2071289	-0.005062075	0.0008044711	
-0.003118459	0.001102467	0.1680814	-0.1148982	-0.002238115	-0.002119442	0.2356729	-0.104618	
0.04866937	-0.2071289	-0.002238115	-0.002119442	0.02677207	-0.1529242	-0.003187298	-0.002494672	
-0.005062075	0.0008044711	0.2356729	-0.104618	-0.003187298	-0.002494672	0.1610959	-0.0376631	

1.838e+10	-0.009315529	-0.1530968	-0.002655683	0.001581849	0.01416308	-0.1947256	-0.004683469	0.00168246	
-0.002655683	0.001581849	0.1645556	-0.1231257	-0.002347249	-0.001726119	0.2196747	-0.1267322	
0.01416308	-0.1947256	-0.002347249	-0.001726119	0.006991369	-0.1447613	-0.003430109	-0.001930401	
-0.004683469	0.00168246	0.2196747	-0.1267322	-0.003430109	-0.001930401	0.1619164	-0.05156826	

1.84e+10	-0.0175961	-0.1264516	-0.002122104	0.00181437	-0.01585558	-0.1741899	-0.004148299	0.002344128	
-0.002122104	0.00181437	0.1609958	-0.1306372	-0.002375003	-0.001414662	0.2020667	-0.1451568	
-0.01585558	-0.1741899	-0.002375003	-0.001414662	-0.0110198	-0.1315894	-0.003562148	-0.001394556	
-0.004148299	0.002344128	0.2020667	-0.1451568	-0.003562148	-0.001394556	0.1625683	-0.06531909	

1.842e+10	-0.01857572	-0.09983659	-0.001717409	0.00185139	-0.03916553	-0.1480263	-0.003633594	0.002823586	
-0.001717409	0.00185139	0.1573503	-0.1385424	-0.002429953	-0.001203597	0.1830872	-0.1612768	
-0.03916553	-0.1480263	-0.002429953	-0.001203597	-0.02510409	-0.114275	-0.003664116	-0.0009040628	
-0.003633594	0.002823586	0.1830872	-0.1612768	-0.003664116	-0.0009040628	0.1623439	-0.08100184	

1.844e+10	-0.01439033	-0.07515165	-0.00148302	0.001899545	-0.05575489	-0.118808	-0.003170004	0.003282635	
-0.00148302	0.001899545	0.1524646	-0.1471459	-0.002582392	-0.0009850868	0.16169	-0.1750929	
-0.05575489	-0.118808	-0.002582392	-0.0009850868	-0.03452063	-0.09489619	-0.003769902	-0.0003789446	
-0.003170004	0.003282635	0.16169	-0.1750929	-0.003769902	-0.0003789446	0.1586691	-0.09852479	

1.846e+10	-0.006367888	-0.05166102	-0.001251657	0.002066731	-0.06622056	-0.08749577	-0.002610476	0.003786927	
-0.001251657	0.002066731	0.14542	-0.1554699	-0.00275429	-0.0006480418	0.1376301	-0.1850626	
-0.06622056	-0.08749577	-0.00275429	-0.0006480418	-0.03989579	-0.07474957	-0.003797608	0.0002402561	
-0.002610476	0.003786927	0.1376301	-0.1850626	-0.003797608	0.0002402561	0.1502439	-0.1154696	

1.848e+10	0.006893125	-0.02884274	-0.0008742533	0.002235424	-0.06970838	-0.05412984	-0.001844709	0.004200372	
-0.0008742533	0.002235424	0.1366917	-0.1622175	-0.002812231	-0.0002247848	0.1125925	-0.1898311	
-0.06970838	-0.05412984	-0.002812231	-0.0002247848	-0.0415712	-0.05370931	-0.003642532	0.0008879536	
-0.001844709	0.004200372	0.1125925	-0.1898311	-0.003642532	0.0008879536	0.1385316	-0.1293909	

1.85e+10	0.02687083	-0.009419509	-0.0004207957	0.002229131	-0.06451377	-0.02080008	-0.0009644127	0.004346594	
-0.0004207957	0.002229131	0.1274005	-0.1672674	-0.002741372	0.0001523066	0.08873101	-0.1900244	
-0.06451377	-0.02080008	-0.002741372	0.0001523066	-0.03846133	-0.03218149	-0.003318858	0.001425894	
-0.0009644127	0.004346594	0.08873101	-0.1900244	-0.003318858	0.001425894	0.1258774	-0.1405392	

1.852e+10	0.0518418	0.002920553	-8.69126e-05	0.002055664	-0.05070962	0.008832006	-0.0001826216	0.00423016	
-8.69126e-05	0.002055664	0.1180073	-0.1715028	-0.00265839	0.0004253292	0.06674569	-0.1875576	
-0.05070962	0.008832006	-0.00265839	0.0004253292	-0.02977687	-0.01206692	-0.00295933	0.001801424	
-0.0001826216	0.00423016	0.06674569	-0.1875576	-0.00295933	0.001801424	0.1127198	-0.1508348	

1.854e+10	0.07733818	0.007018592	6.70858e-05	0.001907721	-0.03117447	0.03195683	0.0004214316	0.004036761	
6.70858e-05	0.001907721	0.1075387	-0.1753978	-0.002650265	0.0006903424	0.04529266	-0.1833897	
-0.03117447	0.03195683	-0.002650265	0.0006903424	-0.01661599	0.004226099	-0.002652056	0.002108029	
0.0004214316	0.004036761	0.04529266	-0.1833897	-0.002652056	0.002108029	0.09686407	-0.1608335	

1.856e+10	0.1002889	0.005507119	0.000204668	0.00190725	-0.009262622	0.04869487	0.0009800933	0.003884979	
0.000204668	0.00190725	0.09512292	-0.1779177	-0.002647302	0.001062599	0.02351742	-0.1763488	
-0.009262622	0.04869487	-0.002647302	0.001062599	-0.001535044	0.0157775	-0.002343804	0.002444097	
0.0009800933	0.003884979	0.02351742	-0.1763488	-0.002343804	0.002444097	0.07697789	-0.1681033	

1.858e+10	0.1212154	0.001050722	0.0004924811	0.001936457	0.01391668	0.0605739	0.001626657	0.003674223	
0.0004924811	0.001936457	0.08131579	-0.1774454	-0.002512364	0.001508984	0.002611705	-0.1649693	
0.01391668	0.0605739	-0.002512364	0.001508984	0.01370618	0.02381557	-0.001928382	0.002772512	
0.001626657	0.003674223	0.002611705	-0.1649693	-0.001928382	0.002772512	0.05471061	-0.1697722	

1.86e+10	0.1416226	-0.006679247	0.0008722908	0.00179753	0.03865054	0.06769297	0.002285996	0.003238566	
0.0008722908	0.00179753	0.06790884	-0.1736218	-0.002224932	0.00188688	-0.01516858	-0.1497738	
0.03865054	0.06769297	-0.002224932	0.00188688	0.02914958	0.02941945	-0.001415856	0.002973744	
0.002285996	0.003238566	-0.01516858	-0.1497738	-0.001415856	0.002973744	0.03354751	-0.1657797	

1.862e+10	0.1605413	-0.01957292	0.001131751	0.001472904	0.06438012	0.06865145	0.00274916	0.002585428	
0.001131751	0.001472904	0.05591615	-0.167514	-0.001907463	0.002125903	-0.02907558	-0.1329068	
0.06438012	0.06865145	-0.001907463	0.002125903	0.04527783	0.03234288	-0.0009334536	0.003006212	
0.00274916	0.002585428	-0.02907558	-0.1329068	-0.0009334536	0.003006212	0.01489094	-0.1586527	

1.864e+10	0.1746921	-0.03725305	0.001177876	0.001158466	0.08837225	0.06282842	0.002927746	0.001924999	
0.001177876	0.001158466	0.04489215	-0.160095	-0.001663088	0.002313579	-0.04049348	-0.1158256	
0.08837225	0.06282842	-0.001663088	0.002313579	0.06121797	0.03172696	-0.0005747744	0.00297916	
0.002927746	0.001924999	-0.04049348	-0.1158256	-0.0005747744	0.00297916	-0.002778459	-0.1500243	

1.866e+10	0.1823244	-0.05643884	0.001152065	0.001004975	0.1081422	0.05191985	0.002963933	0.001415057	
0.001152065	0.001004975	0.03402851	-0.1507265	-0.001438288	0.002570352	-0.05087116	-0.09759779	
0.1081422	0.05191985	-0.001438288	0.002570352	0.07534697	0.02788963	-0.0002761341	0.003012069	
0.002963933	0.001415057	-0.05087116	-0.09759779	-0.0002761341	0.003012069	-0.02104192	-0.1382681	

1.868e+10	0.1849801	-0.07377714	0.001237765	0.0009351302	0.1232138	0.038705	0.003035369	0.0009905285	
0.001237765	0.0009351302	0.02413132	-0.1381381	-0.001100397	0.002880147	-0.05924376	-0.07654198	
0.1232138	0.038705	-0.001100397	0.002880147	0.08680709	0.02254523	9.158514e-05	0.003087642	
0.003035369	0.0009905285	-0.05924376	-0.07654198	9.158514e-05	0.003087642	-0.03816268	-0.1207426	

1.87e+10	0.1856827	-0.08897618	0.001415363	0.0007534178	0.1349842	0.02466954	0.003121839	0.0004818078	
0.001415363	0.0007534178	0.01724477	-0.1223002	-0.0006143845	0.003105713	-0.06323299	-0.05309641	
0.1349842	0.02466954	-0.0006143845	0.003105713	0.09638361	0.0172779	0.0005493223	0.003082943	
0.003121839	0.0004818078	-0.06323299	-0.05309641	0.0005493223	0.003082943	-0.05020681	-0.09798615	

1.872e+10	0.1852391	-0.1041896	0.001484093	0.000424828	0.1443019	0.009123208	0.003041162	-0.0001266968	
0.001484093	0.000424828	0.01469156	-0.1051082	-9.6044e-05	0.003163442	-0.06197227	-0.02981192	
0.1443019	0.009123208	-9.6044e-05	0.003163442	0.1055835	0.01206014	0.0009838913	0.002938666	
0.003041162	-0.0001266968	-0.06197227	-0.02981192	0.0009838913	0.002938666	-0.05545746	-0.07356781	

1.874e+10	0.1816416	-0.120071	0.001345371	0.0001386817	0.1500293	-0.00832411	0.002716866	-0.0006394367	
0.001345371	0.0001386817	0.01582697	-0.08836074	0.0003409669	0.003127468	-0.05710768	-0.008595949	
0.1500293	-0.00832411	0.0003409669	0.003127468	0.1146239	0.005789347	0.001306396	0.002750519	
0.002716866	-0.0006394367	-0.05710768	-0.008595949	0.001306396	0.002750519	-0.05578164	-0.05052651	

1.876e+10	0.1734193	-0.1343627	0.001144157	6.133648e-05	0.150685	-0.02639929	0.002308528	-0.0008945849	
0.001144157	6.133648e-05	0.01942816	-0.07215416	0.0007359824	0.00311853	-0.05048913	0.01123016	
0.150685	-0.02639929	0.0007359824	0.00311853	0.1225349	-0.001925723	0.001581927	0.002627779	
0.002308528	-0.0008945849	-0.05048913	0.01123016	0.001581927	0.002627779	-0.0536418	-0.02809096	

1.878e+10	0.1621742	-0.1441673	0.00109698	0.0001216039	0.1464449	-0.0424381	0.002035248	-0.0009663198	
0.00109698	0.0001216039	0.02567178	-0.05578112	0.00121487	0.003127103	-0.04162892	0.03117642	
0.1464449	-0.0424381	0.00121487	0.003127103	0.128505	-0.01008288	0.001939594	0.002544055	
0.002035248	-0.0009663198	-0.04162892	0.03117642	0.001939594	0.002544055	-0.04824126	-0.004305417	

1.88e+10	0.1513417	-0.1492848	0.001219348	9.699272e-05	0.13946	-0.05496288	0.001916681	-0.001070363	
0.001219348	9.699272e-05	0.03593503	-0.03967671	0.001812841	0.003016001	-0.02853953	0.05077376	
0.13946	-0.05496288	0.001812841	0.003016001	0.1332591	-0.01747527	0.002405065	0.002362626	
0.001916681	-0.001070363	-0.02853953	0.05077376	0.002405065	0.002362626	-0.0365639	0.02007625	

1.882e+10	0.1426068	-0.1524463	0.001314175	-0.0001029316	0.1317132	-0.06477664	0.001775101	-0.001287226	
0.001314175	-0.0001029316	0.05060922	-0.02593819	0.002408402	0.002686094	-0.01084467	0.0673667	
0.1317132	-0.06477664	0.002408402	0.002686094	0.1382935	-0.02428757	0.002857859	0.002001615	
0.001775101	-0.001287226	-0.01084467	0.0673667	0.002857859	0.002001615	-0.01787743	0.04101735	

1.884e+10	0.1343341	-0.1556989	0.001242876	-0.0003255293	0.1231827	-0.0731987	0.001498179	-0.001472976	
0.001242876	-0.0003255293	0.06824126	-0.01639462	0.002857749	0.002203466	0.009298639	0.07914362	
0.1231827	-0.0731987	0.002857749	0.002203466	0.1440171	-0.03195682	0.003182362	0.001534031	
0.001498179	-0.001472976	0.009298639	0.07914362	0.003182362	0.001534031	0.004822628	0.05559221	

1.886e+10	0.1243945	-0.1577937	0.001113115	-0.0004023487	0.1126751	-0.07997047	0.001206564	-0.001482191	
0.001113115	-0.0004023487	0.08665914	-0.01101199	0.003164305	0.001706012	0.02944185	0.08694222	
0.1126751	-0.07997047	0.003164305	0.001706012	0.1492042	-0.04150701	0.003403983	0.001076342	
0.001206564	-0.001482191	0.02944185	0.08694222	0.003403983	0.001076342	0.02782372	0.06457802	

1.888e+10	0.1137974	-0.1560552	0.001116032	-0.0003944845	0.1004748	-0.08316727	0.001087533	-0.001397753	
0.001116032	-0.0003944845	0.1051963	-0.008633921	0.003434312	0.00121919	0.04955606	0.09260398	
0.1004748	-0.08316727	0.003434312	0.00121919	0.1525268	-0.05213239	0.003627846	0.0006227001	
0.001087533	-0.001397753	0.04955606	0.09260398	0.003627846	0.0006227001	0.05072257	0.07061132	

1.89e+10	0.1059833	-0.1503746	0.001248788	-0.0005118089	0.08890083	-0.08190614	0.001127883	-0.00143958	
0.001248788	-0.0005118089	0.1243053	-0.008991001	0.003695655	0.0006448953	0.07101465	0.09618479	
0.08890083	-0.08190614	0.003695655	0.0006448953	0.1542431	-0.0625407	0.003859207	6.171266e-05	
0.001127883	-0.00143958	0.07101465	0.09618479	0.003859207	6.171266e-05	0.07533719	0.07394066	

1.892e+10	0.1027871	-0.1440597	0.00130077	-0.0008281074	0.08024509	-0.07767334	0.001113569	-0.001682101	
0.00130077	-0.0008281074	0.1439955	-0.01309878	0.003838353	-7.574416e-05	0.09401501	0.09590447	
0.08024509	-0.07767334	0.003838353	-7.574416e-05	0.1556352	-0.0725871	0.003972834	-0.0006539732	
0.001113569	-0.001682101	0.09401501	0.09590447	0.003972834	-0.0006539732	0.1020513	0.07204533	

1.894e+10	0.1021663	-0.1401923	0.001121576	-0.001172146	0.07447414	-0.07300689	0.000897348	-0.001962693	
0.001121576	-0.001172146	0.16272	-0.02169616	0.003741969	-0.0008468584	0.1165257	0.09067684	
0.07447414	-0.07300689	0.003741969	-0.0008468584	0.1570109	-0.08370577	0.003858922	-0.001422331	
0.000897348	-0.001962693	0.1165257	0.09067684	0.003858922	-0.001422331	0.1278213	0.06321765	

1.896e+10	0.1008726	-0.1381282	0.0008042923	-0.001342279	0.06978104	-0.06865029	0.0005652211	-0.002099756	
0.0008042923	-0.001342279	0.1787313	-0.03407219	0.003430954	-0.001509656	0.1365266	0.08163183	
0.06978104	-0.06865029	0.003430954	-0.001509656	0.1569792	-0.09677075	0.003549647	-0.002102518	
0.0005652211	-0.002099756	0.1365266	0.08163183	0.003549647	-0.002102518	0.1494165	0.04901297	

1.898e+10	0.0987847	-0.1349722	0.000553689	-0.001348558	0.06550203	-0.06331425	0.0002964651	-0.002113206	
0.000553689	-0.001348558	0.1913499	-0.04849715	0.003039742	-0.00201219	0.1538749	0.0708201	
0.06550203	-0.06331425	0.003039742	-0.00201219	0.1538628	-0.1108755	0.003159584	-0.002663256	
0.0002964651	-0.002113206	0.1538749	0.0708201	0.003159584	-0.002663256	0.1662279	0.03278438	

1.9e+10	0.09880439	-0.1301181	0.0004201198	-0.001366894	0.06314326	-0.0562329	0.000112823	-0.002167265	
0.0004201198	-0.001366894	0.2012938	-0.06392376	0.002647152	-0.002431965	0.1699772	0.05882998	
0.06314326	-0.0562329	0.002647152	-0.002431965	0.1476107	-0.1241677	0.002731664	-0.003179892	
0.000112823	-0.002167265	0.1699772	0.05882998	0.002731664	-0.003179892	0.180322	0.01599497	

1.902e+10	0.1023772	-0.1266195	0.0002591499	-0.001479373	0.06430978	-0.04904593	-0.0001420158	-0.002317954	
0.0002591499	-0.001479373	0.2091098	-0.08044565	0.002206347	-0.002835913	0.1853843	0.04454105	
0.06430978	-0.04904593	0.002206347	-0.002835913	0.1395784	-0.1359143	0.002198934	-0.003686844	
-0.0001420158	-0.002317954	0.1853843	0.04454105	0.002198934	-0.003686844	0.1928729	-0.002571643	

1.904e+10	0.1069548	-0.1272651	-4.484544e-05	-0.001565358	0.0681891	-0.04420135	-0.000574077	-0.002420966	
-4.484544e-05	-0.001565358	0.2142935	-0.09848245	0.001644186	-0.003176162	0.198848	0.02705425	
0.0681891	-0.04420135	0.001644186	-0.003176162	0.1303446	-0.1470327	0.001498756	-0.00410442	
-0.000574077	-0.002420966	0.198848	0.02705425	0.001498756	-0.00410442	0.2024301	-0.02427164	

1.906e+10	0.1087882	-0.1309197	-0.0004067212	-0.001467584	0.07229699	-0.04230113	-0.001087229	-0.002312575	
-0.0004067212	-0.001467584	0.2158754	-0.1173718	0.0009930609	-0.003348654	0.2087357	0.007204589	
0.07229699	-0.04230113	0.0009930609	-0.003348654	0.1189257	-0.1579803	0.0006832565	-0.004321723	
-0.001087229	-0.002312575	0.2087357	0.007204589	0.0006832565	-0.004321723	0.2066823	-0.04776576	

1.908e+10	0.1073804	-0.1338507	-0.0006378024	-0.001200037	0.0752416	-0.0415733	-0.001491783	-0.002000651	
-0.0006378024	-0.001200037	0.2136213	-0.1357408	0.0003712254	-0.00332474	0.2148596	-0.01328555	
0.0752416	-0.0415733	0.0003712254	-0.00332474	0.1040585	-0.1675809	-0.0001284913	-0.004314087	
-0.001491783	-0.002000651	0.2148596	-0.01328555	-0.0001284913	-0.004314087	0.2054163	-0.07022961	

1.91e+10	0.1057045	-0.1344665	-0.0006638534	-0.0009424683	0.07806917	-0.04058657	-0.001706127	-0.001644713	
-0.0006638534	-0.0009424683	0.2084072	-0.1523412	-0.0001341228	-0.003192084	0.2183204	-0.03346271	
0.07806917	-0.04058657	-0.0001341228	-0.003192084	0.08628267	-0.1736783	-0.0008534965	-0.004150554	
-0.001706127	-0.001644713	0.2183204	-0.03346271	-0.0008534965	-0.004150554	0.2007844	-0.08977316	

1.912e+10	0.1058324	-0.1350653	-0.0006108548	-0.0008334058	0.08233009	-0.04019243	-0.001828303	-0.001365756	
-0.0006108548	-0.0008334058	0.2013651	-0.1672122	-0.0005539689	-0.003051321	0.2200249	-0.05402294	
0.08233009	-0.04019243	-0.0005539689	-0.003051321	0.06758595	-0.1753991	-0.001506044	-0.003900976	
-0.001828303	-0.001365756	0.2200249	-0.05402294	-0.001506044	-0.003900976	0.1949359	-0.1073087	

1.914e+10	0.1059533	-0.1382608	-0.0006392006	-0.0008140317	0.08737981	-0.04247648	-0.001970238	-0.001112439	
-0.0006392006	-0.0008140317	0.1928416	-0.1808561	-0.0009732365	-0.002907011	0.219249	-0.07579322	
0.08737981	-0.04247648	-0.0009732365	-0.002907011	0.04967208	-0.1737076	-0.002117484	-0.003556344	
-0.001970238	-0.001112439	0.219249	-0.07579322	-0.002117484	-0.003556344	0.1876967	-0.124493	

1.916e+10	0.1026925	-0.1430698	-0.0007381667	-0.0007317529	0.09077019	-0.0478496	-0.002085879	-0.0007852769	
-0.0007381667	-0.0007317529	0.1823004	-0.1934052	-0.001407522	-0.002686628	0.2145892	-0.09834174	
0.09077019	-0.0478496	-0.001407522	-0.002686628	0.03230019	-0.1699681	-0.002638922	-0.003076709	
-0.002085879	-0.0007852769	0.2145892	-0.09834174	-0.002638922	-0.003076709	0.1772636	-0.1412849	

1.918e+10	0.09537378	-0.1457242	-0.000764142	-0.0005633741	0.09069397	-0.05444274	-0.002053826	-0.0004384278	
-0.000764142	-0.0005633741	0.169523	-0.2039306	-0.001798181	-0.002347675	0.2056107	-0.1199471	
0.09069397	-0.05444274	-0.001798181	-0.002347675	0.01446332	-0.1641942	-0.002969376	-0.002530713	
-0.002053826	-0.0004384278	0.2056107	-0.1199471	-0.002969376	-0.002530713	0.1631569	-0.1555297	

1.92e+10	0.08678513	-0.1438483	-0.000661404	-0.0004525337	0.0873778	-0.05993865	-0.001910587	-0.0002423797	
-0.000661404	-0.0004525337	0.155232	-0.2115084	-0.002015904	-0.001964492	0.1932797	-0.1393567	
0.0873778	-0.05993865	-0.002015904	-0.001964492	-0.004418517	-0.154987	-0.003149339	-0.002090832	
-0.001910587	-0.0002423797	0.1932797	-0.1393567	-0.003149339	-0.002090832	0.1472064	-0.1654533	

1.922e+10	0.08010522	-0.1382722	-0.0005339212	-0.0004961502	0.08237784	-0.06308747	-0.001863007	-0.000230399	
-0.0005339212	-0.0004961502	0.1408058	-0.2160698	-0.002170513	-0.001628483	0.1787991	-0.1565819	
0.08237784	-0.06308747	-0.002170513	-0.001628483	-0.02319873	-0.1405584	-0.003370558	-0.001780855	
-0.001863007	-0.000230399	0.1787991	-0.1565819	-0.003370558	-0.001780855	0.1318421	-0.1717641	

1.924e+10	0.07599444	-0.1315467	-0.000539694	-0.0006600821	0.07722776	-0.06425017	-0.002039749	-0.0002057516	
-0.000539694	-0.0006600821	0.1268932	-0.2185417	-0.002302565	-0.001341201	0.1622647	-0.1724382	
0.07722776	-0.06425017	-0.002302565	-0.001341201	-0.03924071	-0.1202703	-0.003748682	-0.001431483	
-0.002039749	-0.0002057516	0.1622647	-0.1724382	-0.003748682	-0.001431483	0.1175993	-0.1766331	

1.926e+10	0.07263482	-0.124559	-0.0007171937	-0.0007696345	0.07180709	-0.06429321	-0.002326317	4.22306e-05	
-0.0007171937	-0.0007696345	0.1131132	-0.2196228	-0.002468603	-0.001045318	0.1426184	-0.1868004	
0.07180709	-0.06429321	-0.002468603	-0.001045318	-0.0504521	-0.09585306	-0.004186422	-0.0008563036	
-0.002326317	4.22306e-05	0.1426184	-0.1868004	-0.004186422	-0.0008563036	0.1026434	-0.1810822	

1.928e+10	0.06950098	-0.1152449	-0.0009215609	-0.0007244159	0.06564239	-0.06236855	-0.002484903	0.0005295424	
-0.0009215609	-0.0007244159	0.09879608	-0.2189415	-0.002618601	-0.0006592048	0.119355	-0.198068	
0.06564239	-0.06236855	-0.002618601	-0.0006592048	-0.05666462	-0.06864199	-0.004482026	-2.58149e-05	
-0.002484903	0.0005295424	0.119355	-0.198068	-0.004482026	-2.58149e-05	0.0856868	-0.1835217	

1.93e+10	0.06943937	-0.1024075	-0.001017633	-0.0006199473	0.06010879	-0.05724883	-0.002372656	0.001071295	
-0.001017633	-0.0006199473	0.08436069	-0.2155067	-0.002647849	-0.0002079252	0.0936257	-0.2045623	
0.06010879	-0.05724883	-0.002647849	-0.0002079252	-0.05739156	-0.03903256	-0.004482266	0.0009372106	
-0.002372656	0.001071295	0.0936257	-0.2045623	-0.004482266	0.0009372106	0.06781022	-0.1818697	

1.932e+10	0.07538065	-0.08876012	-0.001054374	-0.0006099703	0.05757139	-0.04977149	-0.002064762	0.001456529	
-0.001054374	-0.0006099703	0.07106977	-0.209113	-0.002534938	0.000195943	0.06734844	-0.2060528	
0.05757139	-0.04977149	-0.002534938	0.000195943	-0.05096707	-0.007717143	-0.004169328	0.001843241	
-0.002064762	0.001456529	0.06734844	-0.2060528	-0.004169328	0.001843241	0.05167671	-0.1762295	

1.934e+10	0.08641132	-0.07837499	-0.001199342	-0.0006932781	0.05853474	-0.04247025	-0.00175945	0.001654547	
-0.001199342	-0.0006932781	0.05990935	-0.2007827	-0.002371472	0.0004842059	0.04152194	-0.2034869	
0.05853474	-0.04247025	-0.002371472	0.0004842059	-0.03618317	0.02252204	-0.003653905	0.002574682	
-0.00175945	0.001654547	0.04152194	-0.2034869	-0.003653905	0.002574682	0.03824986	-0.1689031	

1.936e+10	0.09888014	-0.07234548	-0.001511877	-0.0007043573	0.06133182	-0.03680964	-0.001544795	0.001810001	
-0.001511877	-0.0007043573	0.05044333	-0.19157	-0.002241874	0.0007072905	0.01574981	-0.1974328	
0.06133182	-0.03680964	-0.002241874	0.0007072905	-0.01387686	0.04868285	-0.003045506	0.003140524	
-0.001544795	0.001810001	0.01574981	-0.1974328	-0.003045506	0.003140524	0.02592471	-0.1614924	

1.938e+10	0.1110073	-0.06834556	-0.001857964	-0.0005271521	0.06446929	-0.03192293	-0.001311625	0.002018954	
-0.001857964	-0.0005271521	0.04186964	-0.1814007	-0.002124979	0.0009390002	-0.0102714	-0.1868178	
0.06446929	-0.03192293	-0.002124979	0.0009390002	0.01366128	0.06911479	-0.002353373	0.003579945	
-0.001311625	0.002018954	-0.0102714	-0.1868178	-0.002353373	0.003579945	0.01272736	-0.1526202	

1.94e+10	0.1247139	-0.06476985	-0.002095434	-0.0002457862	0.06886188	-0.02665585	-0.0009540632	0.002173417	
-0.002095434	-0.0002457862	0.03431644	-0.1691542	-0.001957327	0.00115756	-0.03503245	-0.1702123	
0.06886188	-0.02665585	-0.001957327	0.00115756	0.04494918	0.08385447	-0.001558065	0.003838973	
-0.0009540632	0.002173417	-0.03503245	-0.1702123	-0.001558065	0.003838973	-0.0002950672	-0.1397197	

1.942e+10	0.1419915	-0.06388202	-0.002276485	-8.34379e-06	0.07598057	-0.02201257	-0.0005765859	0.002119265	
-0.002276485	-8.34379e-06	0.02932482	-0.1546645	-0.001771194	0.001283073	-0.05582568	-0.1478945	
0.07598057	-0.02201257	-0.001771194	0.001283073	0.07948634	0.09249953	-0.0007478951	0.003826191	
-0.0005765859	0.002119265	-0.05582568	-0.1478945	-0.0007478951	0.003826191	-0.009963349	-0.1224955	

1.944e+10	0.1610096	-0.06907202	-0.002571199	0.0002177174	0.0854017	-0.02030776	-0.0004025833	0.001900529	
-0.002571199	0.0002177174	0.02806553	-0.1392397	-0.001686924	0.001327955	-0.07100512	-0.122048	
0.0854017	-0.02030776	-0.001686924	0.001327955	0.1165749	0.09366165	-9.874387e-05	0.00355733	
-0.0004025833	0.001900529	-0.07100512	-0.122048	-9.874387e-05	0.00355733	-0.01433401	-0.1038454	

1.946e+10	0.1776766	-0.08051916	-0.003018319	0.0006470715	0.09476723	-0.02234091	-0.0005151275	0.001757044	
-0.003018319	0.0006470715	0.03010962	-0.1246963	-0.00176547	0.001435782	-0.08100982	-0.0947498	
0.09476723	-0.02234091	-0.00176547	0.001435782	0.1537711	0.08604896	0.0002608273	0.003204001	
-0.0005151275	0.001757044	-0.08100982	-0.0947498	0.0002608273	0.003204001	-0.01484299	-0.08639016	

1.948e+10	0.1897885	-0.09511772	-0.003413954	0.001460402	0.1023801	-0.02676155	-0.0007714517	0.001906535	
-0.003413954	0.001460402	0.03406509	-0.1113038	-0.001898256	0.001774493	-0.08679636	-0.06626486	
0.1023801	-0.02676155	-0.001898256	0.001774493	0.1882747	0.07006736	0.0003843551	0.002984654	
-0.0007714517	0.001906535	-0.08679636	-0.06626486	0.0003843551	0.002984654	-0.01381103	-0.06975082	

1.95e+10	0.198651	-0.110241	-0.003444508	0.002601283	0.1085165	-0.03194225	-0.0009118285	0.002397884	
-0.003444508	0.002601283	0.03952079	-0.09821692	-0.001850242	0.002354619	-0.08781937	-0.03614275	
0.1085165	-0.03194225	-0.001850242	0.002354619	0.2179683	0.04752875	0.0004730643	0.00302058	
-0.0009118285	0.002397884	-0.08781937	-0.03614275	0.0004730643	0.00302058	-0.01093026	-0.05200272	

1.952e+10	0.2062345	-0.1265193	-0.00294241	0.003760698	0.114303	-0.03792385	-0.000714005	0.003070681	
-0.00294241	0.003760698	0.04756446	-0.08500553	-0.00146026	0.002961115	-0.082392	-0.005169229	
0.114303	-0.03792385	-0.00146026	0.002961115	0.2423903	0.02019305	0.00076289	0.003214718	
-0.000714005	0.003070681	-0.082392	-0.005169229	0.00076289	0.003214718	-0.003687632	-0.03325315	

1.954e+10	0.2116808	-0.1458108	-0.002058767	0.004641498	0.1195812	-0.04576649	-0.0001678761	0.003670063	
-0.002058767	0.004641498	0.05921076	-0.07303576	-0.0008361624	0.003348684	-0.06991411	0.02399149	
0.1195812	-0.04576649	-0.0008361624	0.003348684	0.261373	-0.01089674	0.001288289	0.003326229	
-0.0001678761	0.003670063	-0.06991411	0.02399149	0.001288289	0.003326229	0.008891877	-0.01651884	

1.956e+10	0.2121797	-0.1678763	-0.001034861	0.005231222	0.1229221	-0.05576513	0.0005894854	0.004090745	
-0.001034861	0.005231222	0.07384154	-0.06418947	-0.0001920724	0.003506844	-0.05185958	0.04907547	
0.1229221	-0.05576513	-0.0001920724	0.003506844	0.2744035	-0.04531503	0.001891407	0.003243509	
0.0005894854	0.004090745	-0.05185958	0.04907547	0.001891407	0.003243509	0.02468128	-0.004276329	

1.958e+10	0.2063198	-0.1895747	9.39409e-05	0.005635517	0.1232438	-0.06656261	0.001509675	0.004344472	
9.39409e-05	0.005635517	0.08957451	-0.05898279	0.0004120912	0.003556706	-0.03039272	0.06976524	
0.1232438	-0.06656261	0.0004120912	0.003556706	0.2804184	-0.08185133	0.002479113	0.003020486	
0.001509675	0.004344472	-0.03039272	0.06976524	0.002479113	0.003020486	0.04060749	0.004080583	

1.96e+10	0.1957225	-0.2080592	0.001394822	0.005806726	0.1209763	-0.07669694	0.002612766	0.004348889	
0.001394822	0.005806726	0.1055223	-0.05659244	0.001032753	0.003534717	-0.005912086	0.08681092	
0.1209763	-0.07669694	0.001032753	0.003534717	0.2788808	-0.1187227	0.003054361	0.00267342	
0.002612766	0.004348889	-0.005912086	0.08681092	0.003054361	0.00267342	0.05653564	0.01103755	

1.962e+10	0.1830895	-0.2232302	0.002794262	0.005592929	0.1173177	-0.08582587	0.003778436	0.003959023	
0.002794262	0.005592929	0.1218899	-0.05662338	0.001681966	0.003388745	0.022119	0.09950113	
0.1173177	-0.08582587	0.001681966	0.003388745	0.2703497	-0.1538485	0.003582754	0.002172358	
0.003778436	0.003959023	0.022119	0.09950113	0.003582754	0.002172358	0.07460089	0.01677647	

1.964e+10	0.1690995	-0.2368501	0.004073628	0.004965674	0.1127143	-0.09483024	0.004770361	0.003188778	
0.004073628	0.004965674	0.1387444	-0.05989351	0.002291205	0.003086911	0.05300102	0.1057069	
0.1127143	-0.09483024	0.002291205	0.003086911	0.2559983	-0.1862805	0.003982226	0.001531026	
0.004770361	0.003188778	0.05300102	0.1057069	0.003982226	0.001531026	0.0954666	0.01860698	

1.966e+10	0.1520807	-0.2494221	0.005086051	0.004093091	0.1062555	-0.1041548	0.00547096	0.002233214	
0.005086051	0.004093091	0.1547407	-0.06706813	0.002794406	0.002682549	0.08381844	0.1044207	
0.1062555	-0.1041548	0.002794406	0.002682549	0.236642	-0.2156752	0.004209514	0.0008358733	
0.00547096	0.002233214	0.08381844	0.1044207	0.004209514	0.0008358733	0.1163421	0.01456294	

1.968e+10	0.1306913	-0.2587698	0.005892094	0.003134993	0.09674766	-0.1129492	0.00596316	0.001240882	
0.005892094	0.003134993	0.1682442	-0.07746195	0.003206097	0.002251862	0.1119307	0.09702583	
0.09674766	-0.1129492	0.003206097	0.002251862	0.2121936	-0.2417816	0.004304234	0.0001624932	
0.00596316	0.001240882	0.1119307	0.09702583	0.004304234	0.0001624932	0.1339311	0.006101451	

1.97e+10	0.1065549	-0.2620981	0.006606674	0.002079781	0.08438247	-0.1194515	0.006352137	0.0001804492	
0.006606674	0.002079781	0.1786743	-0.08939542	0.003589654	0.001809413	0.1368336	0.0858023	
0.08438247	-0.1194515	0.003589654	0.001809413	0.1826578	-0.2632708	0.004327593	-0.0004887063	
0.006352137	0.0001804492	0.1368336	0.0858023	0.004327593	-0.0004887063	0.1480176	-0.003542769	

1.972e+10	0.08294379	-0.2589295	0.007209728	0.0008110196	0.07045748	-0.1227225	0.006593455	-0.001040821	
0.007209728	0.0008110196	0.1868457	-0.1018039	0.003977488	0.001298891	0.1594653	0.07154617	
0.07045748	-0.1227225	0.003977488	0.001298891	0.1488425	-0.2785466	0.004289727	-0.001157698	
0.006593455	-0.001040821	0.1594653	0.07154617	0.004289727	-0.001157698	0.1607984	-0.01308612	

1.974e+10	0.06170576	-0.2513155	0.00754302	-0.0006898536	0.05615067	-0.1231203	0.006541622	-0.002399462	
0.00754302	-0.0006898536	0.1934504	-0.1148213	0.004326652	0.000669863	0.1797881	0.05346734	
0.05615067	-0.1231203	0.004326652	0.000669863	0.1126994	-0.2865439	0.004148734	-0.001856079	
0.006541622	-0.002399462	0.1797881	0.05346734	0.004148734	-0.001856079	0.1737277	-0.02423529	

1.976e+10	0.04210909	-0.240877	0.007493615	-0.00228002	0.04136777	-0.1212049	0.006140014	-0.003726732	
0.007493615	-0.00228002	0.1982321	-0.128945	0.004570359	-7.030652e-05	0.1961492	0.03142152	
0.04136777	-0.1212049	0.004570359	-7.030652e-05	0.0758538	-0.2874811	0.003875479	-0.002539135	
0.006140014	-0.003726732	0.1961492	0.03142152	0.003875479	-0.002539135	0.1852307	-0.03855165	

1.978e+10	0.0230027	-0.2265753	0.007114369	-0.003803987	0.02555264	-0.1163266	0.005490447	-0.004901789	
0.007114369	-0.003803987	0.2003734	-0.1437603	0.004687273	-0.000870935	0.2070301	0.007046959	
0.02555264	-0.1163266	0.004687273	-0.000870935	0.03914331	-0.2816934	0.003495901	-0.003160563	
0.005490447	-0.004901789	0.2070301	0.007046959	0.003495901	-0.003160563	0.1931283	-0.05511973	

1.98e+10	0.006013049	-0.2062424	0.006510184	-0.005250618	0.009448349	-0.1067928	0.004703234	-0.005947213	
0.006510184	-0.005250618	0.1996943	-0.1582247	0.004698167	-0.001717333	0.2126582	-0.01741381	
0.009448349	-0.1067928	0.004698167	-0.001717333	0.00315633	-0.2687015	0.003053826	-0.003722554	
0.004703234	-0.005947213	0.2126582	-0.01741381	0.003053826	-0.003722554	0.1971896	-0.07134662	

1.982e+10	-0.005072395	-0.1800186	0.005675107	-0.006687833	-0.004625381	-0.0916864	0.003763206	-0.006935292	
0.005675107	-0.006687833	0.1969319	-0.1714077	0.004599125	-0.00264045	0.2144178	-0.04093341	
-0.004625381	-0.0916864	0.004599125	-0.00264045	-0.03063369	-0.2474913	0.002548871	-0.00425801	
0.003763206	-0.006935292	0.2144178	-0.04093341	0.002548871	-0.00425801	0.1994848	-0.08609339	

1.984e+10	-0.007639566	-0.1514875	0.004495532	-0.008105149	-0.01402036	-0.0723307	0.002593309	-0.007839605	
0.004495532	-0.008105149	0.1930232	-0.1834605	0.004324896	-0.003660906	0.2131883	-0.06400823	
-0.01402036	-0.0723307	0.004324896	-0.003660906	-0.05921145	-0.2180848	0.001950652	-0.004765419	
0.002593309	-0.007839605	0.2131883	-0.06400823	0.001950652	-0.004765419	0.201655	-0.1006997	

1.986e+10	-0.002600814	-0.1244728	0.002896428	-0.00935916	-0.01792174	-0.05103363	0.001183155	-0.008552852	
0.002896428	-0.00935916	0.1881356	-0.1949427	0.003795479	-0.004739058	0.2083359	-0.08694378	
-0.01792174	-0.05103363	0.003795479	-0.004739058	-0.07998761	-0.1822169	0.001248502	-0.005214417	
0.001183155	-0.008552852	0.2083359	-0.08694378	0.001248502	-0.005214417	0.202753	-0.1169415	

1.988e+10	0.007649102	-0.09988755	0.0009197132	-0.01029098	-0.01682332	-0.02916235	-0.0003929489	-0.009010836	
0.0009197132	-0.01029098	0.1816755	-0.2059906	0.002964701	-0.005792037	0.1989499	-0.1086197	
-0.01682332	-0.02916235	0.002964701	-0.005792037	-0.09160525	-0.1427446	0.0004602423	-0.00558848	
-0.0003929489	-0.009010836	0.1989499	-0.1086197	0.0004602423	-0.00558848	0.2005824	-0.1346029	

1.99e+10	0.02297971	-0.07708883	-0.001333997	-0.01083015	-0.01051835	-0.007009562	-0.002073355	-0.009237784	
-0.001333997	-0.01083015	0.1733636	-0.2157596	0.001823597	-0.006746379	0.1856191	-0.1271103	
-0.01051835	-0.007009562	0.001823597	-0.006746379	-0.09396064	-0.1017529	-0.0004100246	-0.005906586	
-0.002073355	-0.009237784	0.1856191	-0.1271103	-0.0004100246	-0.005906586	0.1943909	-0.1512965	

1.992e+10	0.04500936	-0.05758864	-0.00383845	-0.01094864	0.00225534	0.01401165	-0.003894986	-0.009261279	
-0.00383845	-0.01094864	0.1638203	-0.2234146	0.000348622	-0.007540746	0.1700838	-0.1414873	
0.00225534	0.01401165	0.000348622	-0.007540746	-0.08668589	-0.0611955	-0.001408121	-0.006182881	
-0.003894986	-0.009261279	0.1700838	-0.1414873	-0.001408121	-0.006182881	0.1857524	-0.1653715	

1.994e+10	0.07320739	-0.0454489	-0.006620902	-0.01054236	0.0216978	0.03076772	-0.005936146	-0.009016329	
-0.006620902	-0.01054236	0.1543213	-0.2288855	-0.001509549	-0.008073996	0.1540594	-0.1523108	
0.0216978	0.03076772	-0.001509549	-0.008073996	-0.0694564	-0.02353672	-0.002604853	-0.006386184	
-0.005936146	-0.009016329	0.1540594	-0.1523108	-0.002604853	-0.006386184	0.1766359	-0.1772845	

1.996e+10	0.1030295	-0.04361252	-0.009661702	-0.009385756	0.04513306	0.04010623	-0.00824732	-0.00837205	
-0.009661702	-0.009385756	0.1455852	-0.2330665	-0.003790928	-0.008170589	0.1379186	-0.1605434	
0.04513306	0.04010623	-0.003790928	-0.008170589	-0.04336178	0.007630246	-0.004079348	-0.006455385	
-0.00824732	-0.00837205	0.1379186	-0.1605434	-0.004079348	-0.006455385	0.167135	-0.1885865	

1.998e+10	0.12906	-0.05072363	-0.01279916	-0.007150277	0.06838867	0.04160712	-0.01087642	-0.00707673	
-0.01279916	-0.007150277	0.1376654	-0.236894	-0.006489206	-0.007533753	0.1215858	-0.1662172	
0.06838867	0.04160712	-0.006489206	-0.007533753	-0.01163965	0.02957925	-0.005981828	-0.006235614	
-0.01087642	-0.00707673	0.1215858	-0.1662172	-0.005981828	-0.006235614	0.1558619	-0.199365	

2e+10	0.1488973	-0.06254479	-0.0155612	-0.00339858	0.08864338	0.03747908	-0.01368052	-0.004611979	
-0.0155612	-0.00339858	0.1301849	-0.2411541	-0.00938001	-0.005665084	0.1061221	-0.1691927	
0.08864338	0.03747908	-0.00938001	-0.005665084	0.02162566	0.04196902	-0.00840539	-0.005258392	
-0.01368052	-0.004611979	0.1061221	-0.1691927	-0.00840539	-0.005258392	0.1430736	-0.2080412	

2.002e+10	0.1632207	-0.07546006	-0.01685693	0.002007084	0.1050202	0.0303582	-0.01585227	-0.0004261811	
-0.01685693	0.002007084	0.1224595	-0.2468877	-0.01163075	-0.00211786	0.09278632	-0.1711689	
0.1050202	0.0303582	-0.01163075	-0.00211786	0.05305571	0.04659253	-0.01087378	-0.002802029	
-0.01585227	-0.0004261811	0.09278632	-0.1711689	-0.01087378	-0.002802029	0.1307528	-0.2148394	

2.004e+10	0.1738717	-0.08766138	-0.01532959	0.008072123	0.1181726	0.02236312	-0.01588741	0.005110068	
-0.01532959	0.008072123	0.1121172	-0.2546731	-0.0118637	0.002699722	0.08020319	-0.1749853	
0.1181726	0.02236312	-0.0118637	0.002699722	0.08157141	0.04644075	-0.01205615	0.001271407	
-0.01588741	0.005110068	0.08020319	-0.1749853	-0.01205615	0.001271407	0.1193236	-0.2226402	

2.006e+10	0.1828781	-0.09877871	-0.01088152	0.01257971	0.129651	0.01459585	-0.01303877	0.0101212	
-0.01088152	0.01257971	0.09632668	-0.262515	-0.009385042	0.007013247	0.06431853	-0.1807472	
0.129651	0.01459585	-0.009385042	0.007013247	0.1082262	0.04355054	-0.0108237	0.005646475	
-0.01303877	0.0101212	0.06431853	-0.1807472	-0.0108237	0.005646475	0.1050784	-0.2332871	

2.008e+10	0.191528	-0.1099023	-0.005425339	0.01408204	0.1410959	0.006379241	-0.008540461	0.0128593	
-0.005425339	0.01408204	0.07472649	-0.2662939	-0.005369617	0.009123081	0.04264464	-0.1846701	
0.1410959	0.006379241	-0.005369617	0.009123081	0.1346685	0.03752918	-0.007715389	0.008562795	
-0.008540461	0.0128593	0.04264464	-0.1846701	-0.007715389	0.008562795	0.08397299	-0.2441105	

2.01e+10	0.1994176	-0.1220836	-0.0009338861	0.01328522	0.1523945	-0.003722579	-0.00420866	0.01338073	
-0.0009338861	0.01328522	0.04970327	-0.2627706	-0.001632102	0.009070839	0.0164952	-0.1824157	
0.1523945	-0.003722579	-0.001632102	0.009070839	0.1602662	0.026669	-0.004249731	0.009572017	
-0.00420866	0.01338073	0.0164952	-0.1824157	-0.004249731	0.009572017	0.05543258	-0.2498957	

2.012e+10	0.2059074	-0.1350965	0.002190746	0.01156432	0.162332	-0.01601406	-0.0007670288	0.0126678	
0.002190746	0.01156432	0.02472175	-0.2508246	0.001075577	0.007901127	-0.01055326	-0.1718062	
0.162332	-0.01601406	0.001075577	0.007901127	0.1826391	0.01099888	-0.001320778	0.00930705	
-0.0007670288	0.0126678	-0.01055326	-0.1718062	-0.001320778	0.00930705	0.02235959	-0.2463574	

2.014e+10	0.2111624	-0.1487766	0.004332226	0.00955034	0.1702984	-0.02999663	0.001820163	0.01136112	
0.004332226	0.00955034	0.003007822	-0.2306904	0.002899898	0.006314117	-0.03483201	-0.1531899	
0.1702984	-0.02999663	0.002899898	0.006314117	0.200427	-0.007573512	0.0009160168	0.008364089	
0.001820163	0.01136112	-0.03483201	-0.1531899	0.0009160168	0.008364089	-0.0103821	-0.2321179	

2.016e+10	0.2150864	-0.1631944	0.005657646	0.007397752	0.1759961	-0.044887	0.003624432	0.009797061	
0.005657646	0.007397752	-0.01260911	-0.2041109	0.004000584	0.004526612	-0.05390815	-0.1283051	
0.1759961	-0.044887	0.004000584	0.004526612	0.2139807	-0.02686094	0.002473158	0.007082831	
0.003624432	0.009797061	-0.05390815	-0.1283051	0.002473158	0.007082831	-0.03891058	-0.2085206	

2.018e+10	0.2176178	-0.1781371	0.006188831	0.005364337	0.1799547	-0.06001998	0.004773887	0.008322872	
0.006188831	0.005364337	-0.02069701	-0.1733387	0.004373396	0.002723894	-0.06676253	-0.09894227	
0.1799547	-0.06001998	0.004373396	0.002723894	0.2248527	-0.04595118	0.003403214	0.005768069	
0.004773887	0.008322872	-0.06676253	-0.09894227	0.003403214	0.005768069	-0.06135205	-0.1778767	

2.02e+10	0.219163	-0.1939673	0.006177813	0.003785175	0.1831262	-0.0758159	0.005646912	0.007130253	
0.006177813	0.003785175	-0.02062474	-0.1404336	0.004106058	0.001237894	-0.07253134	-0.06625343	
0.1831262	-0.0758159	0.004106058	0.001237894	0.2343946	-0.06548384	0.003942137	0.004667368	
0.005646912	0.007130253	-0.07253134	-0.06625343	0.003942137	0.004667368	-0.07685998	-0.1412643	

2.022e+10	0.2191043	-0.2115422	0.006100471	0.002677031	0.1851819	-0.09370443	0.006581489	0.005994576	
0.006100471	0.002677031	-0.01151539	-0.1070625	0.003563175	0.0002661341	-0.06946865	-0.03155625	
0.1851819	-0.09370443	0.003563175	0.0002661341	0.2423686	-0.08688075	0.004402587	0.003731948	
0.006581489	0.005994576	-0.06946865	-0.03155625	0.004402587	0.003731948	-0.08319155	-0.09917897	

2.024e+10	0.2159937	-0.2308078	0.006168216	0.00166928	0.1842736	-0.1141788	0.007472729	0.004566029	
0.006168216	0.00166928	0.007381436	-0.07618525	0.003076624	-0.0003581543	-0.05618878	0.001716723	
0.1842736	-0.1141788	0.003076624	-0.0003581543	0.2472255	-0.1104599	0.00482856	0.002721087	
0.007472729	0.004566029	-0.05618878	0.001716723	0.00482856	0.002721087	-0.07722098	-0.05471598	

2.026e+10	0.2087651	-0.2507634	0.006153004	0.0005135784	0.1787912	-0.1361186	0.007971393	0.002842405	
0.006153004	0.0005135784	0.03534408	-0.05151259	0.002648871	-0.0008884594	-0.03355919	0.02927555	
0.1787912	-0.1361186	0.002648871	-0.0008884594	0.2479928	-0.1349855	0.005030293	0.001567629	
0.007971393	0.002842405	-0.03355919	0.02927555	0.005030293	0.001567629	-0.05805505	-0.01305133	

2.028e+10	0.196695	-0.2701123	0.005825427	-0.0006474867	0.1679984	-0.1579211	0.007934212	0.001127327	
0.005825427	-0.0006474867	0.06920367	-0.03626498	0.002141912	-0.001360558	-0.005194719	0.04811539	
0.1679984	-0.1579211	0.002141912	-0.001360558	0.2447534	-0.1595223	0.004890015	0.0004244327	
0.007934212	0.001127327	-0.005194719	0.04811539	0.004890015	0.0004244327	-0.02857333	0.02079786	

2.03e+10	0.1797986	-0.2868126	0.005247077	-0.001592783	0.1519541	-0.177752	0.007511357	-0.0003276639	
0.005247077	-0.001592783	0.1048757	-0.03117114	0.001527109	-0.001676154	0.02489355	0.05813984	
0.1519541	-0.177752	0.001527109	-0.001676154	0.237549	-0.1835988	0.004460647	-0.0005373806	
0.007511357	-0.0003276639	0.02489355	0.05813984	0.004460647	-0.0005373806	0.006538811	0.0452308	

2.032e+10	0.1594626	-0.2990739	0.004608187	-0.002288827	0.1315221	-0.1940602	0.006922957	-0.001499073	
0.004608187	-0.002288827	0.1390167	-0.03485668	0.0008945526	-0.00176685	0.05449796	0.0609548	
0.1315221	-0.1940602	0.0008945526	-0.00176685	0.2260671	-0.2064349	0.003875305	-0.001244075	
0.006922957	-0.001499073	0.05449796	0.0609548	0.003875305	-0.001244075	0.04469951	0.06168872	

2.034e+10	0.1379221	-0.3064756	0.003992642	-0.002857608	0.1080191	-0.206008	0.006265858	-0.002484625	
0.003992642	-0.002857608	0.1704706	-0.04542883	0.0003557835	-0.001669102	0.08303153	0.05750448	
0.1080191	-0.206008	0.0003557835	-0.001669102	0.2104262	-0.2268105	0.003260283	-0.001712122	
0.006265858	-0.002484625	0.08303153	0.05750448	0.003260283	-0.001712122	0.08561814	0.07051794	

2.036e+10	0.1165459	-0.3102626	0.00332856	-0.003377603	0.08267076	-0.2135247	0.005505756	-0.003342816	
0.00332856	-0.003377603	0.1986034	-0.06197977	-4.809235e-05	-0.00148252	0.1094079	0.04769002	
0.08267076	-0.2135247	-4.809235e-05	-0.00148252	0.1917337	-0.2436325	0.002682266	-0.002012146	
0.005505756	-0.003342816	0.1094079	0.04769002	0.002682266	-0.002012146	0.1283286	0.07008617	

2.038e+10	0.09489419	-0.3115905	0.002541568	-0.003774705	0.05595763	-0.2169187	0.004612317	-0.004012961	
0.002541568	-0.003774705	0.2223255	-0.08401425	-0.0003650266	-0.001272999	0.1315608	0.03205648	
0.05595763	-0.2169187	-0.0003650266	-0.001272999	0.1711713	-0.2569811	0.002134029	-0.002201147	
0.004612317	-0.004012961	0.1315608	0.03205648	0.002134029	-0.002201147	0.1697525	0.05929353	

2.04e+10	0.07190762	-0.3098865	0.001704039	-0.003937048	0.02789546	-0.2158449	0.003680764	-0.004414655	
0.001704039	-0.003937048	0.2403387	-0.1103707	-0.0006378638	-0.001020795	0.1478452	0.01282064	
0.02789546	-0.2158449	-0.0006378638	-0.001020795	0.1490795	-0.2674694	0.001612691	-0.002269949	
0.003680764	-0.004414655	0.1478452	0.01282064	0.001612691	-0.002269949	0.206081	0.0397521	

2.042e+10	0.04788405	-0.3032528	0.0009736979	-0.00388535	-0.001059156	-0.2092573	0.002850359	-0.004600565	
0.0009736979	-0.00388535	0.2518181	-0.1389709	-0.0008261023	-0.0006931822	0.1584867	-0.007413885	
-0.001059156	-0.2092573	-0.0008261023	-0.0006931822	0.1248534	-0.2749061	0.001168194	-0.002218304	
0.002850359	-0.004600565	0.1584867	-0.007413885	0.001168194	-0.002218304	0.2361133	0.01469199	

2.044e+10	0.02511231	-0.2906572	0.0004059237	-0.003770915	-0.02939832	-0.1962402	0.002159197	-0.004713922	
0.0004059237	-0.003770915	0.2573531	-0.1680097	-0.0008677484	-0.0003407659	0.1649579	-0.02741185	
-0.02939832	-0.1962402	-0.0008677484	-0.0003407659	0.09830592	-0.2779156	0.0008532635	-0.002109357	
0.002159197	-0.004713922	0.1649579	-0.02741185	0.0008532635	-0.002109357	0.2606681	-0.01373996	

2.046e+10	0.00587054	-0.2731969	-9.666292e-05	-0.00370624	-0.05506971	-0.1769172	0.001513168	-0.004850766	
-9.666292e-05	-0.00370624	0.2579037	-0.1965127	-0.0007747506	-6.778189e-05	0.1681278	-0.04724592	
-0.05506971	-0.1769172	-0.0007747506	-6.778189e-05	0.07087525	-0.2750243	0.0006469311	-0.002039138	
0.001513168	-0.004850766	0.1681278	-0.04724592	0.0006469311	-0.002039138	0.2805126	-0.0455075	

2.048e+10	-0.009363895	-0.2528367	-0.0006696401	-0.003644999	-0.07662722	-0.1524225	0.0007984908	-0.004966825	
-0.0006696401	-0.003644999	0.2539558	-0.2245153	-0.0006540594	7.660288e-05	0.1677343	-0.06713309	
-0.07662722	-0.1524225	-0.0006540594	7.660288e-05	0.04480817	-0.2661647	0.0004537941	-0.002043725	
0.0007984908	-0.004966825	0.1677343	-0.06713309	0.0004537941	-0.002043725	0.2946791	-0.08107963	

2.05e+10	-0.02160161	-0.2299777	-0.001312171	-0.003441643	-0.09367409	-0.1236798	2.469255e-05	-0.004946738	
-0.001312171	-0.003441643	0.2452599	-0.2516257	-0.000594965	0.0001622061	0.1633604	-0.08607553	
-0.09367409	-0.1236798	-0.000594965	0.0001622061	0.02132568	-0.252481	0.0002065904	-0.00206067	
2.469255e-05	-0.004946738	0.1633604	-0.08607553	0.0002065904	-0.00206067	0.3013813	-0.1191246	

2.052e+10	-0.03038814	-0.2033318	-0.001880433	-0.00304825	-0.105595	-0.09072986	-0.0006927385	-0.004766019	
-0.001880433	-0.00304825	0.231528	-0.276924	-0.0005689669	0.0002866584	0.1555629	-0.1028165	
-0.105595	-0.09072986	-0.0005689669	0.0002866584	0.0006063016	-0.2347192	-6.095682e-05	-0.00201938	
-0.0006927385	-0.004766019	0.1555629	-0.1028165	-6.095682e-05	-0.00201938	0.3001087	-0.1569464	

2.054e+10	-0.03284	-0.1726444	-0.00227212	-0.002580844	-0.1104814	-0.05378993	-0.001295433	-0.004523669	
-0.00227212	-0.002580844	0.2132289	-0.2989469	-0.0004820797	0.0004462544	0.1456482	-0.1168533	
-0.1104814	-0.05378993	-0.0004820797	0.0004462544	-0.01694501	-0.2124152	-0.0002837943	-0.001936819	
-0.001295433	-0.004523669	0.1456482	-0.1168533	-0.0002837943	-0.001936819	0.2922068	-0.192653	

2.056e+10	-0.02619361	-0.1409162	-0.002558605	-0.00217139	-0.1060024	-0.01501089	-0.001855187	-0.004309766	
-0.002558605	-0.00217139	0.1915198	-0.316973	-0.0003191743	0.0005462013	0.134579	-0.1287683	
-0.1060024	-0.01501089	-0.0003191743	0.0005462013	-0.02923139	-0.1854605	-0.0004680954	-0.001884432	
-0.001855187	-0.004309766	0.134579	-0.1287683	-0.0004680954	-0.001884432	0.2793363	-0.2258068	

2.058e+10	-0.01086779	-0.1125164	-0.002884503	-0.001791954	-0.09158741	0.02195438	-0.002489887	-0.00407749	
-0.002884503	-0.001791954	0.1674161	-0.3310111	-0.0001742686	0.0005408368	0.1222521	-0.1392498	
-0.09158741	0.02195438	-0.0001742686	0.0005408368	-0.03391162	-0.1559249	-0.0006957309	-0.001874769	
-0.002489887	-0.00407749	0.1222521	-0.1392498	-0.0006957309	-0.001874769	0.2617789	-0.2569891	

2.06e+10	0.01004908	-0.08974514	-0.003265918	-0.001283846	-0.06894494	0.05404031	-0.003199167	-0.003682817	
-0.003265918	-0.001283846	0.1410996	-0.3412171	-0.000129642	0.0005115893	0.1079447	-0.1481323	
-0.06894494	0.05404031	-0.000129642	0.0005115893	-0.03065141	-0.1270859	-0.00101787	-0.001821265	
-0.003199167	-0.003682817	0.1079447	-0.1481323	-0.00101787	-0.001821265	0.2384632	-0.2859587	

2.062e+10	0.03427277	-0.07195129	-0.003539186	-0.0005624517	-0.04031385	0.08012034	-0.003838267	-0.003056378	
-0.003539186	-0.0005624517	0.1122776	-0.3469763	-0.0001362635	0.0005737509	0.09154334	-0.154379	
-0.04031385	0.08012034	-0.0001362635	0.0005737509	-0.02124094	-0.1014093	-0.001369604	-0.001634546	
-0.003838267	-0.003056378	0.09154334	-0.154379	-0.001369604	-0.001634546	0.2089863	-0.3105241	

2.064e+10	0.06208906	-0.05873729	-0.003544417	0.0002453634	-0.006785857	0.0997695	-0.004276185	-0.002289028	
-0.003544417	0.0002453634	0.08163383	-0.3468222	-6.397739e-05	0.0007205453	0.07385468	-0.1570844	
-0.006785857	0.0997695	-6.397739e-05	0.0007205453	-0.007560776	-0.07936367	-0.001642327	-0.00132519	
-0.004276185	-0.002289028	0.07385468	-0.1570844	-0.001642327	-0.00132519	0.1745366	-0.3286152	

2.066e+10	0.0936751	-0.0522053	-0.003322198	0.0009545077	0.03099001	0.1116178	-0.004530636	-0.001516809	
-0.003322198	0.0009545077	0.05077253	-0.3397269	0.0001294257	0.0008340174	0.05599627	-0.1561854	
0.03099001	0.1116178	0.0001294257	0.0008340174	0.009775737	-0.0608619	-0.001799479	-0.0009868192	
-0.004530636	-0.001516809	0.05599627	-0.1561854	-0.001799479	-0.0009868192	0.1374596	-0.3393033	

2.068e+10	0.1260448	-0.05471952	-0.003033632	0.001533727	0.07056343	0.1137628	-0.004706438	-0.0007605908	
-0.003033632	0.001533727	0.02191739	-0.3258537	0.0003551559	0.000836573	0.03853266	-0.1521567	
0.07056343	0.1137628	0.0003551559	0.000836573	0.03043143	-0.04679769	-0.001898882	-0.0006735484	
-0.004706438	-0.0007605908	0.03853266	-0.1521567	-0.001898882	-0.0006735484	0.09941958	-0.3432103	

2.07e+10	0.1548812	-0.065418	-0.00272669	0.002118088	0.108174	0.1062689	-0.004822594	8.249479e-05	
-0.00272669	0.002118088	-0.003835906	-0.306086	0.0005239935	0.000785398	0.02112867	-0.1449381	
0.108174	0.1062689	0.0005239935	0.000785398	0.05287978	-0.03841941	-0.001988419	-0.0003413156	
-0.004822594	8.249479e-05	0.02112867	-0.1449381	-0.001988419	-0.0003413156	0.06027533	-0.3407602	

2.072e+10	0.1781067	-0.08073284	-0.002252984	0.00277032	0.1412085	0.09140435	-0.004742935	0.001058433	
-0.002252984	0.00277032	-0.02585003	-0.2807324	0.0006735262	0.0007715881	0.004066966	-0.133418	
0.1412085	0.09140435	0.0006735262	0.0007715881	0.07483462	-0.03556771	-0.002018824	6.59131e-05	
-0.004742935	0.001058433	0.004066966	-0.133418	-0.002018824	6.59131e-05	0.02005198	-0.3304021	

2.074e+10	0.1970007	-0.09786486	-0.001468259	0.003328989	0.1692125	0.07168359	-0.004328387	0.002032172	
-0.001468259	0.003328989	-0.04265702	-0.249449	0.0009126815	0.0007704569	-0.01082252	-0.1165084	
0.1692125	0.07168359	0.0009126815	0.0007704569	0.09463627	-0.03666329	-0.001895026	0.0005067073	
-0.004328387	0.002032172	-0.01082252	-0.1165084	-0.001895026	0.0005067073	-0.01897424	-0.3099598	

2.076e+10	0.2131415	-0.1168076	-0.000459691	0.00355107	0.1926056	0.0481791	-0.003620548	0.002786185	
-0.000459691	0.00355107	-0.05149562	-0.212695	0.001256642	0.000648046	-0.02086133	-0.09448952	
0.1926056	0.0481791	0.001256642	0.000648046	0.1123295	-0.0398839	-0.001603231	0.0008567651	
-0.003620548	0.002786185	-0.02086133	-0.09448952	-0.001603231	0.0008567651	-0.05276316	-0.2789742	

2.078e+10	0.2260011	-0.1385696	0.0005075682	0.003376463	0.2110635	0.02104387	-0.002817396	0.003233057	
0.0005075682	0.003376463	-0.04960665	-0.1734559	0.001575234	0.0003194544	-0.02384481	-0.06972441	
0.2110635	0.02104387	0.001575234	0.0003194544	0.1289286	-0.04458506	-0.001248438	0.001029865	
-0.002817396	0.003233057	-0.02384481	-0.06972441	-0.001248438	0.001029865	-0.07739274	-0.2400422	

2.08e+10	0.2337866	-0.1623166	0.001281197	0.002966778	0.2233461	-0.008814335	-0.00205684	0.003466869	
0.001281197	0.002966778	-0.03642619	-0.1359444	0.001730032	-0.0001474036	-0.01952365	-0.04498718	
0.2233461	-0.008814335	0.001730032	-0.0001474036	0.1447821	-0.05126434	-0.000945468	0.001062289	
-0.00205684	0.003466869	-0.01952365	-0.04498718	-0.000945468	0.001062289	-0.09165161	-0.1968165	

2.082e+10	0.2361298	-0.1855824	0.001909509	0.002449696	0.2288642	-0.03927672	-0.001304431	0.003576124	
0.001909509	0.002449696	-0.01361406	-0.103801	0.001705996	-0.0006253528	-0.008500128	-0.02201715	
0.2288642	-0.03927672	0.001705996	-0.0006253528	0.1591989	-0.06019754	-0.0007118256	0.001038817	
-0.001304431	0.003576124	-0.008500128	-0.02201715	-0.0007118256	0.001038817	-0.09582422	-0.1513449	

2.084e+10	0.2347467	-0.2065497	0.002452002	0.001766229	0.2285196	-0.06837661	-0.0005139133	0.003484001	
0.002452002	0.001766229	0.01672003	-0.07891211	0.001571012	-0.0010734	0.009220034	-0.00226261	
0.2285196	-0.06837661	0.001571012	-0.0010734	0.1714706	-0.07074161	-0.0005070324	0.0009711016	
-0.0005139133	0.003484001	0.009220034	-0.00226261	-0.0005070324	0.0009711016	-0.08882041	-0.1050676	

2.086e+10	0.2318107	-0.2255599	0.002757981	0.0008283786	0.2238819	-0.09537365	0.0001660413	0.003072817	
0.002757981	0.0008283786	0.0526605	-0.0632208	0.00132515	-0.001531739	0.03335317	0.011305	
0.2238819	-0.09537365	0.00132515	-0.001531739	0.181789	-0.08171445	-0.0003601071	0.000808434	
0.0001660413	0.003072817	0.03335317	0.011305	-0.0003601071	0.000808434	-0.06898071	-0.06165421	

2.088e+10	0.2276553	-0.2441902	0.002581976	-0.0002136518	0.2157704	-0.1205455	0.000473843	0.002443174	
0.002581976	-0.0002136518	0.09107867	-0.05870745	0.0008705633	-0.001974391	0.06101397	0.01539812	
0.2157704	-0.1205455	0.0008705633	-0.001974391	0.1912377	-0.0928353	-0.0003874676	0.0005733644	
0.000473843	0.002443174	0.06101397	0.01539812	-0.0003874676	0.0005733644	-0.03755753	-0.0266119	

2.09e+10	0.2209288	-0.2628824	0.001886249	-0.0009975799	0.2039814	-0.1439677	0.0003097558	0.001920986	
0.001886249	-0.0009975799	0.1275066	-0.06563922	0.0001546993	-0.002235855	0.08711051	0.009247616	
0.2039814	-0.1439677	0.0001546993	-0.002235855	0.2004468	-0.1050585	-0.0006641558	0.0004247453	
0.0003097558	0.001920986	0.08711051	0.009247616	-0.0006641558	0.0004247453	0.0002728386	-0.003916508	

2.092e+10	0.21078	-0.2803146	0.0009247969	-0.00122063	0.1883531	-0.1646759	-0.0001483484	0.001819563	
0.0009247969	-0.00122063	0.1575159	-0.08162755	-0.0007124844	-0.002108579	0.1072059	-0.004491761	
0.1883531	-0.1646759	-0.0007124844	-0.002108579	0.2086417	-0.1192776	-0.001116481	0.000567649	
-0.0001483484	0.001819563	0.1072059	-0.004491761	-0.001116481	0.000567649	0.0384208	0.006834794	

2.094e+10	0.1981698	-0.2948411	8.976538e-05	-0.0008081701	0.1697757	-0.1814072	-0.0005652357	0.002273798	
8.976538e-05	-0.0008081701	0.1790642	-0.1023478	-0.001465899	-0.001488589	0.1197786	-0.02165302	
0.1697757	-0.1814072	-0.001465899	-0.001488589	0.2145954	-0.1352112	-0.001524926	0.001134576	
-0.0005652357	0.002273798	0.1197786	-0.02165302	-0.001524926	0.001134576	0.07350392	0.008976447	

2.096e+10	0.1849944	-0.3064631	-0.0002285932	8.578598e-05	0.1498729	-0.19385	-0.0005559135	0.003225444	
-0.0002285932	8.578598e-05	0.1926455	-0.1234389	-0.001772758	-0.0004581364	0.1253344	-0.03872318	
0.1498729	-0.19385	-0.001772758	-0.0004581364	0.2179159	-0.1517546	-0.001577882	0.002114579	
-0.0005559135	0.003225444	0.1253344	-0.03872318	-0.001577882	0.002114579	0.1047031	0.005548279	

2.098e+10	0.1720906	-0.3167274	0.000272845	0.001060049	0.1299046	-0.202814	0.0002629957	0.004363682	
0.000272845	0.001060049	0.2009758	-0.141983	-0.00135825	0.0006507643	0.1255399	-0.05313084	
0.1299046	-0.202814	-0.00135825	0.0006507643	0.2193601	-0.1681446	-0.0009476983	0.003257754	
0.0002629957	0.004363682	0.1255399	-0.05313084	-0.0009476983	0.003257754	0.1322836	-0.001301642	

2.1e+10	0.1583673	-0.3268992	0.001596484	0.001459682	0.1099272	-0.2093094	0.002049607	0.005028429	
0.001596484	0.001459682	0.2074749	-0.1574763	-0.0002286426	0.001296696	0.1229631	-0.06325687	
0.1099272	-0.2093094	-0.0002286426	0.001296696	0.2195931	-0.1849932	0.0004781183	0.004036583	
0.002049607	0.005028429	0.1229631	-0.06325687	0.0004781183	0.004036583	0.1571362	-0.01009242	

2.102e+10	0.1421767	-0.336301	0.00314937	0.0006649394	0.0894107	-0.2134501	0.004336251	0.004443521	
0.00314937	0.0006649394	0.2144584	-0.1715495	0.001153156	0.001022812	0.1207543	-0.06924623	
0.0894107	-0.2134501	0.001153156	0.001022812	0.2179636	-0.2031406	0.002344487	0.00388558	
0.004336251	0.004443521	0.1207543	-0.06924623	0.002344487	0.00388558	0.180747	-0.02026987	

2.104e+10	0.1235437	-0.3431371	0.003890123	-0.001253852	0.06843992	-0.2145799	0.006027899	0.002442898	
0.003890123	-0.001253852	0.2225024	-0.1865363	0.00207252	-0.0001348193	0.1212356	-0.07304454	
0.06843992	-0.2145799	0.00207252	-0.0001348193	0.2130178	-0.2223192	0.00390916	0.002673251	
0.006027899	0.002442898	0.1212356	-0.07304454	0.00390916	0.002673251	0.2043898	-0.03238789	

2.106e+10	0.1039241	-0.3465948	0.00321907	-0.003343123	0.04798332	-0.2124692	0.006273631	-0.000144724	
0.00321907	-0.003343123	0.230672	-0.2041244	0.002102144	-0.001600361	0.1250119	-0.07756501	
0.04798332	-0.2124692	0.002102144	-0.001600361	0.2041265	-0.241013	0.004581114	0.0008806911	
0.006273631	-0.000144724	0.1250119	-0.07756501	0.004581114	0.0008806911	0.2287304	-0.04808433	

2.108e+10	0.08433753	-0.3475742	0.001532511	-0.004639861	0.02887501	-0.2079044	0.005207429	-0.00221976	
0.001532511	-0.004639861	0.2373571	-0.2255192	0.001403639	-0.002784527	0.1305894	-0.08564747	
0.02887501	-0.2079044	0.001403639	-0.002784527	0.192043	-0.25804	0.004338239	-0.000818621	
0.005207429	-0.00221976	0.1305894	-0.08564747	0.004338239	-0.000818621	0.2528418	-0.06987694	

2.11e+10	0.06402807	-0.3470531	-0.0003622965	-0.004930006	0.01073671	-0.2020349	0.003604802	-0.003282073	
-0.0003622965	-0.004930006	0.240186	-0.2505775	0.0003791771	-0.003520137	0.1347878	-0.09808734	
0.01073671	-0.2020349	0.0003791771	-0.003520137	0.1774977	-0.2735732	0.003557363	-0.002050865	
0.003604802	-0.003282073	0.1347878	-0.09808734	0.003557363	-0.002050865	0.273351	-0.09901103	

2.112e+10	0.04120831	-0.3440509	-0.001998364	-0.0045524	-0.007796693	-0.1948841	0.002144536	-0.003515521	
-0.001998364	-0.0045524	0.2372951	-0.2777584	-0.0007783891	-0.003941984	0.1351115	-0.1132234	
-0.007796693	-0.1948841	-0.0007783891	-0.003941984	0.1598504	-0.2881286	0.002614341	-0.002822441	
0.002144536	-0.003515521	0.1351115	-0.1132234	0.002614341	-0.002822441	0.2865311	-0.1338431	

2.114e+10	0.01583504	-0.3356567	-0.003386304	-0.00384236	-0.02752998	-0.1848917	0.00104478	-0.0033664	
-0.003386304	-0.00384236	0.2277702	-0.3049214	-0.00216671	-0.004097389	0.1309765	-0.1287912	
-0.02752998	-0.1848917	-0.00216671	-0.004097389	0.1374808	-0.3006583	0.001637196	-0.003313051	
0.00104478	-0.0033664	0.1309765	-0.1287912	0.001637196	-0.003313051	0.290731	-0.1708984	

2.116e+10	-0.009512701	-0.3193884	-0.004677167	-0.002757262	-0.0475965	-0.1700132	0.00015812	-0.003084049	
-0.004677167	-0.002757262	0.2120603	-0.3295457	-0.003834719	-0.003696683	0.1231942	-0.143095	
-0.0475965	-0.1700132	-0.003834719	-0.003696683	0.1099299	-0.3081062	0.0005608379	-0.003558273	
0.00015812	-0.003084049	0.1231942	-0.143095	0.0005608379	-0.003558273	0.2867156	-0.2067934	

2.118e+10	-0.03105358	-0.2949598	-0.005638596	-0.00107256	-0.06568366	-0.1491362	-0.0006079357	-0.002618658	
-0.005638596	-0.00107256	0.1916345	-0.3501727	-0.005362645	-0.002425836	0.1127623	-0.1556949	
-0.06568366	-0.1491362	-0.005362645	-0.002425836	0.07938407	-0.3073537	-0.0005516097	-0.003428104	
-0.0006079357	-0.002618658	0.1127623	-0.1556949	-0.0005516097	-0.003428104	0.2764433	-0.2399868	

2.12e+10	-0.04552856	-0.2642972	-0.005802317	0.0009824301	-0.07894935	-0.1226464	-0.001145674	-0.001956664	
-0.005802317	0.0009824301	0.1680884	-0.3663932	-0.006151079	-0.0005338229	0.1001263	-0.1666316	
-0.07894935	-0.1226464	-0.006151079	-0.0005338229	0.04992715	-0.2972056	-0.001486137	-0.002942052	
-0.001145674	-0.001956664	0.1001263	-0.1666316	-0.001486137	-0.002942052	0.2611418	-0.2705337	

2.122e+10	-0.05152855	-0.2303366	-0.005118541	0.002855968	-0.08516338	-0.09271187	-0.001387255	-0.00122303	
-0.005118541	0.002855968	0.1421527	-0.3784318	-0.006074503	0.001382323	0.08513838	-0.17571	
-0.08516338	-0.09271187	-0.006074503	0.001382323	0.02545373	-0.2794733	-0.00215066	-0.002264739	
-0.001387255	-0.00122303	0.08513838	-0.17571	-0.00215066	-0.002264739	0.2405952	-0.2983966	

2.124e+10	-0.04904945	-0.195274	-0.003912173	0.004241067	-0.08396376	-0.06192605	-0.001359986	-0.0005379075	
-0.003912173	0.004241067	0.1138148	-0.3860627	-0.005429933	0.002966646	0.06780754	-0.1822122	
-0.08396376	-0.06192605	-0.005429933	0.002966646	0.007232499	-0.2573184	-0.002571101	-0.001514494	
-0.001359986	-0.0005379075	0.06780754	-0.1822122	-0.002571101	-0.001514494	0.2145615	-0.3221232	

2.126e+10	-0.03745054	-0.1604267	-0.002457462	0.005124527	-0.07561294	-0.03186243	-0.001124285	2.197997e-05	
-0.002457462	0.005124527	0.08354749	-0.3881604	-0.004488975	0.004193367	0.04878105	-0.1852965	
-0.07561294	-0.03186243	-0.004488975	0.004193367	-0.00532509	-0.232509	-0.002780481	-0.0007455477	
-0.001124285	2.197997e-05	0.04878105	-0.1852965	-0.002780481	-0.0007455477	0.1841194	-0.3398268	

2.128e+10	-0.0155021	-0.1289515	-0.0008899812	0.005527916	-0.05980642	-0.004161094	-0.0007578655	0.0004072158	
-0.0008899812	0.005527916	0.052769	-0.3837287	-0.003360897	0.0051087	0.02890067	-0.1846824	
-0.05980642	-0.004161094	-0.003360897	0.0051087	-0.01187168	-0.2052069	-0.002806099	-1.959027e-06	
-0.0007578655	0.0004072158	0.02890067	-0.1846824	-0.002806099	-1.959027e-06	0.1513073	-0.3506911	

2.13e+10	0.01526634	-0.1057841	0.0006334302	0.005466221	-0.03697398	0.01824157	-0.00035794	0.0006199703	
0.0006334302	0.005466221	0.02349444	-0.3728104	-0.002118122	0.005707653	0.008860332	-0.1804526	
-0.03697398	0.01824157	-0.002118122	0.005707653	-0.01071445	-0.1770561	-0.002691981	0.0006891803	
-0.00035794	0.0006199703	0.008860332	-0.1804526	-0.002691981	0.0006891803	0.1179495	-0.3553144	

2.132e+10	0.04985563	-0.09353233	0.001980201	0.005049504	-0.009857599	0.03283627	2.433029e-05	0.0007295844	
0.001980201	0.005049504	-0.002986237	-0.3564475	-0.0008526932	0.006016173	-0.01113697	-0.1726412	
-0.009857599	0.03283627	-0.0008526932	0.006016173	-0.001794167	-0.1513894	-0.00247466	0.001345309	
2.433029e-05	0.0007295844	-0.01113697	-0.1726412	-0.00247466	0.001345309	0.08431201	-0.3545635	

2.134e+10	0.08355075	-0.09044484	0.003150609	0.004411451	0.01785981	0.0396843	0.0004366567	0.0007886908	
0.003150609	0.004411451	-0.02653208	-0.3352518	0.0003988092	0.0061108	-0.03095459	-0.1605939	
0.01785981	0.0396843	0.0003988092	0.0061108	0.01236917	-0.130706	-0.002128139	0.002001254	
0.0004366567	0.0007886908	-0.03095459	-0.1605939	-0.002128139	0.002001254	0.04999593	-0.3477646	

2.136e+10	0.1155477	-0.09356534	0.004209649	0.003550634	0.04442091	0.04074136	0.0009468974	0.0007356808	
0.004209649	0.003550634	-0.04657867	-0.3087159	0.001687275	0.006009112	-0.04957351	-0.1431598	
0.04442091	0.04074136	0.001687275	0.006009112	0.02904063	-0.1148349	-0.001575223	0.00262784	
0.0009468974	0.0007356808	-0.04957351	-0.1431598	-0.001575223	0.00262784	0.01596685	-0.3330174	

2.138e+10	0.1467129	-0.1028631	0.005092083	0.002369286	0.06996704	0.03692534	0.00150388	0.0004384834	
0.005092083	0.002369286	-0.06105519	-0.2763149	0.003021193	0.005619891	-0.06472486	-0.1199061	
0.06996704	0.03692534	0.003021193	0.005619891	0.04745638	-0.1024748	-0.0007826738	0.003099921	
0.00150388	0.0004384834	-0.06472486	-0.1199061	-0.0007826738	0.003099921	-0.01453746	-0.3092985	

2.14e+10	0.175377	-0.1199079	0.005584234	0.0008937296	0.09392892	0.02757176	0.001929663	-0.0001422677	
0.005584234	0.0008937296	-0.06696128	-0.2395055	0.004272296	0.004852453	-0.07393925	-0.09196188	
0.09392892	0.02757176	0.004272296	0.004852453	0.06832549	-0.09380421	0.0001663596	0.003287393	
0.001929663	-0.0001422677	-0.07393925	-0.09196188	0.0001663596	0.003287393	-0.03794704	-0.278103	

2.142e+10	0.1977709	-0.1437259	0.005549456	-0.0006414069	0.1140291	0.01284281	0.002075662	-0.0008802541	
0.005549456	-0.0006414069	-0.06257725	-0.2019049	0.005255943	0.003764134	-0.07582217	-0.06164098	
0.1140291	0.01284281	0.005255943	0.003764134	0.09098982	-0.09041043	0.001119318	0.003159806	
0.002075662	-0.0008802541	-0.07582217	-0.06164098	0.001119318	0.003159806	-0.05260325	-0.2426844	

2.144e+10	0.2120913	-0.1704892	0.005081592	-0.001988488	0.1284721	-0.005015346	0.001949909	-0.001608296	
0.005081592	-0.001988488	-0.04879391	-0.1668622	0.005904378	0.002521111	-0.07033571	-0.03087522	
0.1284721	-0.005015346	0.005904378	0.002521111	0.1131466	-0.09301243	0.001981115	0.002779164	
0.001949909	-0.001608296	-0.07033571	-0.03087522	0.001981115	0.002779164	-0.05896983	-0.2052466	

2.146e+10	0.2198988	-0.1966606	0.004373586	-0.003086826	0.1376612	-0.02324534	0.001639979	-0.002272548	
0.004373586	-0.003086826	-0.02719928	-0.1361191	0.006276937	0.001231486	-0.05730045	-0.0009901792	
0.1376612	-0.02324534	0.006276937	0.001231486	0.1325954	-0.1002375	0.002728695	0.002189618	
0.001639979	-0.002272548	-0.05730045	-0.0009901792	0.002728695	0.002189618	-0.05681244	-0.1664093	

2.148e+10	0.2238653	-0.2218195	0.003491203	-0.004005992	0.1433771	-0.0407663	0.001149555	-0.002897384	
0.003491203	-0.004005992	0.001637728	-0.1109079	0.006410518	-0.0001177718	-0.03593148	0.02595276	
0.1433771	-0.0407663	0.006410518	-0.0001177718	0.1491298	-0.1100846	0.003316524	0.001378499	
0.001149555	-0.002897384	-0.03593148	0.02595276	0.003316524	0.001378499	-0.04415392	-0.1277974	

2.15e+10	0.2244847	-0.2474593	0.002378097	-0.00472298	0.1465914	-0.05816696	0.0004064229	-0.003419532	
0.002378097	-0.00472298	0.03704639	-0.09378843	0.006227601	-0.001523308	-0.006685737	0.04634423	
0.1465914	-0.05816696	0.006227601	-0.001523308	0.163681	-0.1218397	0.003623177	0.0003766304	
0.0004064229	-0.003419532	-0.006685737	0.04634423	0.003623177	0.0003766304	-0.0199695	-0.09411064	

2.152e+10	0.2200352	-0.2736491	0.001067857	-0.005081407	0.146675	-0.07579217	-0.0005662518	-0.003666229	
0.001067857	-0.005081407	0.07585473	-0.08765561	0.005651189	-0.002846949	0.0271261	0.05703491	
0.146675	-0.07579217	0.005651189	-0.002846949	0.1764699	-0.1362046	0.003556602	-0.000662067	
-0.0005662518	-0.003666229	0.0271261	0.05703491	0.003556602	-0.000662067	0.01266889	-0.07034733	

2.154e+10	0.209498	-0.2980965	-0.0002379962	-0.004989327	0.1429379	-0.09252374	-0.001583123	-0.003522608	
-0.0002379962	-0.004989327	0.1132643	-0.09275859	0.004752029	-0.003901416	0.06095844	0.05780495	
0.1429379	-0.09252374	0.004752029	-0.003901416	0.1860978	-0.1535382	0.003165858	-0.001544913	
-0.001583123	-0.003522608	0.06095844	0.05780495	0.003165858	-0.001544913	0.04802784	-0.05801444	

2.156e+10	0.1943505	-0.3182722	-0.001323973	-0.004545299	0.1360667	-0.1068242	-0.00243162	-0.003052588	
-0.001323973	-0.004545299	0.1456164	-0.1063879	0.003713576	-0.004613478	0.09198433	0.05090383	
0.1360667	-0.1068242	0.003713576	-0.004613478	0.1910706	-0.1726516	0.002611433	-0.002184271	
-0.00243162	-0.003052588	0.09198433	0.05090383	0.002611433	-0.002184271	0.08214867	-0.054747	

2.158e+10	0.1771816	-0.3338343	-0.002128113	-0.003950683	0.1277059	-0.1181535	-0.003028429	-0.00243492	
-0.002128113	-0.003950683	0.1720555	-0.1252398	0.002683671	-0.005053632	0.1196324	0.03828774	
0.1277059	-0.1181535	0.002683671	-0.005053632	0.1913058	-0.191239	0.002029108	-0.002628391	
-0.003028429	-0.00243492	0.1196324	0.03828774	0.002029108	-0.002628391	0.1143969	-0.05813231	

2.16e+10	0.1593541	-0.3463493	-0.002741793	-0.003336726	0.1190963	-0.1274027	-0.00344128	-0.001803649	
-0.002741793	-0.003336726	0.1932283	-0.1477448	0.001682365	-0.005327998	0.1436045	0.0204267	
0.1190963	-0.1274027	0.001682365	-0.005327998	0.1882975	-0.2080934	0.00144099	-0.002967206	
-0.00344128	-0.001803649	0.1436045	0.0204267	0.00144099	-0.002967206	0.1448426	-0.06821024	

2.162e+10	0.1398293	-0.3569491	-0.003261953	-0.002690859	0.1099748	-0.1356767	-0.00376449	-0.001163864	
-0.003261953	-0.002690859	0.2088417	-0.1732668	0.0006642315	-0.005460146	0.1623471	-0.002049346	
0.1099748	-0.1356767	0.0006642315	-0.005460146	0.1832836	-0.2236658	0.0008033748	-0.003222879	
-0.00376449	-0.001163864	0.1623471	-0.002049346	0.0008033748	-0.003222879	0.1713754	-0.08538863	

2.164e+10	0.1172595	-0.3643247	-0.003681478	-0.001953358	0.09933617	-0.142809	-0.004007252	-0.0004594029	
-0.003681478	-0.001953358	0.2180908	-0.2005448	-0.0003732264	-0.005402423	0.1745774	-0.02704598	
0.09933617	-0.142809	-0.0003732264	-0.005402423	0.1757566	-0.2387305	0.0001022639	-0.003349039	
-0.004007252	-0.0004594029	0.1745774	-0.02704598	0.0001022639	-0.003349039	0.1911933	-0.1077803	

2.166e+10	0.09246301	-0.3660011	-0.003927211	-0.00112982	0.08709571	-0.1475293	-0.004107592	0.0003182255	
-0.003927211	-0.00112982	0.2208327	-0.2274524	-0.001361786	-0.005125168	0.1806908	-0.05202049	
0.08709571	-0.1475293	-0.001361786	-0.005125168	0.1645754	-0.2524774	-0.0006113946	-0.003305228	
-0.004107592	0.0003182255	0.1806908	-0.05202049	-0.0006113946	-0.003305228	0.2035136	-0.1318101	

2.168e+10	0.06837472	-0.3609306	-0.003959029	-0.0003081063	0.07450336	-0.1489681	-0.004020659	0.001098419	
-0.003959029	-0.0003081063	0.2183717	-0.2519974	-0.002221069	-0.004669146	0.1823013	-0.07563842	
0.07450336	-0.1489681	-0.002221069	-0.004669146	0.14983	-0.2627759	-0.001267931	-0.003110072	
-0.004020659	0.001098419	0.1823013	-0.07563842	-0.001267931	-0.003110072	0.2101317	-0.1546735	

2.17e+10	0.04758014	-0.3507576	-0.003832532	0.0004183767	0.06302679	-0.1476072	-0.003788759	0.001795795	
-0.003832532	0.0004183767	0.2126473	-0.2736005	-0.002933021	-0.004119543	0.180719	-0.09804076	
0.06302679	-0.1476072	-0.002933021	-0.004119543	0.1334992	-0.2681681	-0.00184567	-0.002825859	
-0.003788759	0.001795795	0.180719	-0.09804076	-0.00184567	-0.002825859	0.2134458	-0.1762517	

2.172e+10	0.03002261	-0.3377282	-0.003652682	0.001053602	0.05297171	-0.144752	-0.003507307	0.002411407	
-0.003652682	0.001053602	0.2048362	-0.2930477	-0.003550456	-0.003524524	0.1760105	-0.1197244	
0.05297171	-0.144752	-0.003550456	-0.003524524	0.1178104	-0.2692217	-0.002385144	-0.002486336	
-0.003507307	0.002411407	0.1760105	-0.1197244	-0.002385144	-0.002486336	0.2138468	-0.1977126	

2.174e+10	0.01436316	-0.3218797	-0.003450312	0.00169029	0.04341484	-0.1407462	-0.003202885	0.003036239	
-0.003450312	0.00169029	0.1947919	-0.3108382	-0.004118553	-0.002845445	0.1676566	-0.1401976	
0.04341484	-0.1407462	-0.004118553	-0.002845445	0.1031708	-0.267429	-0.002922124	-0.002049135	
-0.003202885	0.003036239	0.1676566	-0.1401976	-0.002922124	-0.002049135	0.2101381	-0.2189846	

2.176e+10	0.001256486	-0.3012174	-0.003134146	0.002388444	0.03409196	-0.1344243	-0.00278265	0.003730493	
-0.003134146	0.002388444	0.1821177	-0.3265033	-0.004598014	-0.002019344	0.1558913	-0.1583374	
0.03409196	-0.1344243	-0.004598014	-0.002019344	0.0888027	-0.2628547	-0.003415692	-0.001446359	
-0.00278265	0.003730493	0.1558913	-0.1583374	-0.003415692	-0.001446359	0.2017721	-0.2382501	

2.178e+10	-0.005628793	-0.2753725	-0.002593757	0.003073646	0.02666266	-0.1247526	-0.002125693	0.004422789	
-0.002593757	0.003073646	0.1673567	-0.3389779	-0.004884993	-0.001053496	0.1417488	-0.1733807	
0.02666266	-0.1247526	-0.004884993	-0.001053496	0.07509699	-0.2540115	-0.003758936	-0.0006729535	
-0.002125693	0.004422789	0.1417488	-0.1733807	-0.003758936	-0.0006729535	0.1901866	-0.2535351	

2.18e+10	-0.002989537	-0.247872	-0.001835584	0.00358859	0.02352091	-0.1128243	-0.001224322	0.004947257	
-0.001835584	0.00358859	0.1519685	-0.3478421	-0.004913239	-5.059559e-05	0.1263749	-0.1855159	
0.02352091	-0.1128243	-0.004913239	-5.059559e-05	0.06460406	-0.2401832	-0.003871892	0.000180562	
-0.001224322	0.004947257	0.1263749	-0.1855159	-0.003871892	0.000180562	0.1778227	-0.2648277	

2.182e+10	0.008466797	-0.2238599	-0.001003924	0.003856883	0.02528265	-0.1015088	-0.0002220999	0.00521217	
-0.001003924	0.003856883	0.1371235	-0.3540752	-0.004726495	0.0008777108	0.110121	-0.1954413	
0.02528265	-0.1015088	-0.004726495	0.0008777108	0.06010657	-0.2233227	-0.003782034	0.001003495	
-0.0002220999	0.00521217	0.110121	-0.1954413	-0.003782034	0.001003495	0.1658161	-0.2738164	

2.184e+10	0.02494961	-0.2054808	-0.0002028267	0.00396822	0.03022105	-0.0927244	0.0007712436	0.005300282	
-0.0002028267	0.00396822	0.1226643	-0.3588861	-0.004411803	0.001725415	0.09253898	-0.2033874	
0.03022105	-0.0927244	-0.004411803	0.001725415	0.06188973	-0.2067349	-0.003563524	0.001789929	
0.0007712436	0.005300282	0.09253898	-0.2033874	-0.003563524	0.001789929	0.1531677	-0.2817362	

2.186e+10	0.04451241	-0.1913715	0.0006403344	0.00400311	0.03678451	-0.08610263	0.001835399	0.00528867	
0.0006403344	0.00400311	0.1075868	-0.3623242	-0.003959791	0.002549955	0.07335015	-0.2085678	
0.03678451	-0.08610263	-0.003959791	0.002549955	0.0681671	-0.1922527	-0.003191827	0.002595778	
0.001835399	0.00528867	0.07335015	-0.2085678	-0.003191827	0.002595778	0.1385835	-0.2876469	

2.188e+10	0.06825448	-0.1815111	0.001625947	0.003849719	0.04539839	-0.08120422	0.003076813	0.005044984	
0.001625947	0.003849719	0.0916684	-0.363283	-0.003274819	0.003312761	0.05326077	-0.2100528	
0.04539839	-0.08120422	-0.003274819	0.003312761	0.07788179	-0.1796988	-0.002550952	0.00337174	
0.003076813	0.005044984	0.05326077	-0.2100528	-0.002550952	0.00337174	0.1227676	-0.2895594	

2.19e+10	0.09612628	-0.1792747	0.002640477	0.003302228	0.05661952	-0.07962724	0.004371617	0.004326528	
0.002640477	0.003302228	0.0761339	-0.3609378	-0.002344713	0.003844273	0.03359722	-0.2076192	
0.05661952	-0.07962724	-0.002344713	0.003844273	0.09166681	-0.1694211	-0.001615395	0.003919243	
0.004371617	0.004326528	0.03359722	-0.2076192	-0.001615395	0.003919243	0.1081568	-0.2869858	

2.192e+10	0.1237993	-0.1873884	0.003378291	0.002352524	0.06847912	-0.08357878	0.00536572	0.003103896	
0.003378291	0.002352524	0.06251142	-0.3559729	-0.001340164	0.00400998	0.015369	-0.2019962	
0.06847912	-0.08357878	-0.001340164	0.00400998	0.1096143	-0.1635916	-0.0005692153	0.004070796	
0.00536572	0.003103896	0.015369	-0.2019962	-0.0005692153	0.004070796	0.09660813	-0.2818001	

2.194e+10	0.1458845	-0.2039197	0.003652598	0.00127247	0.07740149	-0.09271903	0.005823623	0.001669127	
0.003652598	0.00127247	0.05091109	-0.3499663	-0.00047767	0.003876884	-0.001487026	-0.1940743	
0.07740149	-0.09271903	-0.00047767	0.003876884	0.1295159	-0.1644908	0.0003360226	0.003883691	
0.005823623	0.001669127	-0.001487026	-0.1940743	0.0003360226	0.003883691	0.08742907	-0.2762134	

2.196e+10	0.1607452	-0.2240883	0.003578137	0.0003297545	0.08158176	-0.1042285	0.005835832	0.0003218396	
0.003578137	0.0003297545	0.04009569	-0.343387	0.0001938083	0.003626625	-0.01744502	-0.1836935	
0.08158176	-0.1042285	0.0001938083	0.003626625	0.1479912	-0.1720739	0.001028221	0.003553739	
0.005835832	0.0003218396	-0.01744502	-0.1836935	0.001028221	0.003553739	0.07866126	-0.2700675	

2.198e+10	0.1702881	-0.2450033	0.003352513	-0.000456865	0.08184922	-0.1156212	0.005580775	-0.0008830094	
0.003352513	-0.000456865	0.02947361	-0.3350662	0.0007654663	0.003342469	-0.03192198	-0.1699174	
0.08184922	-0.1156212	0.0007654663	0.003342469	0.162871	-0.1842411	0.001585325	0.003183844	
0.005580775	-0.0008830094	-0.03192198	-0.1699174	0.001585325	0.003183844	0.07033296	-0.2612274	

2.2e+10	0.1761937	-0.2670292	0.002992546	-0.001180847	0.07956576	-0.1264266	0.005072631	-0.00197845	
0.002992546	-0.001180847	0.02042011	-0.3238468	0.001281874	0.002974763	-0.04310374	-0.1526304	
0.07956576	-0.1264266	0.001281874	0.002974763	0.1741602	-0.1989627	0.002048317	0.002758463	
0.005072631	-0.00197845	-0.04310374	-0.1526304	0.002048317	0.002758463	0.06528941	-0.2489924	

2.202e+10	0.1774165	-0.2908489	0.002408683	-0.001779796	0.07477167	-0.1371182	0.004268274	-0.002846369	
0.002408683	-0.001779796	0.01502169	-0.3106971	0.001669758	0.002501994	-0.04937935	-0.1334897	
0.07477167	-0.1371182	0.001669758	0.002501994	0.1824053	-0.2156794	0.002375053	0.002292681	
0.004268274	-0.002846369	-0.04937935	-0.1334897	0.002375053	0.002292681	0.06592495	-0.2360053	

2.204e+10	0.1722897	-0.3148762	0.001672454	-0.002070253	0.06673248	-0.1469473	0.003319492	-0.003293177	
0.001672454	-0.002070253	0.01353495	-0.2980628	0.001869815	0.002017732	-0.05100627	-0.1148315	
0.06673248	-0.1469473	0.001869815	0.002017732	0.1872988	-0.2345916	0.002569123	0.001887071	
0.003319492	-0.003293177	-0.05100627	-0.1148315	0.002569123	0.001887071	0.07119495	-0.2259803	

2.206e+10	0.1610812	-0.3362477	0.001036005	-0.002013167	0.05562852	-0.1543198	0.002538502	-0.003330089	
0.001036005	-0.002013167	0.01412892	-0.2872427	0.001944048	0.00163704	-0.04954399	-0.09757212	
0.05562852	-0.1543198	0.001944048	0.00163704	0.1875605	-0.2550247	0.002753576	0.001606997	
0.002538502	-0.003330089	-0.04954399	-0.09757212	0.002753576	0.001606997	0.07768982	-0.2196451	

2.208e+10	0.1460829	-0.3531807	0.0006795578	-0.001808222	0.0429677	-0.1581365	0.002118166	-0.00322129	
0.0006795578	-0.001808222	0.01539335	-0.2771528	0.00202076	0.001365741	-0.04566355	-0.08094061	
0.0429677	-0.1581365	0.00202076	0.001365741	0.1825902	-0.2751953	0.003071297	0.0013727	
0.002118166	-0.00322129	-0.04566355	-0.08094061	0.003071297	0.0013727	0.08403888	-0.214795	

2.21e+10	0.1295661	-0.3662897	0.0005521399	-0.001693778	0.03048316	-0.1587294	0.001988735	-0.003261141	
0.0005521399	-0.001693778	0.01820104	-0.2666395	0.002171357	0.001107746	-0.038299	-0.06491513	
0.03048316	-0.1587294	0.002171357	0.001107746	0.1731802	-0.293182	0.003550566	0.001005512	
0.001988735	-0.003261141	-0.038299	-0.06491513	0.003550566	0.001005512	0.09212676	-0.2103392	

2.212e+10	0.1117342	-0.3770633	0.0004765054	-0.001756618	0.01873208	-0.1573489	0.001931372	-0.00358335	
0.0004765054	-0.001756618	0.02408493	-0.2567528	0.002355121	0.0007596393	-0.02687765	-0.05152165	
0.01873208	-0.1573489	0.002355121	0.0007596393	0.1609831	-0.3083909	0.004068428	0.0003528434	
0.001931372	-0.00358335	-0.02687765	-0.05152165	0.004068428	0.0003528434	0.1033045	-0.2087915	

2.214e+10	0.0912461	-0.3854572	0.0003200536	-0.001948692	0.00703702	-0.1546099	0.001747545	-0.004163957	
0.0003200536	-0.001948692	0.03239565	-0.2498082	0.002474352	0.0002993988	-0.01333643	-0.04276577	
0.00703702	-0.1546099	0.002474352	0.0002993988	0.1467095	-0.3215527	0.004426352	-0.0006049497	
0.001747545	-0.004163957	-0.01333643	-0.04276577	0.004426352	-0.0006049497	0.1149755	-0.2130337	

2.216e+10	0.06773408	-0.3893826	2.723904e-05	-0.002201131	-0.005140134	-0.1497418	0.00129446	-0.004920891	
2.723904e-05	-0.002201131	0.04053558	-0.2462155	0.002465667	-0.0002215428	-0.0005043372	-0.03811966	
-0.005140134	-0.1497418	0.002465667	-0.0002215428	0.1296916	-0.3328134	0.004476252	-0.001770557	
0.00129446	-0.004920891	-0.0005043372	-0.03811966	0.004476252	-0.001770557	0.1228539	-0.2219813	

2.218e+10	0.04319913	-0.3868354	-0.0004502263	-0.002460345	-0.01703345	-0.1416898	0.0004661836	-0.005748929	
-0.0004502263	-0.002460345	0.04706449	-0.2439209	0.00232297	-0.0007521351	0.01083547	-0.03521467	
-0.01703345	-0.1416898	0.00232297	-0.0007521351	0.1094055	-0.3407785	0.004155672	-0.003014178	
0.0004661836	-0.005748929	0.01083547	-0.03521467	0.004155672	-0.003014178	0.1257787	-0.2314629	

2.22e+10	0.02064851	-0.3780866	-0.001170906	-0.002626196	-0.02705273	-0.1304035	-0.000852784	-0.006475791	
-0.001170906	-0.002626196	0.05327949	-0.2411647	0.002035991	-0.001277323	0.02223298	-0.03300149	
-0.02705273	-0.1304035	0.002035991	-0.001277323	0.0868279	-0.3436196	0.003428931	-0.004235889	
-0.000852784	-0.006475791	0.02223298	-0.03300149	0.003428931	-0.004235889	0.1264885	-0.2390365	

2.222e+10	0.001638546	-0.3652963	-0.002146814	-0.00253054	-0.03406015	-0.1171595	-0.002702415	-0.006822042	
-0.002146814	-0.00253054	0.06100652	-0.2386766	0.001551637	-0.001767311	0.03467527	-0.03284125	
-0.03406015	-0.1171595	0.001551637	-0.001767311	0.06433456	-0.3407092	0.002240196	-0.005303803	
-0.002702415	-0.006822042	0.03467527	-0.03284125	0.002240196	-0.005303803	0.127467	-0.2462558	

2.224e+10	-0.01468185	-0.3501523	-0.00327476	-0.00194673	-0.03849871	-0.1032991	-0.004948033	-0.006425152	
-0.00327476	-0.00194673	0.06988169	-0.2384822	0.0008044856	-0.002092372	0.04666418	-0.0362356	
-0.03849871	-0.1032991	0.0008044856	-0.002092372	0.04365466	-0.3332529	0.0005725372	-0.005976639	
-0.004948033	-0.006425152	0.04666418	-0.0362356	0.0005725372	-0.005976639	0.1274921	-0.2555196	

2.226e+10	-0.02938887	-0.3317809	-0.00423363	-0.0006856984	-0.04132744	-0.08874828	-0.007167919	-0.004974416	
-0.00423363	-0.0006856984	0.07774572	-0.2408635	-0.0001263449	-0.002017748	0.05587923	-0.04225346	
-0.04132744	-0.08874828	-0.0001263449	-0.002017748	0.024727	-0.3225335	-0.00138869	-0.005944037	
-0.007167919	-0.004974416	0.05587923	-0.04225346	-0.00138869	-0.005944037	0.1235573	-0.2660598	

2.228e+10	-0.04096878	-0.3083603	-0.004520293	0.001148848	-0.04228141	-0.07238497	-0.008695506	-0.002516407	
-0.004520293	0.001148848	0.08348342	-0.2438768	-0.0009220971	-0.001411261	0.06200442	-0.04837697	
-0.04228141	-0.07238497	-0.0009220971	-0.001411261	0.006943837	-0.3081218	-0.003200392	-0.005066434	
-0.008695506	-0.002516407	0.06200442	-0.04837697	-0.003200392	-0.005066434	0.1149629	-0.2743031	

2.23e+10	-0.04595734	-0.280338	-0.003803102	0.003021874	-0.03952386	-0.05396298	-0.00902853	0.0003957729	
-0.003803102	0.003021874	0.08841762	-0.2457374	-0.001219974	-0.0004717276	0.06683695	-0.0532579	
-0.03952386	-0.05396298	-0.001219974	-0.0004717276	-0.008600496	-0.2885919	-0.004410754	-0.003579412	
-0.00902853	0.0003957729	0.06683695	-0.0532579	-0.004410754	-0.003579412	0.1045615	-0.2777397	

2.232e+10	-0.04207384	-0.2512617	-0.002286598	0.004291427	-0.03140369	-0.03523435	-0.00822078	0.003036067	
-0.002286598	0.004291427	0.09468342	-0.2469937	-0.0009556388	0.0003791361	0.07200527	-0.05779654	
-0.03140369	-0.03523435	-0.0009556388	0.0003791361	-0.01910436	-0.2639997	-0.004893524	-0.00194638	
-0.00822078	0.003036067	0.07200527	-0.05779654	-0.004893524	-0.00194638	0.09562523	-0.2774641	

2.234e+10	-0.03046828	-0.2248753	-0.0005369231	0.004747132	-0.01816439	-0.0186919	-0.00674448	0.005045516	
-0.0005369231	0.004747132	0.1025534	-0.2497655	-0.0003989508	0.0008835781	0.07708505	-0.06351464	
-0.01816439	-0.0186919	-0.0003989508	0.0008835781	-0.02230965	-0.2367612	-0.004859098	-0.0004764387	
-0.00674448	0.005045516	0.07708505	-0.06351464	-0.004859098	-0.0004764387	0.08847105	-0.2762174	

2.236e+10	-0.01347935	-0.2021411	0.001094741	0.004619556	-0.001307121	-0.005366094	-0.004919302	0.006509205	
0.001094741	0.004619556	0.110262	-0.2550569	0.0002033979	0.001106054	0.08053162	-0.07011866	
-0.001307121	-0.005366094	0.0002033979	0.001106054	-0.01828369	-0.2097848	-0.004506001	0.0008310713	
-0.004919302	0.006509205	0.08053162	-0.07011866	-0.004506001	0.0008310713	0.08094681	-0.2745559	

2.238e+10	0.008724986	-0.1826417	0.002623067	0.004071139	0.01862124	0.004856023	-0.002732374	0.00744642	
0.002623067	0.004071139	0.1164986	-0.2617338	0.00084982	0.001152078	0.08231667	-0.07585862	
0.01862124	0.004856023	0.00084982	0.001152078	-0.008245074	-0.1845559	-0.003803114	0.001995833	
-0.002732374	0.00744642	0.08231667	-0.07585862	-0.003803114	0.001995833	0.07246101	-0.2700887	

2.24e+10	0.03728897	-0.1683805	0.003996349	0.002981174	0.04216961	0.01096157	-0.000276037	0.007574872	
0.003996349	0.002981174	0.1219505	-0.2685144	0.001569672	0.0009272664	0.08430068	-0.08010468	
0.04216961	0.01096157	0.001569672	0.0009272664	0.007470009	-0.1615774	-0.002716006	0.002819392	
-0.000276037	0.007574872	0.08430068	-0.08010468	-0.002716006	0.002819392	0.06581942	-0.2611121	

2.242e+10	0.07049585	-0.1633363	0.004858176	0.00133853	0.06839855	0.01040867	0.00195834	0.006731003	
0.004858176	0.00133853	0.127878	-0.275994	0.002173597	0.0003184419	0.08787926	-0.08449428	
0.06839855	0.01040867	0.002173597	0.0003184419	0.02919225	-0.1423271	-0.001488113	0.00307694	
0.00195834	0.006731003	0.08787926	-0.08449428	-0.001488113	0.00307694	0.06438623	-0.2497542	

2.244e+10	0.1031752	-0.1691343	0.004913086	-0.0004624249	0.09391731	0.001823146	0.003474492	0.005261747	
0.004913086	-0.0004624249	0.1338978	-0.2858542	0.002399618	-0.0005357625	0.09203531	-0.09100344	
0.09391731	0.001823146	0.002399618	-0.0005357625	0.05598748	-0.1292989	-0.0004842705	0.002851977	
0.003474492	0.005261747	0.09203531	-0.09100344	-0.0004842705	0.002851977	0.0680523	-0.2400918	

2.246e+10	0.1308961	-0.1830429	0.004312525	-0.00194075	0.1152548	-0.01321599	0.004267634	0.003710452	
0.004312525	-0.00194075	0.1380025	-0.2985143	0.002219233	-0.001331447	0.0945946	-0.09948699	
0.1152548	-0.01321599	0.002219233	-0.001331447	0.08501747	-0.1241138	0.0001770127	0.00245623	
0.004267634	0.003710452	0.0945946	-0.09948699	0.0001770127	0.00245623	0.07357889	-0.2337322	

2.248e+10	0.1529533	-0.2011657	0.003446716	-0.002966004	0.1313355	-0.03179768	0.004650718	0.002280376	
0.003446716	-0.002966004	0.1387431	-0.3124288	0.001829105	-0.001906308	0.09493461	-0.1081417	
0.1313355	-0.03179768	0.001829105	-0.001906308	0.1132623	-0.1262506	0.0006460414	0.002072544	
0.004650718	0.002280376	0.09493461	-0.1081417	0.0006460414	0.002072544	0.07893198	-0.2287551	

2.25e+10	0.1708208	-0.2219195	0.002519556	-0.003707135	0.1429033	-0.05214535	0.004755076	0.0008536883	
0.002519556	-0.003707135	0.1365072	-0.3258196	0.001396969	-0.002316239	0.09434605	-0.1159315	
0.1429033	-0.05214535	0.001396969	-0.002316239	0.1390749	-0.133933	0.001044581	0.001648157	
0.004755076	0.0008536883	0.09434605	-0.1159315	0.001044581	0.001648157	0.08557739	-0.2233677	

2.252e+10	0.1846481	-0.2457763	0.001471904	-0.00426432	0.1503418	-0.07405232	0.004433674	-0.0005772973	
0.001471904	-0.00426432	0.1325771	-0.3383317	0.0009256263	-0.002658784	0.09389496	-0.1239265	
0.1503418	-0.07405232	0.0009256263	-0.002658784	0.1623403	-0.1457824	0.001308391	0.001110146	
0.004433674	-0.0005772973	0.09389496	-0.1239265	0.001308391	0.001110146	0.09576002	-0.2192173	

2.254e+10	0.1928925	-0.2722404	0.0002629167	-0.004528174	0.1528792	-0.09689661	0.003627651	-0.001750005	
0.0002629167	-0.004528174	0.1272643	-0.3507028	0.0003513869	-0.002916508	0.09261998	-0.1333868	
0.1528792	-0.09689661	0.0003513869	-0.002916508	0.1830514	-0.1614383	0.001333091	0.0005481815	
0.003627651	-0.001750005	0.09261998	-0.1333868	0.001333091	0.0005481815	0.1084327	-0.2196091	

2.256e+10	0.1946564	-0.2990356	-0.000953125	-0.004386136	0.1502087	-0.1189772	0.002575119	-0.002435765	
-0.000953125	-0.004386136	0.119605	-0.3631824	-0.0003017688	-0.003005287	0.08875515	-0.1437237	
0.1502087	-0.1189772	-0.0003017688	-0.003005287	0.2005171	-0.1809461	0.001163584	0.0001164816	
0.002575119	-0.002435765	0.08875515	-0.1437237	0.001163584	0.0001164816	0.1198415	-0.2252657	

2.258e+10	0.1910476	-0.3237656	-0.001968634	-0.003907394	0.1433713	-0.1385246	0.001581847	-0.00269124	
-0.001968634	-0.003907394	0.1088363	-0.3745684	-0.0009340311	-0.002898734	0.08201941	-0.1529912	
0.1433713	-0.1385246	-0.0009340311	-0.002898734	0.2134698	-0.2034907	0.0009446749	-0.0001452087	
0.001581847	-0.00269124	0.08201941	-0.1529912	0.0009446749	-0.0001452087	0.1276012	-0.2334649	

2.26e+10	0.1841844	-0.3457742	-0.00271103	-0.003287574	0.1341403	-0.155047	0.0007499671	-0.00273504	
-0.00271103	-0.003287574	0.09550378	-0.3833012	-0.001464925	-0.00265919	0.07385303	-0.1600306	
0.1341403	-0.155047	-0.001464925	-0.00265919	0.2213643	-0.22734	0.0007629279	-0.0003203607	
0.0007499671	-0.00273504	0.07385303	-0.1600306	0.0007629279	-0.0003203607	0.1328183	-0.2414158	

2.262e+10	0.175304	-0.3659367	-0.003276625	-0.002665691	0.1236787	-0.1692086	-1.800353e-05	-0.00269324	
-0.003276625	-0.002665691	0.08113623	-0.388784	-0.001896418	-0.002371355	0.06565276	-0.1654823	
0.1236787	-0.1692086	-0.001896418	-0.002371355	0.2248934	-0.2510089	0.0005862722	-0.0004915922	
-1.800353e-05	-0.00269324	0.06565276	-0.1654823	0.0005862722	-0.0004915922	0.1377984	-0.2493127	

2.264e+10	0.1639898	-0.3850645	-0.003787853	-0.002021676	0.1120193	-0.1816937	-0.0008116209	-0.00250237	
-0.003787853	-0.002021676	0.06688069	-0.3917621	-0.00228395	-0.002063707	0.05725557	-0.1705351	
0.1120193	-0.1816937	-0.00228395	-0.002063707	0.2251437	-0.2740847	0.0003407037	-0.0006417699	
-0.0008116209	-0.00250237	0.05725557	-0.1705351	0.0003407037	-0.0006417699	0.1425087	-0.2592653	

2.266e+10	0.1494415	-0.4025457	-0.004245065	-0.001255028	0.09886207	-0.19234	-0.001554844	-0.002060353	
-0.004245065	-0.001255028	0.05252041	-0.3930465	-0.002654991	-0.001696632	0.04751047	-0.1751817	
0.09886207	-0.19234	-0.002654991	-0.001696632	0.2223973	-0.2970144	3.112914e-05	-0.0006844625	
-0.001554844	-0.002060353	0.04751047	-0.1751817	3.112914e-05	-0.0006844625	0.1444939	-0.271765	

2.268e+10	0.1318909	-0.4170099	-0.004543914	-0.0003424561	0.08453183	-0.2005639	-0.002097949	-0.001400217	
-0.004543914	-0.0003424561	0.03736104	-0.392315	-0.002966058	-0.001237081	0.03607088	-0.1780734	
0.08453183	-0.2005639	-0.002966058	-0.001237081	0.2159934	-0.3196935	-0.0002478363	-0.0005858548	
-0.002097949	-0.001400217	0.03607088	-0.1780734	-0.0002478363	-0.0005858548	0.1420573	-0.2844502	

2.27e+10	0.1127022	-0.4276485	-0.004607286	0.0006303004	0.06992915	-0.2063003	-0.002380708	-0.000663362	
-0.004607286	0.0006303004	0.02166489	-0.3883562	-0.003154733	-0.0007202128	0.02409474	-0.1782085	
0.06992915	-0.2063003	-0.003154733	-0.0007202128	0.2054919	-0.3410111	-0.0004137294	-0.0004128638	
-0.002380708	-0.000663362	0.02409474	-0.1782085	-0.0004137294	-0.0004128638	0.1364023	-0.2945938	

2.272e+10	0.09325091	-0.4349767	-0.004462897	0.001551525	0.05564105	-0.2101177	-0.002466454	3.487099e-05	
-0.004462897	0.001551525	0.007020591	-0.3805152	-0.003217201	-0.0002339985	0.01302645	-0.1759986	
0.05564105	-0.2101177	-0.003217201	-0.0002339985	0.1915405	-0.359599	-0.0004752196	-0.0002710605	
-0.002466454	3.487099e-05	0.01302645	-0.1759986	-0.0004752196	-0.0002710605	0.1302055	-0.3018987	

2.274e+10	0.07371774	-0.4400481	-0.004210162	0.002395594	0.04154734	-0.2127511	-0.002456018	0.000692206	
-0.004210162	0.002395594	-0.004955224	-0.3696568	-0.003241226	0.0001585224	0.003139409	-0.1727715	
0.04154734	-0.2127511	-0.003241226	0.0001585224	0.1755285	-0.3750029	-0.0005267789	-0.0002133674	
-0.002456018	0.000692206	0.003139409	-0.1727715	-0.0005267789	-0.0002133674	0.1246367	-0.3083318	

2.276e+10	0.05326134	-0.4431105	-0.003894919	0.003243972	0.02707574	-0.2143265	-0.002365029	0.001388109	
-0.003894919	0.003243972	-0.01410096	-0.357462	-0.003346862	0.0005073604	-0.006558736	-0.1691129	
0.02707574	-0.2143265	-0.003346862	0.0005073604	0.1582731	-0.3879138	-0.0006671951	-0.000185155	
-0.002365029	0.001388109	-0.006558736	-0.1691129	-0.0006671951	-0.000185155	0.118173	-0.3153129	

2.278e+10	0.0315166	-0.4430404	-0.003435494	0.00416907	0.01192113	-0.2142987	-0.002102772	0.002153287	
-0.003435494	0.00416907	-0.02146628	-0.3443616	-0.003562476	0.0009632313	-0.01694358	-0.1641277	
0.01192113	-0.2142987	-0.003562476	0.0009632313	0.1394449	-0.398772	-0.0009062039	-6.797876e-05	
-0.002102772	0.002153287	-0.01694358	-0.1641277	-0.0009062039	-6.797876e-05	0.1089772	-0.3215342	

2.28e+10	0.009510251	-0.4386569	-0.002704554	0.005123139	-0.003532228	-0.2121206	-0.001582661	0.002906426	
-0.002704554	0.005123139	-0.02732208	-0.3292985	-0.00377396	0.001653511	-0.02736571	-0.1563634	
-0.003532228	-0.2121206	-0.00377396	0.001653511	0.1184876	-0.4069619	-0.001157267	0.0002195047	
-0.001582661	0.002906426	-0.02736571	-0.1563634	-0.001157267	0.0002195047	0.09757016	-0.3244569	

2.282e+10	-0.01099734	-0.4300094	-0.001654553	0.005966125	-0.01867842	-0.2077721	-0.0008083462	0.003523772	
-0.001654553	0.005966125	-0.03001508	-0.3113767	-0.00381009	0.002583506	-0.03611526	-0.145608	
-0.01867842	-0.2077721	-0.00381009	0.002583506	0.09586442	-0.4111725	-0.001309675	0.0006765525	
-0.0008083462	0.003523772	-0.03611526	-0.145608	-0.001309675	0.0006765525	0.08658791	-0.3231505	

2.284e+10	-0.02901143	-0.4183453	-0.0003410113	0.006577166	-0.03322163	-0.2015707	0.0001427698	0.003932909	
-0.0003410113	0.006577166	-0.02728358	-0.2918374	-0.003549135	0.00365731	-0.04193643	-0.1330054	
-0.03322163	-0.2015707	-0.003549135	0.00365731	0.07313576	-0.410831	-0.001290045	0.001249704	
0.0001427698	0.003932909	-0.04193643	-0.1330054	-0.001290045	0.001249704	0.07808277	-0.319291	

2.286e+10	-0.04503921	-0.4047216	0.001162267	0.006926868	-0.04736789	-0.193723	0.001217874	0.004143319	
0.001162267	0.006926868	-0.01856527	-0.2734505	-0.002942306	0.004771447	-0.04510198	-0.1198014	
-0.04736789	-0.193723	-0.002942306	0.004771447	0.05168684	-0.4066887	-0.001053548	0.001892853	
0.001217874	0.004143319	-0.04510198	-0.1198014	-0.001053548	0.001892853	0.07154146	-0.3149672	

2.288e+10	-0.05979	-0.3885972	0.002880161	0.006999927	-0.06132058	-0.1838008	0.002466332	0.004143885	
0.002880161	0.006999927	-0.005262138	-0.2580964	-0.001934115	0.0058448	-0.04615193	-0.1058894	
-0.06132058	-0.1838008	-0.001934115	0.0058448	0.03158239	-0.3998647	-0.0005199914	0.00255584	
0.002466332	0.004143885	-0.04615193	-0.1058894	-0.0005199914	0.00255584	0.06525541	-0.3098736	

2.29e+10	-0.07233435	-0.3686913	0.004866168	0.006624243	-0.07466328	-0.1709788	0.003937659	0.003760411	
0.004866168	0.006624243	0.01146315	-0.245903	-0.0004321635	0.006719317	-0.04418416	-0.09071147	
-0.07466328	-0.1709788	-0.0004321635	0.006719317	0.01213585	-0.3902914	0.0004165632	0.003080563	
0.003937659	0.003760411	-0.04418416	-0.09071147	0.0004165632	0.003080563	0.05979088	-0.302049	

2.292e+10	-0.08043209	-0.3450906	0.006961489	0.005491936	-0.08619536	-0.1549261	0.005458428	0.002717548	
0.006961489	0.005491936	0.03207325	-0.2373124	0.001556234	0.007083463	-0.03731033	-0.07542542	
-0.08619536	-0.1549261	0.001556234	0.007083463	-0.006315562	-0.3768971	0.00172617	0.003165889	
0.005458428	0.002717548	-0.03731033	-0.07542542	0.00172617	0.003165889	0.05813228	-0.2913471	

2.294e+10	-0.08244139	-0.3199287	0.008693763	0.003462481	-0.09475653	-0.136286	0.006583305	0.0009266409	
0.008693763	0.003462481	0.05639295	-0.234659	0.003748456	0.006620249	-0.02526515	-0.06313541	
-0.09475653	-0.136286	0.003748456	0.006620249	-0.02208927	-0.3592014	0.003105717	0.002550702	
0.006583305	0.0009266409	-0.02526515	-0.06313541	0.003105717	0.002550702	0.06228743	-0.2810301	

2.296e+10	-0.078791	-0.2957029	0.00955819	0.0008188378	-0.0999904	-0.1160036	0.00687726	-0.001304569	
0.00955819	0.0008188378	0.08171165	-0.2403288	0.005655548	0.005276837	-0.01061125	-0.05621222	
-0.0999904	-0.1160036	0.005655548	0.005276837	-0.03347248	-0.3383383	0.004095691	0.001267045	
0.00687726	-0.001304569	-0.01061125	-0.05621222	0.004095691	0.001267045	0.07044746	-0.2747729	

2.298e+10	-0.07113623	-0.2729009	0.009412298	-0.001881446	-0.1019938	-0.09434818	0.006261427	-0.00345521	
0.009412298	-0.001881446	0.1039321	-0.2540313	0.006880168	0.003345431	0.003554853	-0.05410635	
-0.1019938	-0.09434818	0.006880168	0.003345431	-0.04023457	-0.3160493	0.004390647	-0.0003375027	
0.006261427	-0.00345521	0.003554853	-0.05410635	0.004390647	-0.0003375027	0.07889308	-0.2728845	

2.3e+10	-0.05927001	-0.2507298	0.008503383	-0.004235184	-0.1001268	-0.07107752	0.004980361	-0.005171747	
0.008503383	-0.004235184	0.1205121	-0.2729278	0.007332121	0.001241583	0.01633636	-0.05476433	
-0.1001268	-0.07107752	0.007332121	0.001241583	-0.04303829	-0.2929049	0.004000341	-0.001860207	
0.004980361	-0.005171747	0.01633636	-0.05476433	0.004000341	-0.001860207	0.08627858	-0.2728435	

2.302e+10	-0.04130265	-0.2300111	0.007109006	-0.006162794	-0.09266826	-0.04681011	0.003291062	-0.006349917	
0.007109006	-0.006162794	0.1315111	-0.2943689	0.007132107	-0.0007610818	0.02860844	-0.05751031	
-0.09266826	-0.04681011	0.007132107	-0.0007610818	-0.04145715	-0.2684477	0.003108846	-0.003067452	
0.003291062	-0.006349917	0.02860844	-0.05751031	0.003108846	-0.003067452	0.09430318	-0.2735196	

2.304e+10	-0.01665469	-0.2143439	0.005332442	-0.007664383	-0.07831079	-0.02406163	0.001355558	-0.006934958	
0.005332442	-0.007664383	0.1376354	-0.317327	0.006400366	-0.002529821	0.04032896	-0.06336234	
-0.07831079	-0.02406163	0.006400366	-0.002529821	-0.03354241	-0.2433492	0.001882929	-0.003861261	
0.001355558	-0.006934958	0.04032896	-0.06336234	0.001882929	-0.003861261	0.104095	-0.2769109	

2.306e+10	0.01170454	-0.2072097	0.003248959	-0.00863319	-0.05807723	-0.006083667	-0.0006275872	-0.006841776	
0.003248959	-0.00863319	0.1386327	-0.3414282	0.005223087	-0.003936022	0.04964538	-0.07262755	
-0.05807723	-0.006083667	0.005223087	-0.003936022	-0.01806135	-0.2207223	0.0004646213	-0.004159229	
-0.0006275872	-0.006841776	0.04964538	-0.07262755	0.0004646213	-0.004159229	0.1134578	-0.2851793	

2.308e+10	0.03910539	-0.2085351	0.001076644	-0.00897173	-0.03482022	0.005608465	-0.002356599	-0.006075675	
0.001076644	-0.00897173	0.1337317	-0.3654391	0.003759337	-0.004835345	0.05499305	-0.08351865	
-0.03482022	0.005608465	0.003759337	-0.004835345	0.003289556	-0.2041835	-0.0009530757	-0.003889018	
-0.002356599	-0.006075675	0.05499305	-0.08351865	-0.0009530757	-0.003889018	0.1190395	-0.297304	

2.31e+10	0.06329074	-0.2153626	-0.0009175982	-0.008786416	-0.01093977	0.01165374	-0.003522667	-0.004852096	
-0.0009175982	-0.008786416	0.1231032	-0.3872963	0.002272159	-0.005192859	0.05689414	-0.09376971	
-0.01093977	0.01165374	0.002272159	-0.005192859	0.02681568	-0.1950251	-0.002095443	-0.003066054	
-0.003522667	-0.004852096	0.05689414	-0.09376971	-0.002095443	-0.003066054	0.1199353	-0.3100621	

2.312e+10	0.084955	-0.2258396	-0.002679499	-0.008340662	0.01292973	0.0129899	-0.004030599	-0.003583568	
-0.002679499	-0.008340662	0.1081599	-0.4053271	0.0009734591	-0.005175649	0.05703369	-0.1027984	
0.01292973	0.0129899	0.0009734591	-0.005175649	0.04981033	-0.1918699	-0.002687135	-0.00191106	
-0.004030599	-0.003583568	0.05703369	-0.1027984	-0.002687135	-0.00191106	0.1180061	-0.3214756	

2.314e+10	0.1043384	-0.2405241	-0.004409825	-0.007743803	0.03629629	0.009353072	-0.004102973	-0.002619926	
-0.004409825	-0.007743803	0.09064596	-0.4193959	-0.0001615791	-0.005007894	0.05643584	-0.1114339	
0.03629629	0.009353072	-0.0001615791	-0.005007894	0.07165861	-0.1932414	-0.0026843	-0.0008211851	
-0.004102973	-0.002619926	0.05643584	-0.1114339	-0.0026843	-0.0008211851	0.1149187	-0.3325222	

2.316e+10	0.1194961	-0.2595645	-0.006254425	-0.006775482	0.05749254	0.0007163786	-0.004113302	-0.002012416	
-0.006254425	-0.006775482	0.07146423	-0.4299107	-0.001308111	-0.004707325	0.05417278	-0.1203825	
0.05749254	0.0007163786	-0.001308111	-0.004707325	0.09218566	-0.198906	-0.002342759	-5.480107e-05	
-0.004113302	-0.002012416	0.05417278	-0.1203825	-0.002342759	-5.480107e-05	0.1098026	-0.3443683	

2.318e+10	0.1286107	-0.2806772	-0.007999309	-0.005167067	0.07488525	-0.01138001	-0.004265545	-0.001569415	
-0.007999309	-0.005167067	0.05056775	-0.4370443	-0.002487057	-0.004080857	0.04941262	-0.1287646	
0.07488525	-0.01138001	-0.002487057	-0.004080857	0.1101795	-0.208815	-0.001935738	0.0004047492	
-0.004265545	-0.001569415	0.04941262	-0.1287646	-0.001935738	0.0004047492	0.1006994	-0.3562202	

2.32e+10	0.1323606	-0.3008836	-0.009254294	-0.002923196	0.08856871	-0.02476549	-0.004579954	-0.001097859	
-0.009254294	-0.002923196	0.02800048	-0.44003	-0.00347998	-0.002992198	0.04254096	-0.135153	
0.08856871	-0.02476549	-0.00347998	-0.002992198	0.124203	-0.2216534	-0.001566152	0.0006986062	
-0.004579954	-0.001097859	0.04254096	-0.135153	-0.001566152	0.0006986062	0.08730309	-0.3653849	

2.322e+10	0.1331302	-0.3191024	-0.009735823	-0.0003144653	0.09999026	-0.03848281	-0.005007126	-0.0004609715	
-0.009735823	-0.0003144653	0.004798813	-0.4378037	-0.003984423	-0.001535064	0.03504117	-0.1390425	
0.09999026	-0.03848281	-0.003984423	-0.001535064	0.1341357	-0.2352221	-0.001210478	0.0009078622	
-0.005007126	-0.0004609715	0.03504117	-0.1390425	-0.001210478	0.0009078622	0.07173427	-0.3698679	

2.324e+10	0.1323837	-0.3365061	-0.009374346	0.002304295	0.1100696	-0.05326425	-0.005438526	0.0004758093	
-0.009374346	0.002304295	-0.0171511	-0.4302083	-0.003821044	-2.067404e-05	0.0279067	-0.1412496	
0.1100696	-0.05326425	-0.003821044	-2.067404e-05	0.1414182	-0.2480834	-0.0008368786	0.001033828	
-0.005438526	0.0004758093	0.0279067	-0.1412496	-0.0008368786	0.001033828	0.05651771	-0.3700792	

2.326e+10	0.1293448	-0.3541597	-0.008262719	0.004640615	0.1182489	-0.06999073	-0.005645385	0.001773486	
-0.008262719	0.004640615	-0.03650213	-0.4182301	-0.003057171	0.001183344	0.02085014	-0.1427655	
0.1182489	-0.06999073	-0.003057171	0.001183344	0.147634	-0.2606768	-0.0004526999	0.001044627	
-0.005645385	0.001773486	0.02085014	-0.1427655	-0.0004526999	0.001044627	0.04231567	-0.3678038	

2.328e+10	0.1226898	-0.3712838	-0.00659385	0.006497881	0.123263	-0.08825415	-0.00537926	0.003304168	
-0.00659385	0.006497881	-0.05300966	-0.4030288	-0.001986918	0.001843775	0.01286014	-0.1433041	
0.123263	-0.08825415	-0.001986918	0.001843775	0.1528374	-0.2741329	-0.0001162395	0.000921165	
-0.00537926	0.003304168	0.01286014	-0.1433041	-0.0001162395	0.000921165	0.02800579	-0.3635529	

2.33e+10	0.1124593	-0.3858556	-0.004547546	0.007816604	0.1247225	-0.1067832	-0.00451997	0.004826767	
-0.004547546	0.007816604	-0.06696173	-0.3846246	-0.0009285472	0.001994001	0.003916904	-0.1414658	
0.1247225	-0.1067832	-0.0009285472	0.001994001	0.1559036	-0.2887953	0.0001084955	0.0007178169	
-0.00451997	0.004826767	0.003916904	-0.1414658	0.0001084955	0.0007178169	0.01311383	-0.3557684	

2.332e+10	0.1005388	-0.3964814	-0.002202015	0.008539149	0.123207	-0.1245736	-0.003031766	0.00605958	
-0.002202015	0.008539149	-0.07745516	-0.3622213	-1.545806e-05	0.001792833	-0.004454111	-0.1362772	
0.123207	-0.1245736	-1.545806e-05	0.001792833	0.1559469	-0.303544	0.0002535629	0.0005077028	
-0.003031766	0.00605958	-0.004454111	-0.1362772	0.0002535629	0.0005077028	-0.0005623351	-0.3427595	

2.334e+10	0.08910765	-0.403672	0.0002952522	0.008459149	0.119467	-0.1414502	-0.001035718	0.006601142	
0.0002952522	0.008459149	-0.08228133	-0.336002	0.0007229745	0.001289908	-0.01041663	-0.1283179	
0.119467	-0.1414502	0.0007229745	0.001289908	0.1534946	-0.3169258	0.0003706671	0.0002399238	
-0.001035718	0.006601142	-0.01041663	-0.1283179	0.0003706671	0.0002399238	-0.00997053	-0.3250371	

2.336e+10	0.07907882	-0.4091888	0.002483622	0.007462563	0.1137061	-0.1576284	0.0009302444	0.006150955	
0.002483622	0.007462563	-0.07928701	-0.3081326	0.001131357	0.0005021755	-0.01326835	-0.1191535	
0.1137061	-0.1576284	0.001131357	0.0005021755	0.1499561	-0.328623	0.000338274	-0.0001569713	
0.0009302444	0.006150955	-0.01326835	-0.1191535	0.000338274	-0.0001569713	-0.01351305	-0.305221	

2.338e+10	0.06969958	-0.4144196	0.003865271	0.005941093	0.1057116	-0.1730339	0.002186723	0.005032	
0.003865271	0.005941093	-0.06824721	-0.2816699	0.001022313	-0.0003281894	-0.01347144	-0.1097161	
0.1057116	-0.1730339	0.001022313	-0.0003281894	0.1460929	-0.3395011	-2.069757e-05	-0.0005153245	
0.002186723	0.005032	-0.01347144	-0.1097161	-2.069757e-05	-0.0005153245	-0.01200877	-0.2855676	

2.34e+10	0.05980364	-0.4192057	0.004511401	0.004547132	0.09536015	-0.1871225	0.002682252	0.003991612	
0.004511401	0.004547132	-0.05032015	-0.2588747	0.0005075521	-0.0008262738	-0.0110985	-0.09990542	
0.09536015	-0.1871225	0.0005075521	-0.0008262738	0.1413844	-0.3503258	-0.0006021541	-0.0005282609	
0.002682252	0.003991612	-0.0110985	-0.09990542	-0.0006021541	-0.0005282609	-0.006572528	-0.2660788	

2.342e+10	0.04943728	-0.4225579	0.004933421	0.003467138	0.08305943	-0.1992727	0.002948633	0.00333341	
0.004933421	0.003467138	-0.02638872	-0.2407984	-3.97505e-05	-0.0008777404	-0.004787433	-0.0900268	
0.08305943	-0.1992727	-3.97505e-05	-0.0008777404	0.1350264	-0.360588	-0.001067498	-0.0001325855	
0.002948633	0.00333341	-0.004787433	-0.0900268	-0.001067498	-0.0001325855	0.003982984	-0.2461578	

2.344e+10	0.03967112	-0.42442	0.005371039	0.002415982	0.06948918	-0.2093801	0.003319571	0.002799599	
0.005371039	0.002415982	0.003043053	-0.2293998	-0.0003665285	-0.0006824284	0.006437194	-0.08267778	
0.06948918	-0.2093801	-0.0003665285	-0.0006824284	0.1273409	-0.3692596	-0.00120116	0.0004531621	
0.003319571	0.002799599	0.006437194	-0.08267778	-0.00120116	0.0004531621	0.02194426	-0.2280667	

2.346e+10	0.0308258	-0.4259761	0.005654221	0.001207413	0.05495458	-0.2177216	0.003697813	0.002141392	
0.005654221	0.001207413	0.03584951	-0.2273205	-0.0004878634	-0.0004711243	0.02071338	-0.08104904	
0.05495458	-0.2177216	-0.0004878634	-0.0004711243	0.11956	-0.3761037	-0.001029608	0.0009932393	
0.003697813	0.002141392	0.02071338	-0.08104904	-0.001029608	0.0009932393	0.04669367	-0.216369	

2.348e+10	0.02179604	-0.4278952	0.005629657	-2.189156e-05	0.03929562	-0.2243445	0.003919691	0.001405614	
0.005629657	-2.189156e-05	0.06788115	-0.2356582	-0.0005221852	-0.0003018485	0.03409791	-0.0857191	
0.03929562	-0.2243445	-0.0005221852	-0.0003018485	0.1124345	-0.3821429	-0.0006759309	0.001398853	
0.003919691	0.001405614	0.03409791	-0.0857191	-0.0006759309	0.001398853	0.07385064	-0.2136779	

2.35e+10	0.01154889	-0.4292947	0.005403564	-0.001128273	0.02244132	-0.228792	0.004027165	0.0007032078	
0.005403564	-0.001128273	0.09523363	-0.2525616	-0.0004914567	-0.0001308584	0.0441079	-0.09427163	
0.02244132	-0.228792	-0.0004914567	-0.0001308584	0.1054034	-0.3884849	-0.0002007325	0.001676425	
0.004027165	0.0007032078	0.0441079	-0.09427163	-0.0002007325	0.001676425	0.09924993	-0.2184506	

2.352e+10	0.000546368	-0.4288297	0.005097194	-0.002202268	0.004852202	-0.2304889	0.004106295	-2.93401e-05	
0.005097194	-0.002202268	0.116271	-0.275011	-0.000332649	8.594525e-06	0.05103655	-0.1044923	
0.004852202	-0.2304889	-0.000332649	8.594525e-06	0.09723747	-0.3949871	0.0004011898	0.001790709	
0.004106295	-2.93401e-05	0.05103655	-0.1044923	0.0004011898	0.001790709	0.1221397	-0.2279042	

2.354e+10	-0.009751481	-0.4264285	0.004595558	-0.003375279	-0.01253781	-0.2294277	0.004061851	-0.0009033919	
0.004595558	-0.003375279	0.1309854	-0.3007433	-6.234899e-05	-1.757249e-05	0.05568113	-0.1162311	
-0.01253781	-0.2294277	-6.234899e-05	-1.757249e-05	0.08764792	-0.4005117	0.001073749	0.001639236	
0.004061851	-0.0009033919	0.05568113	-0.1162311	0.001073749	0.001639236	0.1433889	-0.2415808	

2.356e+10	-0.0187732	-0.423364	0.003672754	-0.004537578	-0.02924839	-0.226096	0.003701985	-0.001840582	
0.003672754	-0.004537578	0.139497	-0.3284113	0.0001555729	-0.0002874622	0.05713386	-0.129693	
-0.02924839	-0.226096	0.0001555729	-0.0002874622	0.07755141	-0.404391	0.001648107	0.001177624	
0.003701985	-0.001840582	0.05713386	-0.129693	0.001648107	0.001177624	0.1621405	-0.2606315	

2.358e+10	-0.02756676	-0.4205876	0.002317438	-0.0053738	-0.04540376	-0.2209941	0.003005793	-0.002590871	
0.002317438	-0.0053738	0.1417269	-0.3567057	0.0001454919	-0.000699908	0.05418046	-0.1433315	
-0.04540376	-0.2209941	0.0001454919	-0.000699908	0.06781954	-0.407282	0.001958975	0.0005191567	
0.003005793	-0.002590871	0.05418046	-0.1433315	0.001958975	0.0005191567	0.1756862	-0.2844602	

2.36e+10	-0.03749794	-0.4173589	0.0007887186	-0.005692015	-0.06131126	-0.2139587	0.002171906	-0.003004233	
0.0007887186	-0.005692015	0.1379041	-0.3842213	-0.0001110538	-0.001068444	0.04738424	-0.1549675	
-0.06131126	-0.2139587	-0.0001110538	-0.001068444	0.05792434	-0.4102307	0.001987104	-0.0001544902	
0.002171906	-0.003004233	0.04738424	-0.1549675	0.001987104	-0.0001544902	0.182553	-0.3104088	

2.362e+10	-0.048375	-0.4118588	-0.0006488917	-0.005570735	-0.07680703	-0.2043418	0.001401971	-0.003150655	
-0.0006488917	-0.005570735	0.1287361	-0.4094697	-0.0004998025	-0.001298641	0.03864154	-0.1635162	
-0.07680703	-0.2043418	-0.0004998025	-0.001298641	0.04653665	-0.4129964	0.00183039	-0.0007463348	
0.001401971	-0.003150655	0.03864154	-0.1635162	0.00183039	-0.0007463348	0.183554	-0.3356715	

2.364e+10	-0.0584284	-0.4033703	-0.001937901	-0.005180396	-0.09101741	-0.191855	0.0007270447	-0.003182099	
-0.001937901	-0.005180396	0.1154537	-0.4315118	-0.0009472128	-0.00142621	0.0295995	-0.1696674	
-0.09101741	-0.191855	-0.0009472128	-0.00142621	0.03317896	-0.4140026	0.001558159	-0.001280478	
0.0007270447	-0.003182099	0.0295995	-0.1696674	0.001558159	-0.001280478	0.1806606	-0.3593755	

2.366e+10	-0.06621855	-0.393051	-0.00314017	-0.004562149	-0.1029933	-0.1769603	6.0556e-05	-0.003145217	
-0.00314017	-0.004562149	0.09934519	-0.4501991	-0.00148798	-0.001475052	0.02042639	-0.1745388	
-0.1029933	-0.1769603	-0.00148798	-0.001475052	0.0190236	-0.411951	0.001135238	-0.001781898	
6.0556e-05	-0.003145217	0.02042639	-0.1745388	0.001135238	-0.001781898	0.174801	-0.382292	

2.368e+10	-0.07218728	-0.3824062	-0.004230058	-0.003639708	-0.1125223	-0.1605195	-0.0006329922	-0.002962735	
-0.004230058	-0.003639708	0.08109297	-0.4657937	-0.002162801	-0.001362516	0.01053418	-0.1783091	
-0.1125223	-0.1605195	-0.002162801	-0.001362516	0.005599299	-0.4071015	0.0005018445	-0.00217598	
-0.0006329922	-0.002962735	0.01053418	-0.1783091	0.0005018445	-0.00217598	0.1652273	-0.4047762	

2.37e+10	-0.0778729	-0.3711383	-0.005052329	-0.002401184	-0.1200801	-0.1427513	-0.001260039	-0.002570923	
-0.005052329	-0.002401184	0.06085032	-0.478456	-0.002897995	-0.0009674062	-0.0001038281	-0.18027	
-0.1200801	-0.1427513	-0.002897995	-0.0009674062	-0.006873792	-0.400611	-0.0003018485	-0.002325694	
-0.001260039	-0.002570923	-0.0001038281	-0.18027	-0.0003018485	-0.002325694	0.1511766	-0.425587	

2.372e+10	-0.08302909	-0.3573613	-0.005474145	-0.0009869271	-0.1255684	-0.1231375	-0.00170445	-0.002029126	
-0.005474145	-0.0009869271	0.03872206	-0.4877654	-0.003535181	-0.0002596074	-0.01064465	-0.1801257	
-0.1255684	-0.1231375	-0.003535181	-0.0002596074	-0.0193648	-0.3924325	-0.00113535	-0.00215886	
-0.00170445	-0.002029126	-0.01064465	-0.1801257	-0.00113535	-0.00215886	0.1332094	-0.4430266	

2.374e+10	-0.08518859	-0.3401549	-0.005510712	0.0004278964	-0.1278931	-0.1011852	-0.00195385	-0.001462198	
-0.005510712	0.0004278964	0.01529056	-0.493133	-0.003955155	0.0006789093	-0.02029676	-0.1784192	
-0.1278931	-0.1011852	-0.003955155	0.0006789093	-0.03189946	-0.3809969	-0.001861674	-0.001719107	
-0.00195385	-0.001462198	-0.02029676	-0.1784192	-0.001861674	-0.001719107	0.1130227	-0.4562596	

2.376e+10	-0.08192463	-0.3214031	-0.005261325	0.001767565	-0.1253881	-0.07777421	-0.002092411	-0.0009263552	
-0.005261325	0.001767565	-0.008405001	-0.4943786	-0.004135062	0.001756081	-0.0290855	-0.1760536	
-0.1253881	-0.07777421	-0.004135062	0.001756081	-0.04252147	-0.3651022	-0.002438123	-0.001094202	
-0.002092411	-0.0009263552	-0.0290855	-0.1760536	-0.002438123	-0.001094202	0.09204443	-0.4659252	

2.378e+10	-0.07330351	-0.3041615	-0.004768598	0.003070796	-0.1175481	-0.05481359	-0.002169462	-0.0003622649	
-0.004768598	0.003070796	-0.03159053	-0.4919768	-0.00408585	0.002957662	-0.03777837	-0.1734126	
-0.1175481	-0.05481359	-0.00408585	0.002957662	-0.04866607	-0.3456205	-0.002876143	-0.000294684	
-0.002169462	-0.0003622649	-0.03777837	-0.1734126	-0.002876143	-0.000294684	0.07026439	-0.4730299	

2.38e+10	-0.06135422	-0.2896431	-0.003948684	0.004351738	-0.1050983	-0.03370291	-0.002106775	0.0002889669	
-0.003948684	0.004351738	-0.05415945	-0.4864443	-0.003730318	0.004318566	-0.04691185	-0.1699648	
-0.1050983	-0.03370291	-0.003730318	0.004318566	-0.04936747	-0.3249311	-0.003103747	0.0007302638	
-0.002106775	0.0002889669	-0.04691185	-0.1699648	-0.003103747	0.0007302638	0.04691688	-0.47738	

2.382e+10	-0.04682332	-0.2767773	-0.002687409	0.005476004	-0.08858945	-0.01471355	-0.001778568	0.0009540596	
-0.002687409	0.005476004	-0.07630977	-0.477592	-0.002885036	0.005781433	-0.05631165	-0.1649424	
-0.08858945	-0.01471355	-0.002885036	0.005781433	-0.04529734	-0.3045093	-0.002937095	0.001946233	
-0.001778568	0.0009540596	-0.05631165	-0.1649424	-0.002937095	0.001946233	0.02199043	-0.4776441	

2.384e+10	-0.02789499	-0.26576	-0.001006145	0.006194318	-0.06733675	0.001610397	-0.001169654	0.001444919	
-0.001006145	0.006194318	-0.09767276	-0.4646962	-0.001388247	0.007102193	-0.06524491	-0.1581393	
-0.06733675	0.001610397	-0.001388247	0.007102193	-0.03664115	-0.2845708	-0.002221147	0.003127769	
-0.001169654	0.001444919	-0.06524491	-0.1581393	-0.002221147	0.003127769	-0.003143824	-0.4727695	

2.386e+10	-0.003873993	-0.2598911	0.0008821563	0.006308823	-0.04110912	0.01293799	-0.000426741	0.001619727	
0.0008821563	0.006308823	-0.1169524	-0.4473862	0.0007165216	0.007917645	-0.07338649	-0.1498667	
-0.04110912	0.01293799	0.0007165216	0.007917645	-0.02229648	-0.2659671	-0.001011385	0.00395916	
-0.000426741	0.001619727	-0.07338649	-0.1498667	-0.001011385	0.00395916	-0.02671956	-0.4629796	

2.388e+10	0.02215367	-0.262557	0.002704774	0.005801465	-0.01195744	0.01653678	0.0002664913	0.001489448	
0.002704774	0.005801465	-0.1328761	-0.426092	0.003167475	0.007948204	-0.08085757	-0.1403321	
-0.01195744	0.01653678	0.003167475	0.007948204	-0.001838527	-0.2514033	0.0004460271	0.004260114	
0.0002664913	0.001489448	-0.08085757	-0.1403321	0.0004460271	0.004260114	-0.0478416	-0.4495213	

2.39e+10	0.04534458	-0.2732532	0.004268523	0.004776264	0.01640709	0.01193358	0.0008167864	0.001160231	
0.004268523	0.004776264	-0.1447881	-0.4017244	0.005608069	0.007106401	-0.08787636	-0.1290637	
0.01640709	0.01193358	0.005608069	0.007106401	0.02270335	-0.2438554	0.00190575	0.004026914	
0.0008167864	0.001160231	-0.08787636	-0.1290637	0.00190575	0.004026914	-0.06703227	-0.4330021	

2.392e+10	0.06350687	-0.2885337	0.005464858	0.003338644	0.04136551	0.001016514	0.001231696	0.0007028034	
0.005464858	0.003338644	-0.1524556	-0.3747023	0.007730351	0.005449526	-0.09390059	-0.1151335	
0.04136551	0.001016514	0.007730351	0.005449526	0.04777715	-0.2441084	0.003234255	0.003341807	
0.001231696	0.0007028034	-0.09390059	-0.1151335	0.003234255	0.003341807	-0.08444388	-0.4124748	

2.394e+10	0.07773646	-0.3060209	0.006174204	0.001580557	0.06243609	-0.01419774	0.001497569	0.0001139828	
0.006174204	0.001580557	-0.1550398	-0.3448182	0.009260179	0.003101288	-0.09734522	-0.0980272	
0.06243609	-0.01419774	0.009260179	0.003101288	0.07056061	-0.2506579	0.00433558	0.002216051	
0.001497569	0.0001139828	-0.09734522	-0.0980272	0.00433558	0.002216051	-0.09848759	-0.3866642	

2.396e+10	0.08877845	-0.3260392	0.006261399	-0.0003186131	0.0795199	-0.03301467	0.001527265	-0.0005789035	
0.006261399	-0.0003186131	-0.1504927	-0.3127008	0.009931377	0.0002827167	-0.09636256	-0.07856339	
0.0795199	-0.03301467	0.009931377	0.0002827167	0.09026668	-0.2615305	0.005010817	0.0006781658	
0.001527265	-0.0005789035	-0.09636256	-0.07856339	0.005010817	0.0006781658	-0.1059981	-0.3562449	

2.398e+10	0.09519042	-0.3488665	0.005700897	-0.002082058	0.09163354	-0.0549176	0.0012552	-0.001250783	
0.005700897	-0.002082058	-0.1368447	-0.2808221	0.00956326	-0.002623928	-0.08979605	-0.05862668	
0.09163354	-0.0549176	0.00956326	-0.002623928	0.1069902	-0.2757944	0.005041258	-0.001067783	
0.0012552	-0.001250783	-0.08979605	-0.05862668	0.005041258	-0.001067783	-0.1049715	-0.3240311	

2.4e+10	0.0953467	-0.3725113	0.004637033	-0.003453066	0.09778176	-0.07809448	0.0007217139	-0.001740824	
0.004637033	-0.003453066	-0.1139827	-0.2530322	0.008207271	-0.005147813	-0.07770199	-0.04017371	
0.09778176	-0.07809448	0.008207271	-0.005147813	0.1203532	-0.2931889	0.004376659	-0.002671734	
0.0007217139	-0.001740824	-0.07770199	-0.04017371	0.004376659	-0.002671734	-0.0957258	-0.29322	

2.402e+10	0.08987827	-0.3940088	0.003320121	-0.004309086	0.09843052	-0.1002721	6.688069e-05	-0.001949353	
0.003320121	-0.004309086	-0.08403008	-0.2323839	0.006174213	-0.006918107	-0.06064189	-0.02461179	
0.09843052	-0.1002721	0.006174213	-0.006918107	0.1293336	-0.3129803	0.003202905	-0.003829681	
6.688069e-05	-0.001949353	-0.06064189	-0.02461179	0.003202905	-0.003829681	-0.07961898	-0.2653839	

2.404e+10	0.08117045	-0.4120919	0.001986979	-0.00468626	0.09515912	-0.1201772	-0.00054857	-0.001893122	
0.001986979	-0.00468626	-0.04967972	-0.220267	0.003893502	-0.007817698	-0.0390498	-0.01330124	
0.09515912	-0.1201772	0.003893502	-0.007817698	0.1333557	-0.3335818	0.00181944	-0.004438239	
-0.00054857	-0.001893122	-0.0390498	-0.01330124	0.00181944	-0.004438239	-0.05702013	-0.2412121	

2.406e+10	0.07106559	-0.4276049	0.0007681566	-0.004707337	0.08944113	-0.1379169	-0.001038874	-0.001673575	
0.0007681566	-0.004707337	-0.01310906	-0.2174452	0.001719532	-0.007956511	-0.01378162	-0.008313604	
0.08944113	-0.1379169	0.001719532	-0.007956511	0.1331021	-0.3531389	0.0004424046	-0.004551249	
-0.001038874	-0.001673575	-0.01378162	-0.008313604	0.0004424046	-0.004551249	-0.0275416	-0.2229251	

2.408e+10	0.05958793	-0.4417088	-0.0003021668	-0.004472605	0.08169042	-0.1540392	-0.001407744	-0.001379528	
-0.0003021668	-0.004472605	0.02303892	-0.2245914	-0.0001529021	-0.007538249	0.01235641	-0.01156171	
0.08169042	-0.1540392	-0.0001529021	-0.007538249	0.1300459	-0.3711036	-0.0007932263	-0.004254994	
-0.001407744	-0.001379528	0.01235641	-0.01156171	-0.0007932263	-0.004254994	0.006844339	-0.2141006	

2.41e+10	0.04578943	-0.454258	-0.001199931	-0.004027656	0.07168702	-0.1683854	-0.001683755	-0.001039908	
-0.001199931	-0.004027656	0.05524922	-0.2413469	-0.001641004	-0.006752151	0.03542738	-0.02252716	
0.07168702	-0.1683854	-0.001641004	-0.006752151	0.1249923	-0.3880253	-0.001781407	-0.00363952	
-0.001683755	-0.001039908	0.03542738	-0.02252716	-0.001781407	-0.00363952	0.04137844	-0.2162162	

2.412e+10	0.02975325	-0.463997	-0.001868953	-0.003433604	0.0597782	-0.1802986	-0.001859622	-0.0006588921	
-0.001868953	-0.003433604	0.0804917	-0.2651623	-0.002717448	-0.005767031	0.05302174	-0.03832918	
0.0597782	-0.1802986	-0.002717448	-0.005767031	0.1176075	-0.404281	-0.002438663	-0.002833207	
-0.001859622	-0.0006588921	0.05302174	-0.03832918	-0.002438663	-0.002833207	0.07159996	-0.2270584	

2.414e+10	0.01274563	-0.4701173	-0.002284875	-0.002811539	0.04691535	-0.1895194	-0.001909543	-0.0002816362	
-0.002284875	-0.002811539	0.09773794	-0.292566	-0.003404067	-0.004740752	0.065357	-0.05615043	
0.04691535	-0.1895194	-0.003404067	-0.004740752	0.1073012	-0.4192775	-0.002750717	-0.002001449	
-0.001909543	-0.0002816362	0.065357	-0.05615043	-0.002750717	-0.002001449	0.09639317	-0.242978	

2.416e+10	-0.003781896	-0.4731049	-0.002526455	-0.002282027	0.03385753	-0.1964639	-0.001867569	1.075654e-05	
-0.002526455	-0.002282027	0.1079173	-0.3208366	-0.003787944	-0.003806501	0.07344511	-0.07484273	
0.03385753	-0.1964639	-0.003787944	-0.003806501	0.0943834	-0.431795	-0.00279922	-0.001292236	
-0.001867569	1.075654e-05	0.07344511	-0.07484273	-0.00279922	-0.001292236	0.1167787	-0.2621783	

2.418e+10	-0.01943595	-0.4742119	-0.002732789	-0.001852325	0.02086614	-0.2018142	-0.001843435	0.0002031915	
-0.002732789	-0.001852325	0.1123233	-0.3487584	-0.004006131	-0.003022126	0.07748102	-0.09417268	
0.02086614	-0.2018142	-0.004006131	-0.003022126	0.08020104	-0.4412303	-0.002734891	-0.0007610232	
-0.001843435	0.0002031915	0.07748102	-0.09417268	-0.002734891	-0.0007610232	0.1329096	-0.2846494	

2.42e+10	-0.03507322	-0.4740944	-0.002964976	-0.001423761	0.007538557	-0.205882	-0.00190453	0.0003937159	
-0.002964976	-0.001423761	0.1116736	-0.3758713	-0.004171314	-0.002338918	0.07706774	-0.1131467	
0.007538557	-0.205882	-0.004171314	-0.002338918	0.06578741	-0.4482177	-0.002673567	-0.0003462868	
-0.00190453	0.0003937159	0.07706774	-0.1131467	-0.002673567	-0.0003462868	0.1434827	-0.3099281	

2.422e+10	-0.05139192	-0.47192	-0.003166693	-0.0009224074	-0.006393661	-0.208432	-0.001993616	0.0006821785	
-0.003166693	-0.0009224074	0.1061548	-0.4015244	-0.004301378	-0.001680498	0.07275617	-0.1302352	
-0.006393661	-0.208432	-0.004301378	-0.001680498	0.05105296	-0.4536463	-0.002627175	4.723354e-05	
-0.001993616	0.0006821785	0.07275617	-0.1302352	-0.002627175	4.723354e-05	0.1476036	-0.3359	

2.424e+10	-0.06777989	-0.4665522	-0.003268392	-0.0003746978	-0.02073177	-0.2090344	-0.002003909	0.001066844	
-0.003268392	-0.0003746978	0.09626577	-0.4246759	-0.004356327	-0.001024174	0.06607597	-0.1446091	
-0.02073177	-0.2090344	-0.004356327	-0.001024174	0.03516369	-0.4574104	-0.002542342	0.0004496561	
-0.002003909	0.001066844	0.06607597	-0.1446091	-0.002542342	0.0004496561	0.1460537	-0.3601195	

2.426e+10	-0.08270477	-0.4578197	-0.003264736	0.0001568165	-0.03500897	-0.2075582	-0.001886401	0.001459028	
-0.003264736	0.0001568165	0.0830942	-0.4444389	-0.004318675	-0.0004036725	0.05835235	-0.1566871	
-0.03500897	-0.2075582	-0.004318675	-0.0004036725	0.01810605	-0.4583825	-0.002389268	0.000825024	
-0.001886401	0.001459028	0.05835235	-0.1566871	-0.002389268	0.000825024	0.1409262	-0.3815459	

2.428e+10	-0.09506453	-0.4468599	-0.003204621	0.0006415099	-0.04884764	-0.2042501	-0.001695189	0.001778258	
-0.003204621	0.0006415099	0.06800016	-0.4607188	-0.004223151	0.0001467377	0.04998304	-0.1673553	
-0.04884764	-0.2042501	-0.004223151	0.0001467377	0.001010134	-0.4557189	-0.00219835	0.001134653	
-0.001695189	0.001778258	0.04998304	-0.1673553	-0.00219835	0.001134653	0.133663	-0.4008946	

2.43e+10	-0.1052049	-0.4348651	-0.00313277	0.001109987	-0.06233538	-0.199278	-0.00152454	0.002044583	
-0.00313277	0.001109987	0.05184523	-0.4740836	-0.004125866	0.0006379805	0.04055812	-0.1768591	
-0.06233538	-0.199278	-0.004125866	0.0006379805	-0.0147092	-0.4497996	-0.002026048	0.001394548	
-0.00152454	0.002044583	0.04055812	-0.1768591	-0.002026048	0.001394548	0.1241712	-0.4188728	

2.432e+10	-0.1142482	-0.4216666	-0.003041612	0.001615892	-0.07566542	-0.1924818	-0.001389831	0.002361349	
-0.003041612	0.001615892	0.03466833	-0.4850727	-0.004051264	0.001129609	0.03000075	-0.1847399	
-0.07566542	-0.1924818	-0.004051264	0.001129609	-0.02867899	-0.4418102	-0.001884772	0.001669266	
-0.001389831	0.002361349	0.03000075	-0.1847399	-0.001884772	0.001669266	0.1118077	-0.4350525	

2.434e+10	-0.121815	-0.4060305	-0.002874489	0.002184229	-0.08867852	-0.1831955	-0.00119579	0.002795375	
-0.002874489	0.002184229	0.01634453	-0.4934794	-0.003968082	0.001677	0.01893774	-0.1907422	
-0.08867852	-0.1831955	-0.003968082	0.001677	-0.04166971	-0.4320452	-0.001721233	0.002008197	
-0.00119579	0.002795375	0.01893774	-0.1907422	-0.001721233	0.002008197	0.0968846	-0.4481469	

2.436e+10	-0.1259735	-0.3874765	-0.002570926	0.002784135	-0.1004698	-0.1708365	-0.0008152154	0.003299071	
-0.002570926	0.002784135	-0.002742227	-0.4987825	-0.003813565	0.002295046	0.007930915	-0.1951689	
-0.1004698	-0.1708365	-0.003813565	0.002295046	-0.05385435	-0.4195275	-0.001457193	0.002398548	
-0.0008152154	0.003299071	0.007930915	-0.1951689	-0.001457193	0.002398548	0.08093871	-0.4574853	

2.438e+10	-0.1247732	-0.3675699	-0.002111302	0.003347506	-0.1097222	-0.1554835	-0.0002157052	0.003733073	
-0.002111302	0.003347506	-0.02165046	-0.5008923	-0.00353604	0.002950303	-0.002916604	-0.1986886	
-0.1097222	-0.1554835	-0.00353604	0.002950303	-0.06379948	-0.4031328	-0.001053033	0.002764857	
-0.0002157052	0.003733073	-0.002916604	-0.1986886	-0.001053033	0.002764857	0.06542706	-0.4637171	

2.44e+10	-0.1182067	-0.3488258	-0.001535416	0.003825253	-0.1153502	-0.1381041	0.0005136462	0.004007416	
-0.001535416	0.003825253	-0.03955958	-0.5004188	-0.003128565	0.003593932	-0.01410767	-0.2015469	
-0.1153502	-0.1381041	-0.003128565	0.003593932	-0.06913493	-0.3834677	-0.00054454	0.003035545	
0.0005136462	0.004007416	-0.01410767	-0.2015469	-0.00054454	0.003035545	0.05058768	-0.4682553	

2.442e+10	-0.1078279	-0.3326503	-0.0008761637	0.004238284	-0.117124	-0.1197703	0.001293259	0.004167028	
-0.0008761637	0.004238284	-0.05655592	-0.4982404	-0.002605762	0.004217441	-0.02604268	-0.2033794	
-0.117124	-0.1197703	-0.002605762	0.004217441	-0.06860957	-0.3627588	9.423633e-06	0.003213886	
0.001293259	0.004167028	-0.02604268	-0.2033794	9.423633e-06	0.003213886	0.03550457	-0.4715352	

2.444e+10	-0.09448821	-0.3183746	-8.161371e-05	0.004611078	-0.1149957	-0.1011329	0.002194075	0.004263349	
-8.161371e-05	0.004611078	-0.07321517	-0.4944386	-0.001933472	0.004838922	-0.03856351	-0.2037018	
-0.1149957	-0.1011329	-0.001933472	0.004838922	-0.06284712	-0.3431015	0.000620687	0.003341441	
0.002194075	0.004263349	-0.03856351	-0.2037018	0.000620687	0.003341441	0.01965545	-0.4727115	

2.446e+10	-0.07683634	-0.3061244	0.000935493	0.004857946	-0.1082446	-0.08254989	0.003327146	0.00417591	
0.000935493	0.004857946	-0.08963859	-0.4884022	-0.001018873	0.005407754	-0.0512589	-0.2022763	
-0.1082446	-0.08254989	-0.001018873	0.005407754	-0.0526868	-0.3247235	0.001365315	0.003382332	
0.003327146	0.00417591	-0.0512589	-0.2022763	0.001365315	0.003382332	0.003944538	-0.4708335	

2.448e+10	-0.05387077	-0.2988027	0.002149564	0.004792837	-0.09579659	-0.06596233	0.0046214	0.003656839	
0.002149564	0.004792837	-0.1049392	-0.4796855	0.0001769466	0.005758582	-0.06375502	-0.1992904	
-0.09579659	-0.06596233	0.0001769466	0.005758582	-0.03715419	-0.3080173	0.002248052	0.003188235	
0.0046214	0.003656839	-0.06375502	-0.1992904	0.002248052	0.003188235	-0.01017976	-0.4661589	

2.45e+10	-0.02826755	-0.3001016	0.003355896	0.004295505	-0.07850235	-0.05439815	0.005764257	0.002599756	
0.003355896	0.004295505	-0.1182593	-0.4687319	0.001530436	0.005707678	-0.07615858	-0.1948341	
-0.07850235	-0.05439815	0.001530436	0.005707678	-0.01520666	-0.2955891	0.003101946	0.002634926	
0.005764257	0.002599756	-0.07615858	-0.1948341	0.003101946	0.002634926	-0.02213373	-0.460128	

2.452e+10	-0.005117658	-0.3102578	0.004330245	0.003461122	-0.05953681	-0.04970992	0.006479497	0.001210498	
0.004330245	0.003461122	-0.1293645	-0.4565562	0.002801592	0.005229987	-0.08848702	-0.1888138	
-0.05953681	-0.04970992	0.002801592	0.005229987	0.01116031	-0.2913063	0.003698199	0.00180573	
0.006479497	0.001210498	-0.08848702	-0.1888138	0.003698199	0.00180573	-0.0328064	-0.4537857	

2.454e+10	0.01260628	-0.3259263	0.005044999	0.002481354	-0.04204331	-0.05085777	0.006798296	-0.0002333508	
0.005044999	0.002481354	-0.1389407	-0.4436315	0.00385087	0.004471837	-0.1006762	-0.1807309	
-0.04204331	-0.05085777	0.00385087	0.004471837	0.03741052	-0.2965093	0.003996784	0.0009164137	
0.006798296	-0.0002333508	-0.1006762	-0.1807309	0.003996784	0.0009164137	-0.04335489	-0.4465001	

2.456e+10	0.02540603	-0.3440733	0.005597468	0.001393842	-0.02703985	-0.05583511	0.006885157	-0.00169447	
0.005597468	0.001393842	-0.1474497	-0.4291983	0.0047053	0.003540422	-0.1121439	-0.1700752	
-0.02703985	-0.05583511	0.0047053	0.003540422	0.05987153	-0.3091356	0.004125951	5.366018e-05	
0.006885157	-0.00169447	-0.1121439	-0.1700752	0.004125951	5.366018e-05	-0.05332574	-0.4368876	

2.458e+10	0.03428691	-0.3645512	0.005953526	0.0001076923	-0.01445424	-0.06382681	0.00670892	-0.003297272	
0.005953526	0.0001076923	-0.1539118	-0.4125337	0.005373672	0.002410854	-0.1218971	-0.1568659	
-0.01445424	-0.06382681	0.005373672	0.002410854	0.07746982	-0.3263716	0.004131746	-0.0008619627	
0.00670892	-0.003297272	-0.1218971	-0.1568659	0.004131746	-0.0008619627	-0.06090161	-0.4246754	

2.46e+10	0.03799878	-0.3875415	0.005928228	-0.001341421	-0.00504564	-0.07464567	0.006048112	-0.004990467	
0.005928228	-0.001341421	-0.1567593	-0.3941189	0.005728229	0.001073768	-0.1292121	-0.1415549	
-0.00504564	-0.07464567	0.005728229	0.001073768	0.09051875	-0.3470598	0.00388871	-0.001860822	
0.006048112	-0.004990467	-0.1292121	-0.1415549	0.00388871	-0.001860822	-0.06476626	-0.4114741	

2.462e+10	0.03479732	-0.4109494	0.005433333	-0.002714764	-1.820762e-05	-0.086935	0.004817901	-0.006464653	
0.005433333	-0.002714764	-0.1554221	-0.3755928	0.005634284	-0.0003043923	-0.1336195	-0.1249515	
-1.820762e-05	-0.086935	0.005634284	-0.0003043923	0.09829601	-0.3706991	0.003291984	-0.002771814	
0.004817901	-0.006464653	-0.1336195	-0.1249515	0.003291984	-0.002771814	-0.06558375	-0.3992289	

2.464e+10	0.02534196	-0.4313863	0.004628135	-0.003797807	0.000766546	-0.09847302	0.003246465	-0.007460661	
0.004628135	-0.003797807	-0.1507252	-0.3582111	0.005149859	-0.001482147	-0.1352597	-0.1074748	
0.000766546	-0.09847302	0.005149859	-0.001482147	0.09960054	-0.3958829	0.002454917	-0.00338872	
0.003246465	-0.007460661	-0.1352597	-0.1074748	0.002454917	-0.00338872	-0.06505839	-0.3879832	

2.466e+10	0.01243109	-0.4472773	0.003733654	-0.004616937	-0.001048737	-0.1078749	0.001623883	-0.008024642	
0.003733654	-0.004616937	-0.1435327	-0.3417848	0.004490586	-0.002369521	-0.1337489	-0.0890646	
-0.001048737	-0.1078749	0.004490586	-0.002369521	0.09418141	-0.4198973	0.001607606	-0.003700596	
0.001623883	-0.008024642	-0.1337489	-0.0890646	0.001607606	-0.003700596	-0.06331535	-0.3762194	

2.468e+10	-0.001627978	-0.4594871	0.002769889	-0.005321815	-0.003854267	-0.1154557	-1.092502e-05	-0.008346093	
0.002769889	-0.005321815	-0.1331252	-0.3257257	0.003783069	-0.003068392	-0.127946	-0.07022264	
-0.003854267	-0.1154557	0.003783069	-0.003068392	0.08362504	-0.4406756	0.0008308394	-0.003865315	
-1.092502e-05	-0.008346093	-0.127946	-0.07022264	0.0008308394	-0.003865315	-0.0582877	-0.3636584	

2.47e+10	-0.01659175	-0.4694869	0.001607643	-0.005911809	-0.007266199	-0.122124	-0.001792552	-0.008433295	
0.001607643	-0.005911809	-0.1180037	-0.3114655	0.002978612	-0.003655525	-0.1171151	-0.05292871	
-0.007266199	-0.122124	0.002978612	-0.003655525	0.07005494	-0.4578111	2.965232e-05	-0.003960189	
-0.001792552	-0.008433295	-0.1171151	-0.05292871	2.965232e-05	-0.003960189	-0.04853489	-0.3528476	

2.472e+10	-0.03348188	-0.477257	0.0002222143	-0.006205022	-0.01174394	-0.1281028	-0.003737983	-0.008078625	
0.0002222143	-0.006205022	-0.09863355	-0.3017697	0.002023596	-0.004045964	-0.1022674	-0.03935922	
-0.01174394	-0.1281028	0.002023596	-0.004045964	0.05454189	-0.471969	-0.0008647333	-0.003884514	
-0.003737983	-0.008078625	-0.1022674	-0.03935922	-0.0008647333	-0.003884514	-0.03576998	-0.3467901	

2.474e+10	-0.05228273	-0.4813489	-0.001204878	-0.006073948	-0.01742213	-0.1327819	-0.005606854	-0.007127601	
-0.001204878	-0.006073948	-0.07785151	-0.2982363	0.001022091	-0.004118364	-0.08561242	-0.03026651	
-0.01742213	-0.1327819	0.001022091	-0.004118364	0.03684816	-0.483518	-0.001741237	-0.003515398	
-0.005606854	-0.007127601	-0.08561242	-0.03026651	-0.001741237	-0.003515398	-0.02352566	-0.3456203	

2.476e+10	-0.07128123	-0.4806835	-0.002471053	-0.005594692	-0.02362427	-0.1356685	-0.00711065	-0.005688559	
-0.002471053	-0.005594692	-0.05815318	-0.2997307	0.0001616428	-0.003905556	-0.06839745	-0.02469204	
-0.02362427	-0.1356685	0.0001616428	-0.003905556	0.01675038	-0.4917248	-0.002415722	-0.002901498	
-0.00711065	-0.005688559	-0.06839745	-0.02469204	-0.002415722	-0.002901498	-0.01315755	-0.3467605	

2.478e+10	-0.08847492	-0.4759769	-0.003537516	-0.004926603	-0.02950814	-0.1370595	-0.008156671	-0.004010044	
-0.003537516	-0.004926603	-0.03973887	-0.3045987	-0.0004802343	-0.003576805	-0.05037741	-0.02235576	
-0.02950814	-0.1370595	-0.0004802343	-0.003576805	-0.004798074	-0.4953168	-0.002826482	-0.002222625	
-0.008156671	-0.004010044	-0.05037741	-0.02235576	-0.002826482	-0.002222625	-0.003105847	-0.3489162	

2.48e+10	-0.1034476	-0.4689455	-0.004482174	-0.004128795	-0.03489153	-0.1376878	-0.008841045	-0.002240412	
-0.004482174	-0.004128795	-0.02216152	-0.3130766	-0.0009852229	-0.003257051	-0.03188882	-0.02439849	
-0.03489153	-0.1376878	-0.0009852229	-0.003257051	-0.02607377	-0.4940525	-0.003074064	-0.001598211	
-0.008841045	-0.002240412	-0.03188882	-0.02439849	-0.003074064	-0.001598211	0.007540565	-0.3537897	

2.482e+10	-0.1168572	-0.4604632	-0.005333091	-0.003136417	-0.04026799	-0.1379739	-0.009239897	-0.0003598063	
-0.005333091	-0.003136417	-0.006613903	-0.3260729	-0.001462033	-0.002931102	-0.01510521	-0.03138631	
-0.04026799	-0.1379739	-0.001462033	-0.002931102	-0.04582018	-0.489008	-0.003274641	-0.0009999085	
-0.009239897	-0.0003598063	-0.01510521	-0.03138631	-0.003274641	-0.0009999085	0.01648671	-0.3629257	

2.484e+10	-0.129618	-0.4496611	-0.005989863	-0.001887447	-0.04617395	-0.1374411	-0.009267802	0.001699288	
-0.005989863	-0.001887447	0.004527669	-0.3426701	-0.001913287	-0.002518836	-0.002124449	-0.04154972	
-0.04617395	-0.1374411	-0.001913287	-0.002518836	-0.06403902	-0.4811672	-0.003421585	-0.000332475	
-0.009267802	0.001699288	-0.002124449	-0.04154972	-0.003421585	-0.000332475	0.02078941	-0.3745435	

2.486e+10	-0.1404637	-0.4354035	-0.006303607	-0.0004407912	-0.052332	-0.13527	-0.008737561	0.003839159	
-0.006303607	-0.0004407912	0.01050996	-0.3602667	-0.002261048	-0.00200111	0.00727238	-0.05245629	
-0.052332	-0.13527	-0.002261048	-0.00200111	-0.08130387	-0.4704055	-0.003411057	0.0004182209	
-0.008737561	0.003839159	0.00727238	-0.05245629	-0.003411057	0.0004182209	0.02049855	-0.3849646	

2.488e+10	-0.1472337	-0.4180929	-0.006195993	0.001040189	-0.05771889	-0.1312383	-0.007575716	0.005779511	
-0.006195993	0.001040189	0.01266035	-0.3768774	-0.002454234	-0.00145143	0.01472354	-0.06336079	
-0.05771889	-0.1312383	-0.002454234	-0.00145143	-0.09710466	-0.4556682	-0.003177225	0.001145751	
-0.007575716	0.005779511	0.01472354	-0.06336079	-0.003177225	0.001145751	0.01849746	-0.3926746	

2.49e+10	-0.148802	-0.3999029	-0.005731428	0.00238459	-0.06155641	-0.1258746	-0.005969037	0.007246173	
-0.005731428	0.00238459	0.01260185	-0.3924877	-0.002539749	-0.000946543	0.02079159	-0.07511456	
-0.06155641	-0.1258746	-0.002539749	-0.000946543	-0.1095036	-0.436597	-0.002788336	0.001727494	
-0.005969037	0.007246173	0.02079159	-0.07511456	-0.002788336	0.001727494	0.01682199	-0.3991957	

2.492e+10	-0.1459453	-0.382995	-0.005042356	0.003556991	-0.06373366	-0.1200171	-0.00422305	0.008231297	
-0.005042356	0.003556991	0.01053045	-0.4078541	-0.002599581	-0.0004630558	0.02450435	-0.08810896	
-0.06373366	-0.1200171	-0.002599581	-0.0004630558	-0.1166761	-0.4145329	-0.002382077	0.002177424	
-0.00422305	0.008231297	0.02450435	-0.08810896	-0.002382077	0.002177424	0.01455892	-0.4063393	

2.494e+10	-0.1401376	-0.3675614	-0.004146973	0.004621877	-0.06455732	-0.1139654	-0.002414401	0.008935766	
-0.004146973	0.004621877	0.005734724	-0.4228511	-0.002621971	9.522686e-05	0.02504926	-0.1011134	
-0.06455732	-0.1139654	-0.002621971	9.522686e-05	-0.1181004	-0.3916615	-0.001983853	0.002628842	
-0.002414401	0.008935766	0.02504926	-0.1011134	-0.001983853	0.002628842	0.009898057	-0.4132715	

2.496e+10	-0.1311166	-0.3527502	-0.002942527	0.005536418	-0.0639167	-0.1073064	-0.0003630185	0.009385582	
-0.002942527	0.005536418	-0.001872995	-0.436236	-0.002475811	0.0007489061	0.02317709	-0.1126504	
-0.0639167	-0.1073064	-0.002475811	0.0007489061	-0.1144874	-0.3691647	-0.001442361	0.003144587	
-0.0003630185	0.009385582	0.02317709	-0.1126504	-0.001442361	0.003144587	0.00318588	-0.4176979	

2.498e+10	-0.1173127	-0.3395454	-0.001415419	0.006092032	-0.06060689	-0.1004296	0.001991014	0.009277768	
-0.001415419	0.006092032	-0.01123188	-0.4471189	-0.002053802	0.001367645	0.02041942	-0.1226924	
-0.06060689	-0.1004296	-0.002053802	0.001367645	-0.1059112	-0.3470698	-0.0006096276	0.00357398	
0.001991014	0.009277768	0.02041942	-0.1226924	-0.0006096276	0.00357398	-0.003114015	-0.4188184	

2.5e+10	-0.09858975	-0.3311349	0.0002279746	0.00609804	-0.05409869	-0.09507631	0.004304916	0.008319946	
0.0002279746	0.00609804	-0.02095142	-0.4557687	-0.001410068	0.001762572	0.01725087	-0.1323001	
-0.05409869	-0.09507631	-0.001410068	0.001762572	-0.09112617	-0.3263773	0.0004436735	0.00367008	
0.004304916	0.008319946	0.01725087	-0.1323001	0.0004436735	0.00367008	-0.007098836	-0.4184098	

2.502e+10	-0.07806746	-0.3299913	0.001681893	0.005598939	-0.04556366	-0.09325405	0.00606197	0.006663887	
0.001681893	0.005598939	-0.03078727	-0.4631579	-0.0007194198	0.001862484	0.01289155	-0.1420663	
-0.04556366	-0.09325405	-0.0007194198	0.001862484	-0.06958341	-0.3100272	0.001464171	0.003355025	
0.00606197	0.006663887	0.01289155	-0.1420663	0.001464171	0.003355025	-0.009436138	-0.4187137	

2.504e+10	-0.05953509	-0.3352447	0.002822971	0.004822044	-0.03739138	-0.09526469	0.007130341	0.004776772	
0.002822971	0.004822044	-0.04124029	-0.4697733	-0.0001176017	0.001745242	0.00653884	-0.1512787	
-0.03739138	-0.09526469	-0.0001176017	0.001745242	-0.04342248	-0.3012567	0.002285726	0.002773498	
0.007130341	0.004776772	0.00653884	-0.1512787	0.002285726	0.002773498	-0.01212248	-0.419815	

2.506e+10	-0.04410158	-0.3442667	0.003726241	0.003904333	-0.03095932	-0.09976679	0.007743489	0.002877932	
0.003726241	0.003904333	-0.05285433	-0.475099	0.0003882701	0.001500789	-0.001380057	-0.158774	
-0.03095932	-0.09976679	0.0003882701	0.001500789	-0.01656034	-0.3009147	0.002946736	0.002032134	
0.007743489	0.002877932	-0.001380057	-0.158774	0.002946736	0.002032134	-0.01557033	-0.4200215	

2.508e+10	-0.03094744	-0.3558769	0.00443082	0.002815899	-0.02612633	-0.1057299	0.007972986	0.0008512501	
0.00443082	0.002815899	-0.06514668	-0.4783139	0.0008197093	0.001126041	-0.009697787	-0.1644443	
-0.02612633	-0.1057299	0.0008197093	0.001126041	0.008342043	-0.3072968	0.003447993	0.00105949	
0.007972986	0.0008512501	-0.009697787	-0.1644443	0.003447993	0.00105949	-0.01810027	-0.4184187	

2.51e+10	-0.0200277	-0.3708796	0.004821577	0.001531625	-0.02280374	-0.1131959	0.007553113	-0.001283562	
0.004821577	0.001531625	-0.07712199	-0.4793456	0.001107717	0.0005894796	-0.01786931	-0.1690783	
-0.02280374	-0.1131959	0.001107717	0.0005894796	0.03058715	-0.3188261	0.003574889	-0.0001651233	
0.007553113	-0.001283562	-0.01786931	-0.1690783	0.003574889	-0.0001651233	-0.01806731	-0.4164783	

2.512e+10	-0.01340278	-0.3892593	0.004759763	0.0002168472	-0.02193358	-0.1221463	0.00634439	-0.003068774	
0.004759763	0.0002168472	-0.08817448	-0.4790122	0.001133681	-3.745358e-05	-0.02639052	-0.1732718	
-0.02193358	-0.1221463	0.001133681	-3.745358e-05	0.04998726	-0.3351528	0.003125189	-0.001368286	
0.00634439	-0.003068774	-0.02639052	-0.1732718	0.003125189	-0.001368286	-0.01611828	-0.4165383	

2.514e+10	-0.0126466	-0.4087844	0.004308352	-0.0008789719	-0.02440082	-0.1312714	0.004734065	-0.004080427	
0.004308352	-0.0008789719	-0.09866901	-0.4781354	0.0008795626	-0.0005743865	-0.03591919	-0.1767063	
-0.02440082	-0.1312714	0.0008795626	-0.0005743865	0.06505419	-0.3561677	0.002235608	-0.002171606	
0.004734065	-0.004080427	-0.03591919	-0.1767063	0.002235608	-0.002171606	-0.01464834	-0.4190541	

2.516e+10	-0.0170751	-0.4266184	0.003692885	-0.001660423	-0.02973322	-0.1388113	0.003267707	-0.004404627	
0.003692885	-0.001660423	-0.109401	-0.476523	0.0004775301	-0.0009061763	-0.0463158	-0.1784473	
-0.02973322	-0.1388113	0.0004775301	-0.0009061763	0.07404843	-0.3803082	0.001271007	-0.002483338	
0.003267707	-0.004404627	-0.0463158	-0.1784473	0.001271007	-0.002483338	-0.01489909	-0.4222172	

2.518e+10	-0.02446799	-0.4416527	0.00307443	-0.002231655	-0.03642263	-0.1440465	0.002108419	-0.004442121	
0.00307443	-0.002231655	-0.1204568	-0.4732609	6.728079e-05	-0.001059366	-0.05662438	-0.1781789	
-0.03642263	-0.1440465	6.728079e-05	-0.001059366	0.07655339	-0.4048763	0.0004474483	-0.002489306	
0.002108419	-0.004442121	-0.05662438	-0.1781789	0.0004474483	-0.002489306	-0.01578778	-0.4244865	

2.52e+10	-0.03337281	-0.4547771	0.002427158	-0.002719496	-0.04332995	-0.1475076	0.001061825	-0.004395773	
0.002427158	-0.002719496	-0.1307391	-0.4679394	-0.0003238393	-0.001124914	-0.0660925	-0.1764907	
-0.04332995	-0.1475076	-0.0003238393	-0.001124914	0.07392841	-0.4279108	-0.0002666858	-0.002357866	
0.001061825	-0.004395773	-0.0660925	-0.1764907	-0.0002666858	-0.002357866	-0.01565516	-0.4265328	

2.522e+10	-0.04415904	-0.466806	0.001651578	-0.003096252	-0.05040065	-0.1499356	-5.777319e-07	-0.0041377	
0.001651578	-0.003096252	-0.1394883	-0.4611348	-0.0007505198	-0.001123232	-0.07484738	-0.174212	
-0.05040065	-0.1499356	-0.0007505198	-0.001123232	0.06779541	-0.4490714	-0.0009435442	-0.00207714	
-5.777319e-07	-0.0041377	-0.07484738	-0.174212	-0.0009435442	-0.00207714	-0.0147836	-0.4302361	

2.524e+10	-0.05769373	-0.4771044	0.0007654918	-0.003226434	-0.05802921	-0.1512502	-0.0009215889	-0.003532978	
0.0007654918	-0.003226434	-0.1466306	-0.4539771	-0.001223343	-0.0009832412	-0.0836572	-0.1713708	
-0.05802921	-0.1512502	-0.001223343	-0.0009832412	0.05862338	-0.4687887	-0.001520075	-0.001579592	
-0.0009215889	-0.003532978	-0.0836572	-0.1713708	-0.001520075	-0.001579592	-0.01529374	-0.4359918	

2.526e+10	-0.07354951	-0.4840946	-6.260742e-05	-0.003055059	-0.06595582	-0.1508951	-0.001471002	-0.002714896	
-6.260742e-05	-0.003055059	-0.1531715	-0.4466141	-0.001658127	-0.0006541567	-0.09264207	-0.1672684	
-0.06595582	-0.1508951	-0.001658127	-0.0006541567	0.04596513	-0.4868952	-0.001866713	-0.0009197512	
-0.001471002	-0.002714896	-0.09264207	-0.1672684	-0.001866713	-0.0009197512	-0.01848429	-0.4419436	

2.528e+10	-0.09009125	-0.4870376	-0.0006986698	-0.002695732	-0.07338012	-0.1488002	-0.001650231	-0.001950711	
-0.0006986698	-0.002695732	-0.1594498	-0.4380847	-0.001953925	-0.0001778211	-0.1010657	-0.1613626	
-0.07338012	-0.1488002	-0.001953925	-0.0001778211	0.02984745	-0.5020936	-0.001946431	-0.0002434758	
-0.001650231	-0.001950711	-0.1010657	-0.1613626	-0.001946431	-0.0002434758	-0.02330427	-0.4461618	

2.53e+10	-0.1055901	-0.4867284	-0.001158467	-0.002299355	-0.0797281	-0.145566	-0.001648892	-0.001369423	
-0.001158467	-0.002299355	-0.164286	-0.4277566	-0.002082904	0.0003511751	-0.1080048	-0.1540751	
-0.0797281	-0.145566	-0.002082904	0.0003511751	0.01143268	-0.5132727	-0.001835341	0.0003418173	
-0.001648892	-0.001369423	-0.1080048	-0.1540751	-0.001835341	0.0003418173	-0.02776195	-0.4487621	

2.532e+10	-0.120079	-0.4844912	-0.001558002	-0.001900121	-0.08509534	-0.1419589	-0.001628023	-0.0008920552	
-0.001558002	-0.001900121	-0.1664916	-0.4162588	-0.00208751	0.0008706567	-0.1133204	-0.146408	
-0.08509534	-0.1419589	-0.00208751	0.0008706567	-0.007594467	-0.5204546	-0.001629678	0.0008249954	
-0.001628023	-0.0008920552	-0.1133204	-0.146408	-0.001629678	0.0008249954	-0.03136759	-0.4515217	

2.534e+10	-0.1343776	-0.4806387	-0.00193609	-0.001396866	-0.0900686	-0.1381649	-0.001559484	-0.0003824688	
-0.00193609	-0.001396866	-0.1657244	-0.4052861	-0.002015002	0.001396815	-0.1177416	-0.1388361	
-0.0900686	-0.1381649	-0.002015002	0.001396815	-0.0264681	-0.5246628	-0.001367229	0.001258113	
-0.001559484	-0.0003824688	-0.1177416	-0.1388361	-0.001367229	0.001258113	-0.0356964	-0.4552928	

2.536e+10	-0.1486582	-0.4740788	-0.002172604	-0.0007193616	-0.09494348	-0.1337962	-0.001303687	0.0001492279	
-0.002172604	-0.0007193616	-0.1633553	-0.3955455	-0.001836268	0.001971915	-0.1218319	-0.130786	
-0.09494348	-0.1337962	-0.001836268	0.001971915	-0.04550528	-0.5264771	-0.00100652	0.001670505	
-0.001303687	0.0001492279	-0.1218319	-0.130786	-0.00100652	0.001670505	-0.0421198	-0.45865	

2.538e+10	-0.1616815	-0.4637646	-0.002117921	3.438019e-05	-0.09941378	-0.1283021	-0.0008132138	0.0005382545	
-0.002117921	3.438019e-05	-0.1600191	-0.3863202	-0.001470529	0.002576022	-0.1249999	-0.1214723	
-0.09941378	-0.1283021	-0.001470529	0.002576022	-0.06511918	-0.5253495	-0.000496987	0.00201275	
-0.0008132138	0.0005382545	-0.1249999	-0.1214723	-0.000496987	0.00201275	-0.04973186	-0.4596575	

2.54e+10	-0.1713512	-0.4503748	-0.001768455	0.000666833	-0.1027797	-0.1218388	-0.0002156035	0.0006410229	
-0.001768455	0.000666833	-0.1548296	-0.3769512	-0.0008659487	0.00310148	-0.1260954	-0.1112855	
-0.1027797	-0.1218388	-0.0008659487	0.00310148	-0.08459602	-0.5202976	0.0001467202	0.002188187	
-0.0002156035	0.0006410229	-0.1260954	-0.1112855	0.0001467202	0.002188187	-0.05631628	-0.4582626	

2.542e+10	-0.1769073	-0.4358885	-0.001276742	0.001058091	-0.1047404	-0.1149469	0.0002934991	0.0004755868	
-0.001276742	0.001058091	-0.1466379	-0.3684847	-7.621192e-05	0.003421551	-0.1247618	-0.101572	
-0.1047404	-0.1149469	-7.621192e-05	0.003421551	-0.102335	-0.5112078	0.000827682	0.002134333	
0.0002934991	0.0004755868	-0.1247618	-0.101572	0.000827682	0.002134333	-0.06088949	-0.4564063	

2.544e+10	-0.1792232	-0.421814	-0.0007921397	0.001272131	-0.1055543	-0.10809	0.0006325904	0.0002017394	
-0.0007921397	0.001272131	-0.135712	-0.3631715	0.0007703532	0.003492141	-0.1220546	-0.09325033	
-0.1055543	-0.10809	0.0007703532	0.003492141	-0.1170066	-0.4992522	0.001433339	0.001887191	
0.0006325904	0.0002017394	-0.1220546	-0.09325033	0.001433339	0.001887191	-0.0648203	-0.4556222	

2.546e+10	-0.1794357	-0.4077987	-0.000287714	0.00141923	-0.1055928	-0.1011891	0.0009035841	-7.289906e-05	
-0.000287714	0.00141923	-0.1243567	-0.3617733	0.001596237	0.003379155	-0.1190398	-0.08585424	
-0.1055928	-0.1011891	0.001596237	0.003379155	-0.1288753	-0.4857134	0.001946129	0.001543644	
0.0009035841	-7.289906e-05	-0.1190398	-0.08585424	0.001946129	0.001543644	-0.06987573	-0.4550463	

2.548e+10	-0.1765672	-0.3930634	0.0003508089	0.001442248	-0.1045742	-0.09369739	0.001213776	-0.0004415626	
0.0003508089	0.001442248	-0.1140714	-0.3631139	0.002439868	0.003118062	-0.1154105	-0.07834459	
-0.1045742	-0.09369739	0.002439868	0.003118062	-0.1384628	-0.4707595	0.002440426	0.001120098	
0.001213776	-0.0004415626	-0.1154105	-0.07834459	0.002440426	0.001120098	-0.0756505	-0.4526519	

2.55e+10	-0.1687978	-0.3787701	0.001068703	0.001136979	-0.1014941	-0.0858603	0.001463201	-0.001067298	
0.001068703	0.001136979	-0.1045079	-0.3659082	0.003326241	0.00261599	-0.1100142	-0.07100809	
-0.1014941	-0.0858603	0.003326241	0.00261599	-0.145481	-0.4536643	0.002929611	0.0005113306	
0.001463201	-0.001067298	-0.1100142	-0.07100809	0.002929611	0.0005113306	-0.07990866	-0.4481516	

2.552e+10	-0.1560663	-0.3680263	0.001585769	0.0004374487	-0.09579388	-0.07891023	0.001396318	-0.001923773	
0.001585769	0.0004374487	-0.09491482	-0.3707431	0.00411948	0.001752605	-0.1026775	-0.06538756	
-0.09579388	-0.07891023	0.00411948	0.001752605	-0.1482249	-0.4346617	0.003271071	-0.0003679442	
0.001396318	-0.001923773	-0.1026775	-0.06538756	0.003271071	-0.0003679442	-0.0815042	-0.4436454	

2.554e+10	-0.1410827	-0.3631689	0.001664428	-0.0004272906	-0.08814819	-0.07438557	0.0008852862	-0.002740245	
0.001664428	-0.0004272906	-0.0862127	-0.3788545	0.004584141	0.0005816967	-0.09495936	-0.0624241	
-0.08814819	-0.07438557	0.004584141	0.0005816967	-0.145364	-0.4157922	0.003270355	-0.001426676	
0.0008852862	-0.002740245	-0.09495936	-0.0624241	0.003270355	-0.001426676	-0.08182419	-0.4410542	

2.556e+10	-0.1270545	-0.3634205	0.001373353	-0.001155201	-0.08010632	-0.07258504	8.764511e-05	-0.003279229	
0.001373353	-0.001155201	-0.08050325	-0.3897631	0.004613144	-0.0006669012	-0.08830894	-0.06112521	
-0.08010632	-0.07258504	0.004613144	-0.0006669012	-0.1377278	-0.3995376	0.002886163	-0.002451977	
8.764511e-05	-0.003279229	-0.08830894	-0.06112521	0.002886163	-0.002451977	-0.08307838	-0.4396799	

2.558e+10	-0.1146667	-0.3665743	0.000929203	-0.001692732	-0.07248595	-0.07273942	-0.0007903166	-0.003570786	
0.000929203	-0.001692732	-0.07874148	-0.4013487	0.004301428	-0.00181841	-0.08242126	-0.05997051	
-0.07248595	-0.07273942	0.004301428	-0.00181841	-0.1273241	-0.3868032	0.002223879	-0.0033289	
-0.0007903166	-0.003570786	-0.08242126	-0.05997051	0.002223879	-0.0033289	-0.08533367	-0.4373732	

2.56e+10	-0.1028523	-0.3723873	0.0003685165	-0.002151163	-0.06498431	-0.07451917	-0.001771824	-0.003726415	
0.0003685165	-0.002151163	-0.07977018	-0.4119171	0.003738624	-0.002864914	-0.07592112	-0.0590179	
-0.06498431	-0.07451917	0.003738624	-0.002864914	-0.1152529	-0.3769753	0.001328234	-0.004070473	
-0.001771824	-0.003726415	-0.07592112	-0.0590179	0.001328234	-0.004070473	-0.08634659	-0.433698	

2.562e+10	-0.09226949	-0.382272	-0.0004370461	-0.002488006	-0.05780772	-0.07869567	-0.002978793	-0.003636783	
-0.0004370461	-0.002488006	-0.08225061	-0.4215712	0.002876978	-0.003796192	-0.06870497	-0.05961913	
-0.05780772	-0.07869567	0.002876978	-0.003796192	-0.1013376	-0.3699206	0.000121753	-0.004615694	
-0.002978793	-0.003636783	-0.06870497	-0.05961913	0.000121753	-0.004615694	-0.08511274	-0.4306396	

2.564e+10	-0.08585947	-0.3961115	-0.001464527	-0.002462627	-0.0524738	-0.08559592	-0.004299738	-0.00303538	
-0.001464527	-0.002462627	-0.08628054	-0.4310089	0.001676241	-0.004443548	-0.06223607	-0.06234479	
-0.0524738	-0.08559592	0.001676241	-0.004443548	-0.0855235	-0.3669351	-0.00139269	-0.004725862	
-0.004299738	-0.00303538	-0.06223607	-0.06234479	-0.00139269	-0.004725862	-0.08327225	-0.4300011	

2.566e+10	-0.08525125	-0.4109403	-0.002431486	-0.001946595	-0.05049082	-0.0938501	-0.005369601	-0.00186359	
-0.002431486	-0.001946595	-0.09254965	-0.4399406	0.0002994343	-0.004596758	-0.05769235	-0.06597111	
-0.05049082	-0.0938501	0.0002994343	-0.004596758	-0.06981938	-0.3691554	-0.002944803	-0.004182268	
-0.005369601	-0.00186359	-0.05769235	-0.06597111	-0.002944803	-0.004182268	-0.08320637	-0.4308694	

2.568e+10	-0.0892104	-0.4237002	-0.003066544	-0.001100397	-0.05166412	-0.1013965	-0.005916442	-0.0003825991	
-0.003066544	-0.001100397	-0.1012236	-0.4469817	-0.0009517952	-0.0042407	-0.05441511	-0.0689262	
-0.05166412	-0.1013965	-0.0009517952	-0.0042407	-0.05669616	-0.3758174	-0.004141296	-0.003043197	
-0.005916442	-0.0003825991	-0.05441511	-0.0689262	-0.004141296	-0.003043197	-0.08491432	-0.4308215	

2.57e+10	-0.09514112	-0.4338096	-0.003343713	-0.0001933828	-0.05459462	-0.1073331	-0.005964515	0.001085012	
-0.003343713	-0.0001933828	-0.110961	-0.4510726	-0.0018795	-0.003582959	-0.05086774	-0.07126132	
-0.05459462	-0.1073331	-0.0018795	-0.003582959	-0.04712426	-0.3846844	-0.004759094	-0.001627546	
-0.005964515	0.001085012	-0.05086774	-0.07126132	-0.004759094	-0.001627546	-0.08632538	-0.4288988	

2.572e+10	-0.1021068	-0.4426254	-0.003417248	0.0006531112	-0.05829596	-0.1121766	-0.005707062	0.002401373	
-0.003417248	0.0006531112	-0.1202727	-0.4526539	-0.002517359	-0.002849363	-0.04661396	-0.07428022	
-0.05829596	-0.1121766	-0.002517359	-0.002849363	-0.04023316	-0.394172	-0.004860169	-0.0002615159	
-0.005707062	0.002401373	-0.04661396	-0.07428022	-0.004860169	-0.0002615159	-0.08587353	-0.4266538	

2.574e+10	-0.1111062	-0.4506455	-0.003392106	0.001511682	-0.06313643	-0.1163313	-0.005281578	0.003629928	
-0.003392106	0.001511682	-0.1287374	-0.452836	-0.002996971	-0.002086053	-0.04273936	-0.07881449	
-0.06313643	-0.1163313	-0.002996971	-0.002086053	-0.03512418	-0.4043975	-0.004643961	0.0009271121	
-0.005281578	0.003629928	-0.04273936	-0.07881449	-0.004643961	0.0009271121	-0.08455956	-0.4258865	

2.576e+10	-0.1228037	-0.4563972	-0.003202312	0.002473243	-0.06946603	-0.1190676	-0.004649175	0.004863384	
-0.003202312	0.002473243	-0.1369303	-0.4521088	-0.003345727	-0.001226349	-0.04034762	-0.08402373	
-0.06946603	-0.1190676	-0.003345727	-0.001226349	-0.03222868	-0.4158129	-0.004235574	0.001976881	
-0.004649175	0.004863384	-0.04034762	-0.08402373	-0.004235574	0.001976881	-0.08431267	-0.4262005	

2.578e+10	-0.136048	-0.4581155	-0.002707678	0.003484434	-0.07658525	-0.1193396	-0.003685434	0.006051953	
-0.002707678	0.003484434	-0.1451335	-0.4498789	-0.003470396	-0.0002487611	-0.03895819	-0.08870717	
-0.07658525	-0.1193396	-0.003470396	-0.0002487611	-0.03263838	-0.4276864	-0.00362306	0.002915098	
-0.003685434	0.006051953	-0.03895819	-0.08870717	-0.00362306	0.002915098	-0.08512667	-0.4256307	

2.58e+10	-0.1483567	-0.4557828	-0.001878867	0.004383724	-0.08298966	-0.1170805	-0.00237032	0.007022983	
-0.001878867	0.004383724	-0.1525521	-0.4455684	-0.00329659	0.0007417096	-0.03728984	-0.09294886	
-0.08298966	-0.1170805	-0.00329659	0.0007417096	-0.03639031	-0.4382217	-0.002804473	0.00366412	
-0.00237032	0.007022983	-0.03728984	-0.09294886	-0.002804473	0.00366412	-0.0852362	-0.4234873	

2.582e+10	-0.1585369	-0.4509435	-0.0008127583	0.005077057	-0.08775522	-0.1133374	-0.0008431686	0.007661845	
-0.0008127583	0.005077057	-0.1579345	-0.4396428	-0.002867451	0.001637556	-0.03507732	-0.09812903	
-0.08775522	-0.1133374	-0.002867451	0.001637556	-0.04193137	-0.4461639	-0.001890025	0.004160744	
-0.0008431686	0.007661845	-0.03507732	-0.09812903	-0.001890025	0.004160744	-0.08320885	-0.4213933	

2.584e+10	-0.1668986	-0.4449696	0.0004451131	0.005601944	-0.09111151	-0.1089681	0.0007823416	0.008033797	
0.0004451131	0.005601944	-0.1609006	-0.4333429	-0.002235743	0.002436468	-0.03359909	-0.1049635	
-0.09111151	-0.1089681	-0.002235743	0.002436468	-0.0476723	-0.4519024	-0.0009871482	0.004486074	
0.0007823416	0.008033797	-0.03359909	-0.1049635	-0.0009871482	0.004486074	-0.0800401	-0.4211822	

2.586e+10	-0.1744599	-0.437509	0.002017673	0.005951379	-0.09348802	-0.1041575	0.002599892	0.008214798	
0.002017673	0.005951379	-0.1620848	-0.4275903	-0.00133351	0.003150721	-0.03408611	-0.1126144	
-0.09348802	-0.1041575	-0.00133351	0.003150721	-0.05316106	-0.4565957	-3.583472e-05	0.004763665	
0.002599892	0.008214798	-0.03408611	-0.1126144	-3.583472e-05	0.004763665	-0.07778312	-0.4225606	

2.588e+10	-0.1802784	-0.4276113	0.004035968	0.005862938	-0.09463942	-0.09844803	0.004781985	0.008018673	
0.004035968	0.005862938	-0.1620555	-0.4223894	-3.822903e-05	0.003620298	-0.03622759	-0.1196142	
-0.09463942	-0.09844803	-3.822903e-05	0.003620298	-0.05909469	-0.4606046	0.001143892	0.004942146	
0.004781985	0.008018673	-0.03622759	-0.1196142	0.001143892	0.004942146	-0.07683542	-0.4236385	

2.59e+10	-0.1825005	-0.4155508	0.00633289	0.004902917	-0.09360852	-0.09221391	0.007233957	0.007036927	
0.00633289	0.004902917	-0.160826	-0.417441	0.001589833	0.003515853	-0.03875296	-0.1258903	
-0.09360852	-0.09221391	0.001589833	0.003515853	-0.06562119	-0.4631645	0.002603458	0.004752752	
0.007233957	0.007036927	-0.03875296	-0.1258903	0.002603458	0.004752752	-0.07537936	-0.4236055	

2.592e+10	-0.1797532	-0.4037323	0.008361831	0.002813904	-0.08994928	-0.08674173	0.009466748	0.004999911	
0.008361831	0.002813904	-0.157698	-0.4134032	0.003183677	0.002578366	-0.04135166	-0.1326018	
-0.08994928	-0.08674173	0.003183677	0.002578366	-0.07172691	-0.463756	0.004101788	0.003926196	
0.009466748	0.004999911	-0.04135166	-0.1326018	0.004101788	0.003926196	-0.07222549	-0.4237387	

2.594e+10	-0.1732234	-0.394614	0.009454501	-0.0002129842	-0.08439427	-0.08342767	0.01086865	0.002085891	
0.009454501	-0.0002129842	-0.1529987	-0.4114012	0.004219671	0.0008718552	-0.04529229	-0.1404791	
-0.08439427	-0.08342767	0.004219671	0.0008718552	-0.07609129	-0.4631916	0.005215165	0.002458964	
0.01086865	0.002085891	-0.04529229	-0.1404791	0.005215165	0.002458964	-0.0678928	-0.4259633	

2.596e+10	-0.1650526	-0.3888397	0.009202086	-0.003591444	-0.078418	-0.08260646	0.01113196	-0.001176873	
0.009202086	-0.003591444	-0.148176	-0.4120258	0.004323117	-0.001179752	-0.05189186	-0.1483459	
-0.078418	-0.08260646	0.004323117	-0.001179752	-0.07891792	-0.4630024	0.005637507	0.0006676121	
0.01113196	-0.001176873	-0.05189186	-0.1483459	0.005637507	0.0006676121	-0.0645357	-0.4302772	

2.598e+10	-0.1562808	-0.3852589	0.007601476	-0.006653418	-0.07283142	-0.08360598	0.01030829	-0.004312474	
0.007601476	-0.006653418	-0.1444021	-0.4146662	0.003476404	-0.00303405	-0.06072634	-0.1545582	
-0.07283142	-0.08360598	0.003476404	-0.00303405	-0.08143843	-0.4638959	0.005363204	-0.00105922	
0.01030829	-0.004312474	-0.06072634	-0.1545582	0.005363204	-0.00105922	-0.06278607	-0.4351134	

2.6e+10	-0.1461454	-0.3837214	0.004942271	-0.008862029	-0.0674897	-0.08594916	0.008537772	-0.007011758	
0.004942271	-0.008862029	-0.1419197	-0.4183217	0.001944402	-0.004291785	-0.07038728	-0.1586137	
-0.0674897	-0.08594916	0.001944402	-0.004291785	-0.08460456	-0.4650874	0.004563604	-0.002484129	
0.008537772	-0.007011758	-0.07038728	-0.1586137	0.004563604	-0.002484129	-0.06155791	-0.43951	

2.602e+10	-0.1345656	-0.3859858	0.001690718	-0.009864154	-0.0623686	-0.09017254	0.005969333	-0.008963171	
0.001690718	-0.009864154	-0.1402572	-0.4226135	9.035692e-05	-0.004762143	-0.08009064	-0.1614123	
-0.0623686	-0.09017254	9.035692e-05	-0.004762143	-0.08806125	-0.4656055	0.003400815	-0.003494815	
0.005969333	-0.008963171	-0.08009064	-0.1614123	0.003400815	-0.003494815	-0.05962379	-0.4442568	

2.604e+10	-0.1239484	-0.3933536	-0.001564672	-0.009546525	-0.05851749	-0.09673814	0.002947125	-0.009833881	
-0.001564672	-0.009546525	-0.1393564	-0.4278782	-0.001708511	-0.004416232	-0.09054416	-0.1634805	
-0.05851749	-0.09673814	-0.001708511	-0.004416232	-0.09099205	-0.4655104	0.002033332	-0.003982558	
0.002947125	-0.009833881	-0.09054416	-0.1634805	0.002033332	-0.003982558	-0.05766431	-0.4508271	

2.606e+10	-0.1171813	-0.4043944	-0.004243241	-0.008109675	-0.05735971	-0.1048565	5.575469e-05	-0.009535737	
-0.004243241	-0.008109675	-0.139789	-0.4343496	-0.003076784	-0.003396793	-0.1022934	-0.1640858	
-0.05735971	-0.1048565	-0.003076784	-0.003396793	-0.09314198	-0.4657071	0.0007332903	-0.003880829	
5.575469e-05	-0.009535737	-0.1022934	-0.1640858	0.0007332903	-0.003880829	-0.05736621	-0.4593215	

2.608e+10	-0.1149364	-0.4161391	-0.005981309	-0.006033735	-0.05923126	-0.1127711	-0.002192333	-0.008404467	
-0.005981309	-0.006033735	-0.1425581	-0.4413685	-0.003768334	-0.002060539	-0.1148249	-0.162053	
-0.05923126	-0.1127711	-0.003768334	-0.002060539	-0.09550504	-0.4665042	-0.0001806673	-0.003347829	
-0.002192333	-0.008404467	-0.1148249	-0.162053	-0.0001806673	-0.003347829	-0.05969423	-0.4683209	

2.61e+10	-0.1154212	-0.4268813	-0.006761752	-0.003861529	-0.06295469	-0.1192528	-0.003668443	-0.006969611	
-0.006761752	-0.003861529	-0.1475848	-0.4478279	-0.003823612	-0.0008301876	-0.1267199	-0.1572703	
-0.06295469	-0.1192528	-0.003823612	-0.0008301876	-0.09828499	-0.4672039	-0.0005958326	-0.002748866	
-0.003668443	-0.006969611	-0.1267199	-0.1572703	-0.0005958326	-0.002748866	-0.06393622	-0.4763887	

2.612e+10	-0.1171337	-0.4371491	-0.006850163	-0.001977198	-0.06733888	-0.1245406	-0.00459456	-0.005593509	
-0.006850163	-0.001977198	-0.1542606	-0.4528785	-0.003514967	4.04913e-05	-0.1372247	-0.1505967	
-0.06733888	-0.1245406	-0.003514967	4.04913e-05	-0.1012049	-0.4669075	-0.0007022585	-0.002390691	
-0.00459456	-0.005593509	-0.1372247	-0.1505967	-0.0007022585	-0.002390691	-0.06904962	-0.4834741	

2.614e+10	-0.1205849	-0.4478398	-0.006602427	-0.0004779011	-0.07223172	-0.1295087	-0.005247558	-0.004316531	
-0.006602427	-0.0004779011	-0.1618287	-0.4564837	-0.00314835	0.0005398542	-0.1465376	-0.1428005	
-0.07223172	-0.1295087	-0.00314835	0.0005398542	-0.1029662	-0.4659897	-0.0008140605	-0.00231165	
-0.005247558	-0.004316531	-0.1465376	-0.1428005	-0.0008140605	-0.00231165	-0.07477564	-0.490493	

2.616e+10	-0.1269439	-0.4583663	-0.006239547	0.0007561731	-0.0784371	-0.1341752	-0.005697658	-0.003026948	
-0.006239547	0.0007561731	-0.1701524	-0.4589967	-0.002916942	0.0008155226	-0.1551638	-0.1337449	
-0.0784371	-0.1341752	-0.002916942	0.0008155226	-0.1032037	-0.4659065	-0.001102114	-0.002327334	
-0.005697658	-0.003026948	-0.1551638	-0.1337449	-0.001102114	-0.002327334	-0.08214005	-0.4976771	

2.618e+10	-0.1359794	-0.4671309	-0.005790262	0.00185682	-0.08617904	-0.1376479	-0.005871343	-0.001723577	
-0.005790262	0.00185682	-0.1793767	-0.4603147	-0.002859058	0.00105703	-0.1627316	-0.1229391	
-0.08617904	-0.1376479	-0.002859058	0.00105703	-0.1031633	-0.4676564	-0.001525866	-0.002263041	
-0.005871343	-0.001723577	-0.1627316	-0.1229391	-0.001525866	-0.002263041	-0.09192173	-0.503813	

2.62e+10	-0.1463256	-0.4732865	-0.005212967	0.002854016	-0.09462293	-0.1391811	-0.005768934	-0.0005219687	
-0.005212967	0.002854016	-0.1895408	-0.4596327	-0.002902678	0.001387617	-0.1683603	-0.1102559	
-0.09462293	-0.1391811	-0.002902678	0.001387617	-0.104432	-0.4706736	-0.001986499	-0.002086758	
-0.005768934	-0.0005219687	-0.1683603	-0.1102559	-0.001986499	-0.002086758	-0.1033332	-0.5074458	

2.622e+10	-0.1566275	-0.4775084	-0.004513633	0.003710179	-0.1027953	-0.139123	-0.005504576	0.0005116131	
-0.004513633	0.003710179	-0.1998241	-0.4562936	-0.002960686	0.001842148	-0.1713161	-0.09657103	
-0.1027953	-0.139123	-0.002960686	0.001842148	-0.1068422	-0.4737107	-0.00246833	-0.001828469	
-0.005504576	0.0005116131	-0.1713161	-0.09657103	-0.00246833	-0.001828469	-0.1147305	-0.508272	

2.624e+10	-0.167148	-0.480794	-0.003751	0.004426159	-0.1106643	-0.13828	-0.005183097	0.001440323	
-0.003751	0.004426159	-0.2090822	-0.450429	-0.002983637	0.002427331	-0.1716837	-0.08292124	
-0.1106643	-0.13828	-0.002983637	0.002427331	-0.1099291	-0.4761552	-0.003011472	-0.001448676	
-0.005183097	0.001440323	-0.1716837	-0.08292124	-0.003011472	-0.001448676	-0.1253445	-0.5072529	

2.626e+10	-0.1786465	-0.4832034	-0.002942774	0.005066356	-0.118869	-0.1366949	-0.004776451	0.002373129	
-0.002942774	0.005066356	-0.2165897	-0.4428969	-0.002918418	0.003173756	-0.1700802	-0.069547	
-0.118869	-0.1366949	-0.002918418	0.003173756	-0.1129944	-0.4787462	-0.00357973	-0.0008238138	
-0.004776451	0.002373129	-0.1700802	-0.069547	-0.00357973	-0.0008238138	-0.1355023	-0.5053488	

2.628e+10	-0.1913075	-0.4836807	-0.002015578	0.005669793	-0.1275282	-0.1337307	-0.004163153	0.003305594	
-0.002015578	0.005669793	-0.2224649	-0.4341739	-0.002650021	0.004099446	-0.1666827	-0.05622451	
-0.1275282	-0.1337307	-0.002650021	0.004099446	-0.1167099	-0.4820529	-0.003995423	0.0001157896	
-0.004163153	0.003305594	-0.1666827	-0.05622451	-0.003995423	0.0001157896	-0.1459665	-0.5020929	

2.63e+10	-0.2042605	-0.4814413	-0.0008871569	0.006167117	-0.1359163	-0.1287995	-0.003288026	0.004104127	
-0.0008871569	0.006167117	-0.2268844	-0.4240258	-0.002031102	0.005127363	-0.1608414	-0.04276654	
-0.1359163	-0.1287995	-0.002031102	0.005127363	-0.1221207	-0.4854656	-0.004056343	0.001267294	
-0.003288026	0.004104127	-0.1608414	-0.04276654	-0.004056343	0.001267294	-0.1561854	-0.4962626	

2.632e+10	-0.2161852	-0.4767988	0.0004386336	0.006425847	-0.1431754	-0.1222401	-0.002227852	0.004637418	
0.0004386336	0.006425847	-0.2287899	-0.4124083	-0.0009801554	0.006075848	-0.1517741	-0.02999702	
-0.1431754	-0.1222401	-0.0009801554	0.006075848	-0.1291898	-0.4875853	-0.003695824	0.002417558	
-0.002227852	0.004637418	-0.1517741	-0.02999702	-0.003695824	0.002417558	-0.1643259	-0.4877212	

2.634e+10	-0.2269198	-0.4706634	0.001852626	0.006352359	-0.1491005	-0.1149058	-0.001124559	0.004878771	
0.001852626	0.006352359	-0.2270926	-0.4002431	0.0004636335	0.006743581	-0.1394635	-0.01942659	
-0.1491005	-0.1149058	0.0004636335	0.006743581	-0.1367349	-0.4877567	-0.002997257	0.003396134	
-0.001124559	0.004878771	-0.1394635	-0.01942659	-0.002997257	0.003396134	-0.1692735	-0.4780135	

2.636e+10	-0.2368467	-0.463637	0.003228484	0.005960509	-0.1542141	-0.1071417	-6.473391e-05	0.004905773	
0.003228484	0.005960509	-0.2215813	-0.3892623	0.002169488	0.006995515	-0.1250254	-0.01210465	
-0.1542141	-0.1071417	0.002169488	0.006995515	-0.1438518	-0.4865709	-0.002072734	0.004155445	
-6.473391e-05	0.004905773	-0.1250254	-0.01210465	-0.002072734	0.004155445	-0.1715521	-0.4690418	

2.638e+10	-0.2467344	-0.4549962	0.004527855	0.005314383	-0.1588789	-0.09850912	0.0009873878	0.004783048	
0.004527855	0.005314383	-0.2134161	-0.38077	0.004006869	0.006775245	-0.1096861	-0.008035593	
-0.1588789	-0.09850912	0.004006869	0.006775245	-0.1505749	-0.4849305	-0.0009502945	0.004696013	
0.0009873878	0.004783048	-0.1096861	-0.008035593	-0.0009502945	0.004696013	-0.1726731	-0.4610989	

2.64e+10	-0.2556403	-0.4438548	0.00576862	0.004404065	-0.1626425	-0.08845474	0.002081049	0.004448828	
0.00576862	0.004404065	-0.2036882	-0.3749909	0.005862105	0.006030661	-0.09378364	-0.006788308	
-0.1626425	-0.08845474	0.005862105	0.006030661	-0.1578333	-0.4826063	0.0003806508	0.004923407	
0.002081049	0.004448828	-0.09378364	-0.006788308	0.0003806508	0.004923407	-0.1729388	-0.4531194	

2.642e+10	-0.2622877	-0.4300337	0.006900106	0.003145869	-0.164605	-0.07703655	0.003136757	0.003788456	
0.006900106	0.003145869	-0.1926484	-0.3718152	0.007566211	0.004709918	-0.07709139	-0.00872894	
-0.164605	-0.07703655	0.007566211	0.004709918	-0.1656704	-0.4784276	0.001794706	0.004679763	
0.003136757	0.003788456	-0.07709139	-0.00872894	0.001794706	0.004679763	-0.1712008	-0.4448325	

2.644e+10	-0.2654733	-0.4147899	0.007755552	0.001500644	-0.1642264	-0.06502184	0.003964332	0.002797668	
0.007755552	0.001500644	-0.1805994	-0.3717647	0.008887951	0.002852582	-0.06031526	-0.01510539	
-0.1642264	-0.06502184	0.008887951	0.002852582	-0.1726512	-0.4717916	0.00302457	0.003944974	
0.003964332	0.002797668	-0.06031526	-0.01510539	0.00302457	0.003944974	-0.1668084	-0.4377446	

2.646e+10	-0.2653147	-0.399482	0.008142333	-0.0004265933	-0.1616755	-0.05312494	0.004423679	0.001637422	
0.008142333	-0.0004265933	-0.1685276	-0.3758677	0.009635345	0.0006342869	-0.04557238	-0.02636428	
-0.1616755	-0.05312494	0.009635345	0.0006342869	-0.177488	-0.4633386	0.003867945	0.002913224	
0.004423679	0.001637422	-0.04557238	-0.02636428	0.003867945	0.002913224	-0.160764	-0.4336709	

2.648e+10	-0.2626123	-0.3843986	0.007989414	-0.002426608	-0.1573021	-0.04144355	0.004559641	0.0005002398	
0.007989414	-0.002426608	-0.1583942	-0.3841027	0.009749732	-0.001706791	-0.03486138	-0.04109259	
-0.1573021	-0.04144355	0.009749732	-0.001706791	-0.1800039	-0.4544061	0.004342525	0.001830337	
0.004559641	0.0005002398	-0.03486138	-0.04109259	0.004342525	0.001830337	-0.1556128	-0.4322312	

2.65e+10	-0.257078	-0.3689241	0.007353466	-0.004352813	-0.1507895	-0.02966573	0.004506561	-0.0005913957	
0.007353466	-0.004352813	-0.1517562	-0.3949263	0.009286166	-0.00399234	-0.02844368	-0.05719912	
-0.1507895	-0.02966573	0.009286166	-0.00399234	-0.1808773	-0.4454472	0.004599344	0.0007708876	
0.004506561	-0.0005913957	-0.02844368	-0.05719912	0.004599344	0.0007708876	-0.1517643	-0.4316793	

2.652e+10	-0.2469402	-0.3535859	0.006253225	-0.006155549	-0.1410847	-0.01824859	0.004246475	-0.001733041	
0.006253225	-0.006155549	-0.1486054	-0.4067432	0.008299068	-0.006132474	-0.02548364	-0.07384236	
-0.1410847	-0.01824859	0.008299068	-0.006132474	-0.1802151	-0.4359384	0.004675586	-0.0003477514	
0.004246475	-0.001733041	-0.02548364	-0.07384236	0.004675586	-0.0003477514	-0.1481553	-0.4310072	

2.654e+10	-0.2313258	-0.3410254	0.004627565	-0.007714976	-0.1275847	-0.008832087	0.003612908	-0.002869824	
0.004627565	-0.007714976	-0.1485559	-0.41858	0.006789417	-0.008021403	-0.02600779	-0.09105973	
-0.1275847	-0.008832087	0.006789417	-0.008021403	-0.1767604	-0.425896	0.004445318	-0.001522146	
0.003612908	-0.002869824	-0.02600779	-0.09105973	0.004445318	-0.001522146	-0.1438919	-0.4310473	

2.656e+10	-0.2119791	-0.3341544	0.002509954	-0.008778109	-0.1112293	-0.0033595	0.002572833	-0.003739999	
0.002509954	-0.008778109	-0.151249	-0.4299737	0.004805352	-0.009487456	-0.03091482	-0.108169	
-0.1112293	-0.0033595	0.004805352	-0.009487456	-0.1695957	-0.4168289	0.003846969	-0.002566482	
0.002572833	-0.003739999	-0.03091482	-0.108169	0.003846969	-0.002566482	-0.139795	-0.4328137	

2.658e+10	-0.1919377	-0.3337899	0.0001438052	-0.009133868	-0.09400579	-0.0026094	0.001359706	-0.004152662	
0.0001438052	-0.009133868	-0.1564625	-0.4403705	0.002510142	-0.01037568	-0.04031625	-0.1232749	
-0.09400579	-0.0026094	0.002510142	-0.01037568	-0.1594614	-0.4109032	0.003026731	-0.003309702	
0.001359706	-0.004152662	-0.04031625	-0.1232749	0.003026731	-0.003309702	-0.1370032	-0.4358444	

2.66e+10	-0.1733117	-0.3383895	-0.002158161	-0.008779843	-0.07736446	-0.005898544	0.0002308822	-0.004192648	
-0.002158161	-0.008779843	-0.163905	-0.4491054	0.0001230251	-0.01064729	-0.05275793	-0.1347608	
-0.07736446	-0.005898544	0.0001230251	-0.01064729	-0.1482283	-0.40903	0.002184982	-0.003784195	
0.0002308822	-0.004192648	-0.05275793	-0.1347608	0.002184982	-0.003784195	-0.1355742	-0.4387826	

2.662e+10	-0.1561019	-0.3471804	-0.004193325	-0.007853399	-0.06162362	-0.01287384	-0.0007870299	-0.004045148	
-0.004193325	-0.007853399	-0.1726921	-0.455813	-0.002185717	-0.01036301	-0.06637069	-0.1427224	
-0.06162362	-0.01287384	-0.002185717	-0.01036301	-0.1377194	-0.4104093	0.00135849	-0.004135275	
-0.0007870299	-0.004045148	-0.06637069	-0.1427224	0.00135849	-0.004135275	-0.1346382	-0.4409322	

2.664e+10	-0.1410009	-0.3609041	-0.005864348	-0.006487926	-0.0475461	-0.0239444	-0.001795082	-0.003719931	
-0.005864348	-0.006487926	-0.1821708	-0.4603455	-0.004316115	-0.009599311	-0.08041951	-0.1479911	
-0.0475461	-0.0239444	-0.004316115	-0.009599311	-0.1282101	-0.41418	0.0004437933	-0.004391935	
-0.001795082	-0.003719931	-0.08041951	-0.1479911	0.0004437933	-0.004391935	-0.1330218	-0.4431038	

2.666e+10	-0.1308469	-0.3791468	-0.007093939	-0.004797543	-0.03704051	-0.0388556	-0.002747706	-0.003096993	
-0.007093939	-0.004797543	-0.1917316	-0.4631096	-0.006185068	-0.00842303	-0.09516481	-0.1508271	
-0.03704051	-0.0388556	-0.006185068	-0.00842303	-0.1197174	-0.4202713	-0.0005867178	-0.004433244	
-0.002747706	-0.003096993	-0.09516481	-0.1508271	-0.0005867178	-0.004433244	-0.131304	-0.4464205	

2.668e+10	-0.1272262	-0.3991334	-0.007826688	-0.002924722	-0.03164867	-0.05568911	-0.003454923	-0.002184112	
-0.007826688	-0.002924722	-0.2011571	-0.4646241	-0.007722317	-0.006916684	-0.1104277	-0.1507147	
-0.03164867	-0.05568911	-0.007722317	-0.006916684	-0.1130376	-0.4287391	-0.001603218	-0.004178706	
-0.003454923	-0.002184112	-0.1104277	-0.1507147	-0.001603218	-0.004178706	-0.13059	-0.4509624	

2.67e+10	-0.1293938	-0.4174879	-0.008065913	-0.001020392	-0.0309725	-0.0719519	-0.003814103	-0.001155178	
-0.008065913	-0.001020392	-0.2106546	-0.4650326	-0.008882739	-0.005184416	-0.1252492	-0.1471673	
-0.0309725	-0.0719519	-0.008882739	-0.005184416	-0.1091794	-0.4388735	-0.002475426	-0.003699144	
-0.003814103	-0.001155178	-0.1252492	-0.1471673	-0.002475426	-0.003699144	-0.1315109	-0.4556303	

2.672e+10	-0.1349678	-0.4330655	-0.007855895	0.0007938172	-0.03341417	-0.08654987	-0.003886198	-0.0001696751	
-0.007855895	0.0007938172	-0.2204974	-0.4639483	-0.009668358	-0.003321534	-0.1384332	-0.140625	
-0.03341417	-0.08654987	-0.009668358	-0.003321534	-0.1084146	-0.4491611	-0.003198722	-0.003108449	
-0.003886198	-0.0001696751	-0.1384332	-0.140625	-0.003198722	-0.003108449	-0.1335495	-0.4593812	

2.674e+10	-0.1422908	-0.4466632	-0.007262897	0.00241886	-0.03791155	-0.09985535	-0.003776901	0.0007430525	
-0.007262897	0.00241886	-0.2300867	-0.4610794	-0.01010913	-0.001395564	-0.1494778	-0.1321538	
-0.03791155	-0.09985535	-0.01010913	-0.001395564	-0.1100485	-0.4583849	-0.003844501	-0.002432271	
-0.003776901	0.0007430525	-0.1494778	-0.1321538	-0.003844501	-0.002432271	-0.1355508	-0.4623493	

2.676e+10	-0.151853	-0.458624	-0.006383349	0.00378413	-0.04456712	-0.1121061	-0.003509841	0.001621031	
-0.006383349	0.00378413	-0.238868	-0.4565242	-0.01023022	0.0005683762	-0.1586388	-0.1224332	
-0.04456712	-0.1121061	-0.01023022	0.0005683762	-0.1127374	-0.4663569	-0.004430513	-0.001595083	
-0.003509841	0.001621031	-0.1586388	-0.1224332	-0.004430513	-0.001595083	-0.1373425	-0.4654497	

2.678e+10	-0.1634646	-0.4683533	-0.005321929	0.004874941	-0.0535453	-0.1226187	-0.003037366	0.00244997	
-0.005321929	0.004874941	-0.2464481	-0.4508937	-0.0100194	0.002566954	-0.1661439	-0.1115178	
-0.0535453	-0.1226187	-0.0100194	0.002566954	-0.1161651	-0.4736531	-0.004854394	-0.000534215	
-0.003037366	0.00244997	-0.1661439	-0.1115178	-0.004854394	-0.000534215	-0.1399092	-0.469017	

2.68e+10	-0.1763345	-0.4749101	-0.004140022	0.005721318	-0.06408033	-0.1305734	-0.002347537	0.003142589	
-0.004140022	0.005721318	-0.2531697	-0.4443942	-0.009425854	0.004564757	-0.1716982	-0.09920994	
-0.06408033	-0.1305734	-0.009425854	0.004564757	-0.1205459	-0.4806234	-0.004975462	0.0006930579	
-0.002347537	0.003142589	-0.1716982	-0.09920994	-0.004975462	0.0006930579	-0.1438735	-0.4720621	

2.682e+10	-0.1891091	-0.4783668	-0.002841674	0.006331876	-0.07494473	-0.1360426	-0.001498569	0.00361608	
-0.002841674	0.006331876	-0.2591064	-0.4367321	-0.008400426	0.006476209	-0.1745616	-0.08589496	
-0.07494473	-0.1360426	-0.008400426	0.006476209	-0.1261685	-0.4868058	-0.004729427	0.001943537	
-0.001498569	0.00361608	-0.1745616	-0.08589496	-0.004729427	0.001943537	-0.1484757	-0.4734968	

2.684e+10	-0.2008359	-0.4798785	-0.001448575	0.006649341	-0.08549112	-0.1398373	-0.0005852126	0.003832882	
-0.001448575	0.006649341	-0.2636827	-0.4276062	-0.00693566	0.008175357	-0.1743804	-0.07244476	
-0.08549112	-0.1398373	-0.00693566	0.008175357	-0.1326098	-0.4914738	-0.004147771	0.003084902	
-0.0005852126	0.003832882	-0.1743804	-0.07244476	-0.004147771	0.003084902	-0.1523405	-0.4733496	

2.686e+10	-0.2118572	-0.4803447	-7.285301e-05	0.006625399	-0.09609278	-0.1426782	0.0002936679	0.003812206	
-7.285301e-05	0.006625399	-0.2660553	-0.4173016	-0.005076949	0.009532292	-0.1714476	-0.0598386	
-0.09609278	-0.1426782	-0.005076949	0.009532292	-0.1388754	-0.4947277	-0.003292969	0.004041898	
0.0002936679	0.003812206	-0.1714476	-0.0598386	-0.003292969	0.004041898	-0.1548309	-0.4728671	

2.688e+10	-0.2227364	-0.4798444	0.001142479	0.006331245	-0.107231	-0.1443867	0.001078044	0.003625934	
0.001142479	0.006331245	-0.2657061	-0.4068158	-0.002925954	0.01043037	-0.1664342	-0.04851116	
-0.107231	-0.1443867	-0.002925954	0.01043037	-0.1445034	-0.4973841	-0.002212291	0.004765972	
0.001078044	0.003625934	-0.1664342	-0.04851116	-0.002212291	0.004765972	-0.1567227	-0.4730547	

2.69e+10	-0.2335516	-0.477793	0.002175696	0.005926772	-0.1187887	-0.1443073	0.001781208	0.003343768	
0.002175696	0.005926772	-0.2631291	-0.3967919	-0.0006247433	0.01079894	-0.1597057	-0.03828299	
-0.1187887	-0.1443073	-0.0006247433	0.01079894	-0.1500683	-0.5002036	-0.0009522565	0.005188438	
0.001781208	0.003343768	-0.1597057	-0.03828299	-0.0009522565	0.005188438	-0.1591231	-0.4733711	

2.692e+10	-0.243523	-0.4740481	0.003148618	0.005494017	-0.130019	-0.142389	0.00244902	0.002973119	
0.003148618	0.005494017	-0.2582281	-0.3874896	0.001668614	0.01064097	-0.1508725	-0.02913541	
-0.130019	-0.142389	0.001668614	0.01064097	-0.1562703	-0.5029626	0.0003851261	0.005238161	
0.00244902	0.002973119	-0.1508725	-0.02913541	0.0003851261	0.005238161	-0.1613972	-0.4727485	

2.694e+10	-0.2520759	-0.469136	0.004170162	0.004944165	-0.1404836	-0.1391172	0.003085067	0.002460662	
0.004170162	0.004944165	-0.250712	-0.379072	0.003844746	0.01001538	-0.1394649	-0.02193938	
-0.1404836	-0.1391172	0.003844746	0.01001538	-0.1630045	-0.504973	0.001655504	0.004910441	
0.003085067	0.002460662	-0.1394649	-0.02193938	0.001655504	0.004910441	-0.1621117	-0.4713409	

2.696e+10	-0.2592925	-0.4639494	0.005183572	0.00412985	-0.1504018	-0.1349952	0.003608102	0.001774155	
0.005183572	0.00412985	-0.2401771	-0.3728248	0.005845399	0.008965797	-0.1259759	-0.01824319	
-0.1504018	-0.1349952	0.005845399	0.008965797	-0.1698499	-0.5058669	0.002737636	0.004274474	
0.003608102	0.001774155	-0.1259759	-0.01824319	0.002737636	0.004274474	-0.1608591	-0.4709034	

2.698e+10	-0.265861	-0.4588189	0.006017758	0.003039261	-0.1602041	-0.1299624	0.003932867	0.0009864817	
0.006017758	0.003039261	-0.2272837	-0.370748	0.007594896	0.007505813	-0.1121932	-0.01893579	
-0.1602041	-0.1299624	0.007594896	0.007505813	-0.1762923	-0.5062424	0.00357128	0.003441164	
0.003932867	0.0009864817	-0.1121932	-0.01893579	0.00357128	0.003441164	-0.1590654	-0.4729263	

2.7e+10	-0.2723418	-0.4532529	0.006595356	0.001798966	-0.1698936	-0.1234349	0.004087232	0.0002015723	
0.006595356	0.001798966	-0.2143175	-0.3736144	0.008979429	0.005691047	-0.09984303	-0.02336282	
-0.1698936	-0.1234349	0.008979429	0.005691047	-0.1826415	-0.5067511	0.004166766	0.002509489	
0.004087232	0.0002015723	-0.09984303	-0.02336282	0.004166766	0.002509489	-0.1585493	-0.4768948	

2.702e+10	-0.2783404	-0.4466511	0.006974373	0.0004774952	-0.1788404	-0.1151223	0.004152583	-0.0005843762	
0.006974373	0.0004774952	-0.2032364	-0.3807879	0.009927253	0.003641309	-0.0894188	-0.03040582	
-0.1788404	-0.1151223	0.009927253	0.003641309	-0.1898853	-0.5070618	0.004564773	0.001514959	
0.004152583	-0.0005843762	-0.0894188	-0.03040582	0.004564773	0.001514959	-0.1596793	-0.4811348	

2.704e+10	-0.2831633	-0.4390468	0.007169238	-0.0009945972	-0.186468	-0.1053697	0.004110594	-0.001451683	
0.007169238	-0.0009945972	-0.1951709	-0.3909394	0.0104411	0.001462254	-0.0809834	-0.03981366	
-0.186468	-0.1053697	0.0104411	0.001462254	-0.1979089	-0.5063042	0.004757467	0.0004499811	
0.004110594	-0.001451683	-0.0809834	-0.03981366	0.004757467	0.0004499811	-0.1613288	-0.4852549	

2.706e+10	-0.2863292	-0.4312866	0.007030058	-0.002659803	-0.1926806	-0.09464357	0.003833819	-0.002390429	
0.007030058	-0.002659803	-0.1904501	-0.4030823	0.01051866	-0.000799561	-0.07542101	-0.05160319	
-0.1926806	-0.09464357	0.01051866	-0.000799561	-0.2061212	-0.5038272	0.004685015	-0.000644958	
0.003833819	-0.002390429	-0.07542101	-0.05160319	0.004685015	-0.000644958	-0.1634857	-0.4900279	

2.708e+10	-0.288612	-0.4238835	0.006380798	-0.004359216	-0.1976896	-0.08306047	0.00326032	-0.00323696	
0.006380798	-0.004359216	-0.1895376	-0.4160947	0.01010859	-0.00308549	-0.07399544	-0.06457308	
-0.1976896	-0.08306047	0.01010859	-0.00308549	-0.2135755	-0.4999952	0.004333949	-0.001653328	
0.00326032	-0.00323696	-0.07399544	-0.06457308	0.004333949	-0.001653328	-0.1671072	-0.4956902	

2.71e+10	-0.29057	-0.4165223	0.005242901	-0.005828761	-0.201428	-0.07038125	0.002517104	-0.00384771	
0.005242901	-0.005828761	-0.1922733	-0.4288279	0.009165121	-0.005265497	-0.07667866	-0.07667866	
-0.201428	-0.07038125	0.009165121	-0.005265497	-0.2202773	-0.4954489	0.003798954	-0.002477641	
0.002517104	-0.00384771	-0.07667866	-0.07667866	0.003798954	-0.002477641	-0.173008	-0.5010308	

2.712e+10	-0.2919407	-0.4083805	0.00380255	-0.006940036	-0.2033451	-0.05643081	0.001765345	-0.004272884	
0.00380255	-0.006940036	-0.1981977	-0.4401877	0.007727633	-0.007177945	-0.0821029	-0.08660918	
-0.2033451	-0.05643081	0.007727633	-0.007177945	-0.2267088	-0.4901934	0.003201572	-0.003147165	
0.001765345	-0.004272884	-0.0821029	-0.08660918	0.003201572	-0.003147165	-0.1805748	-0.5046032	

2.714e+10	-0.2917817	-0.3992537	0.002186004	-0.007739092	-0.2026984	-0.04153428	0.0009968736	-0.004645648	
0.002186004	-0.007739092	-0.206516	-0.4494112	0.005903286	-0.008725677	-0.08885985	-0.09455996	
-0.2026984	-0.04153428	0.005903286	-0.008725677	-0.2329503	-0.483387	0.00254362	-0.003761859	
0.0009968736	-0.004645648	-0.08885985	-0.09455996	0.00254362	-0.003761859	-0.1883347	-0.5061463	

2.716e+10	-0.2891541	-0.3901994	0.0003607152	-0.008255123	-0.1990605	-0.02652499	8.154911e-05	-0.00496493	
0.0003607152	-0.008255123	-0.2162466	-0.456236	0.003760572	-0.009880551	-0.09670048	-0.1010853	
-0.1990605	-0.02652499	0.003760572	-0.009880551	-0.2378675	-0.4745967	0.001720489	-0.004325814	
8.154911e-05	-0.00496493	-0.09670048	-0.1010853	0.001720489	-0.004325814	-0.1954963	-0.5066404	

2.718e+10	-0.284621	-0.3824052	-0.001722264	-0.0083532	-0.192513	-0.01221309	-0.001020457	-0.005074615	
-0.001722264	-0.0083532	-0.2265745	-0.4608662	0.001307009	-0.01057151	-0.1059213	-0.1060693	
-0.192513	-0.01221309	0.001307009	-0.01057151	-0.2402516	-0.464484	0.0006870644	-0.00470793	
-0.001020457	-0.005074615	-0.1059213	-0.1060693	0.0006870644	-0.00470793	-0.2025082	-0.5068197	

2.72e+10	-0.2791107	-0.376097	-0.003932321	-0.007815152	-0.1833475	0.000960014	-0.002174358	-0.004851749	
-0.003932321	-0.007815152	-0.2369605	-0.4638596	-0.001400223	-0.01062715	-0.116182	-0.1087972	
-0.1833475	0.000960014	-0.001400223	-0.01062715	-0.2396341	-0.4545066	-0.000456308	-0.004787101	
-0.002174358	-0.004851749	-0.116182	-0.1087972	-0.000456308	-0.004787101	-0.2100098	-0.5065083	

2.722e+10	-0.2729205	-0.3704511	-0.005961209	-0.006555878	-0.1716412	0.0126949	-0.003216518	-0.004342118	
-0.005961209	-0.006555878	-0.247788	-0.4652376	-0.004133799	-0.009872483	-0.1265361	-0.1090305	
-0.1716412	0.0126949	-0.004133799	-0.009872483	-0.2368813	-0.4455089	-0.001565245	-0.004574312	
-0.003216518	-0.004342118	-0.1265361	-0.1090305	-0.001565245	-0.004574312	-0.2178947	-0.5049751	

2.724e+10	-0.2649672	-0.3655003	-0.007516319	-0.00471315	-0.1571128	0.02238845	-0.004125843	-0.003655376	
-0.007516319	-0.00471315	-0.258641	-0.4650682	-0.006555602	-0.008306792	-0.13618	-0.1072786	
-0.1571128	0.02238845	-0.006555602	-0.008306792	-0.2324376	-0.4375199	-0.002604066	-0.004151236	
-0.004125843	-0.003655376	-0.13618	-0.1072786	-0.002604066	-0.004151236	-0.2255397	-0.5018485	

2.726e+10	-0.2548134	-0.362832	-0.008466588	-0.002524	-0.1399321	0.02877484	-0.00495176	-0.002783346	
-0.008466588	-0.002524	-0.2693769	-0.4630217	-0.008401937	-0.006108846	-0.145014	-0.1043567	
-0.1399321	0.02877484	-0.008401937	-0.006108846	-0.2261092	-0.430492	-0.003610991	-0.003498071	
-0.00495176	-0.002783346	-0.145014	-0.1043567	-0.003610991	-0.003498071	-0.2320193	-0.4977938	

2.728e+10	-0.2439037	-0.3639266	-0.008798178	-0.0001581809	-0.1213508	0.03068395	-0.005627606	-0.001633906	
-0.008798178	-0.0001581809	-0.27941	-0.4593681	-0.009544719	-0.003502319	-0.1534877	-0.1004395	
-0.1213508	0.03068395	-0.009544719	-0.003502319	-0.2174503	-0.4254843	-0.004508055	-0.002506061	
-0.005627606	-0.001633906	-0.1534877	-0.1004395	-0.004508055	-0.002506061	-0.2375715	-0.493637	

2.73e+10	-0.2344406	-0.3685656	-0.008457404	0.002274067	-0.1031555	0.0280074	-0.005959904	-0.0002289564	
-0.008457404	0.002274067	-0.2886746	-0.4545276	-0.009899425	-0.000664461	-0.1617081	-0.09510133	
-0.1031555	0.0280074	-0.009899425	-0.000664461	-0.2074893	-0.4237256	-0.0050741	-0.001182647	
-0.005959904	-0.0002289564	-0.1617081	-0.09510133	-0.0050741	-0.001182647	-0.2431684	-0.4894306	

2.732e+10	-0.2271238	-0.3750259	-0.00734397	0.004560556	-0.08637574	0.02168006	-0.005819118	0.00123583	
-0.00734397	0.004560556	-0.2972533	-0.4487603	-0.009367484	0.002160932	-0.1691465	-0.0880896	
-0.08637574	0.02168006	-0.009367484	0.002160932	-0.1979382	-0.4254488	-0.00515221	0.000264606	
-0.005819118	0.00123583	-0.1691465	-0.0880896	-0.00515221	0.000264606	-0.2491183	-0.4843159	

2.734e+10	-0.2212839	-0.3825037	-0.005484594	0.006340528	-0.071153	0.01216241	-0.005255214	0.002534814	
-0.005484594	0.006340528	-0.305489	-0.441676	-0.007958705	0.004630217	-0.1751777	-0.07968544	
-0.071153	0.01216241	-0.007958705	0.004630217	-0.1898897	-0.4297247	-0.004790063	0.001599944	
-0.005255214	0.002534814	-0.1751777	-0.07968544	-0.004790063	0.001599944	-0.2546253	-0.4776732	

2.736e+10	-0.2166046	-0.3918934	-0.003191887	0.007285136	-0.05793163	-0.0007887049	-0.004418396	0.003562651	
-0.003191887	0.007285136	-0.3127868	-0.433052	-0.005898365	0.006414424	-0.1796196	-0.07050068	
-0.05793163	-0.0007887049	-0.005898365	0.006414424	-0.1833951	-0.4356411	-0.004127387	0.002734967	
-0.004418396	0.003562651	-0.1796196	-0.07050068	-0.004127387	0.002734967	-0.2587359	-0.4696676	

2.738e+10	-0.2148488	-0.4032226	-0.0009321384	0.007363132	-0.04819328	-0.01701882	-0.003419108	0.004313841	
-0.0009321384	0.007363132	-0.3185752	-0.4229171	-0.003545097	0.007382647	-0.1827418	-0.06086095	
-0.04819328	-0.01701882	-0.003545097	0.007382647	-0.1784957	-0.4429048	-0.003217615	0.003674158	
-0.003419108	0.004313841	-0.1827418	-0.06086095	-0.003217615	0.003674158	-0.2611143	-0.46133	

2.74e+10	-0.2170154	-0.4149358	0.000993546	0.00682385	-0.04318311	-0.03499396	-0.002319758	0.0047816	
0.000993546	0.00682385	-0.3224717	-0.4118552	-0.001190196	0.007599564	-0.1847433	-0.05060937	
-0.04318311	-0.03499396	-0.001190196	0.007599564	-0.1753467	-0.4516031	-0.002049961	0.00434654	
-0.002319758	0.0047816	-0.1847433	-0.05060937	-0.002049961	0.00434654	-0.2624579	-0.4531282	

2.742e+10	-0.2226973	-0.424716	0.00254679	0.005914149	-0.04270614	-0.05277535	-0.001199888	0.004948403	
0.00254679	0.005914149	-0.3245998	-0.4002757	0.0009915272	0.00717037	-0.1853159	-0.03945772	
-0.04270614	-0.05277535	0.0009915272	0.00717037	-0.1747991	-0.4611314	-0.0007163494	0.004609772	
-0.001199888	0.004948403	-0.1853159	-0.03945772	-0.0007163494	0.004609772	-0.2633281	-0.4443781	

2.744e+10	-0.2298066	-0.4320215	0.003748551	0.004716628	-0.04569312	-0.06948182	-0.0001580339	0.004830015	
0.003748551	0.004716628	-0.325002	-0.3880095	0.002858182	0.00618624	-0.1837544	-0.02749506	
-0.04569312	-0.06948182	0.002858182	0.00618624	-0.1769177	-0.4704327	0.0005740809	0.004421991	
-0.0001580339	0.004830015	-0.1837544	-0.02749506	0.0005740809	0.004421991	-0.2627542	-0.4343719	

2.746e+10	-0.2375249	-0.4374664	0.004505082	0.003287934	-0.05157664	-0.08502913	0.0007106776	0.004495675	
0.004505082	0.003287934	-0.3232209	-0.3747194	0.004268468	0.004782079	-0.1794943	-0.01535653	
-0.05157664	-0.08502913	0.004268468	0.004782079	-0.1813211	-0.4783368	0.001651903	0.003896177	
0.0007106776	0.004495675	-0.1794943	-0.01535653	0.001651903	0.003896177	-0.2594623	-0.4234041	

2.748e+10	-0.2458036	-0.441622	0.004724542	0.001842212	-0.06043222	-0.09923741	0.001368982	0.004070668	
0.004724542	0.001842212	-0.3178985	-0.361093	0.0051503	0.003153017	-0.1724249	-0.003942978	
-0.06043222	-0.09923741	0.0051503	0.003153017	-0.1867916	-0.4845853	0.002486148	0.003179492	
0.001368982	0.004070668	-0.1724249	-0.003942978	0.002486148	0.003179492	-0.2526647	-0.4131202	

2.75e+10	-0.2548959	-0.4439945	0.004528898	0.0006443076	-0.07215617	-0.1111532	0.001880109	0.003666005	
0.004528898	0.0006443076	-0.3085924	-0.3484324	0.005535094	0.001478672	-0.1627743	0.006139354	
-0.07215617	-0.1111532	0.005535094	0.001478672	-0.1925783	-0.4896401	0.003115243	0.002330839	
0.001880109	0.003666005	-0.1627743	0.006139354	0.003115243	0.002330839	-0.2432782	-0.404883	

2.752e+10	-0.2638802	-0.4442482	0.004195683	-0.0002427591	-0.08584687	-0.1200424	0.002355928	0.003293761	
0.004195683	-0.0002427591	-0.2955228	-0.3384063	0.005498191	-0.0001410368	-0.1506583	0.01445367	
-0.08584687	-0.1200424	0.005498191	-0.0001410368	-0.1987698	-0.4939571	0.003521674	0.001341699	
0.002355928	0.003293761	-0.1506583	0.01445367	0.003521674	0.001341699	-0.2322385	-0.3988655	

2.754e+10	-0.2719476	-0.4425635	0.003894087	-0.0009905638	-0.1003882	-0.1258442	0.002854444	0.002867026	
0.003894087	-0.0009905638	-0.27973	-0.3319548	0.005081739	-0.001657435	-0.1358979	0.02026158	
-0.1003882	-0.1258442	0.005081739	-0.001657435	-0.2057113	-0.4973675	0.003618335	0.0002548654	
0.002854444	0.002867026	-0.1358979	0.02026158	0.003618335	0.0002548654	-0.2194273	-0.3947192	

2.756e+10	-0.2784891	-0.4400159	0.003542096	-0.001778005	-0.1151258	-0.1290783	0.003314307	0.002294764	
0.003542096	-0.001778005	-0.2619216	-0.3298711	0.004297765	-0.003006533	-0.1187421	0.02209331	
-0.1151258	-0.1290783	0.004297765	-0.003006533	-0.213043	-0.4994723	0.003351797	-0.000794617	
0.003314307	0.002294764	-0.1187421	0.02209331	0.003351797	-0.000794617	-0.2040618	-0.3936751	

2.758e+10	-0.2840947	-0.4373004	0.002954083	-0.002562609	-0.1300708	-0.1301162	0.003614322	0.001602628	
0.002954083	-0.002562609	-0.2431598	-0.333211	0.003170965	-0.004086658	-0.1008908	0.01831677	
-0.1300708	-0.1301162	0.003170965	-0.004086658	-0.2200379	-0.5003111	0.002770948	-0.001651751	
0.003614322	0.001602628	-0.1008908	0.01831677	0.002770948	-0.001651751	-0.1873881	-0.3978595	

2.76e+10	-0.28917	-0.4347418	0.002118716	-0.003140062	-0.145245	-0.1287281	0.003730962	0.0009068895	
0.002118716	-0.003140062	-0.2255089	-0.3427828	0.00178639	-0.004782242	-0.08510137	0.008914482	
-0.145245	-0.1287281	0.00178639	-0.004782242	-0.2264355	-0.500567	0.002001398	-0.002228638	
0.003730962	0.0009068895	-0.08510137	0.008914482	0.002001398	-0.002228638	-0.1723107	-0.4081152	

2.762e+10	-0.2941769	-0.4317326	0.001209747	-0.003421532	-0.1601329	-0.1245703	0.003736621	0.0002562966	
0.001209747	-0.003421532	-0.2117792	-0.357814	0.0002943967	-0.005023381	-0.0733681	-0.00438457	
-0.1601329	-0.1245703	0.0002943967	-0.005023381	-0.2326792	-0.5008067	0.001161465	-0.002522885	
0.003736621	0.0002562966	-0.0733681	-0.00438457	0.001161465	-0.002522885	-0.1616404	-0.4224093	

2.764e+10	-0.2987692	-0.4281163	0.0003442536	-0.003495891	-0.1739546	-0.1177319	0.003660199	-0.0003860394	
0.0003442536	-0.003495891	-0.2036643	-0.3761983	-0.001140794	-0.004825897	-0.06599545	-0.0195738	
-0.1739546	-0.1177319	-0.001140794	-0.004825897	-0.2394483	-0.5008885	0.000318804	-0.002554786	
0.003660199	-0.0003860394	-0.06599545	-0.0195738	0.000318804	-0.002554786	-0.1555228	-0.4382104	

2.766e+10	-0.3023982	-0.4242598	-0.0005139055	-0.003437801	-0.1862102	-0.1087689	0.003453854	-0.00102872	
-0.0005139055	-0.003437801	-0.201352	-0.3955168	-0.002399487	-0.004268849	-0.06269393	-0.03562958	
-0.1862102	-0.1087689	-0.002399487	-0.004268849	-0.2469263	-0.5000567	-0.0004564138	-0.00232207	
0.003453854	-0.00102872	-0.06269393	-0.03562958	-0.0004564138	-0.00232207	-0.1529601	-0.4545118	

2.768e+10	-0.3054838	-0.4204623	-0.001411392	-0.003184987	-0.1968416	-0.09818449	0.003085433	-0.001594966	
-0.001411392	-0.003184987	-0.2041575	-0.4138084	-0.003418297	-0.003451871	-0.06367101	-0.05176248	
-0.1968416	-0.09818449	-0.003418297	-0.003451871	-0.2544664	-0.4979136	-0.001055263	-0.00186138	
0.003085433	-0.001594966	-0.06367101	-0.05176248	-0.001055263	-0.00186138	-0.1539868	-0.4711231	

2.77e+10	-0.3084083	-0.416942	-0.002256266	-0.002638948	-0.2059648	-0.08603026	0.002621012	-0.002003915	
-0.002256266	-0.002638948	-0.2109118	-0.4301445	-0.004181138	-0.00245993	-0.06892096	-0.06648649	
-0.2059648	-0.08603026	-0.004181138	-0.00245993	-0.2616715	-0.4946289	-0.001405067	-0.001291573	
0.002621012	-0.002003915	-0.06892096	-0.06648649	-0.001405067	-0.001291573	-0.1589356	-0.4871275	

2.772e+10	-0.3116255	-0.4130908	-0.002880196	-0.001832062	-0.2132928	-0.07219563	0.002155428	-0.002270553	
-0.002880196	-0.001832062	-0.2208554	-0.4439372	-0.004685519	-0.001350634	-0.07729189	-0.07829665	
-0.2132928	-0.07219563	-0.004685519	-0.001350634	-0.2685602	-0.4905352	-0.001535072	-0.0007410913	
0.002155428	-0.002270553	-0.07729189	-0.07829665	-0.001535072	-0.0007410913	-0.1674255	-0.500963	

2.774e+10	-0.3146072	-0.4083783	-0.00320625	-0.0009115096	-0.218267	-0.05681363	0.001711675	-0.002454268	
-0.00320625	-0.0009115096	-0.2329878	-0.4549065	-0.004923047	-0.0001762181	-0.08702068	-0.08689926	
-0.218267	-0.05681363	-0.004923047	-0.0001762181	-0.275604	-0.485348	-0.001532459	-0.0002608469	
0.001711675	-0.002454268	-0.08702068	-0.08689926	-0.001532459	-0.0002608469	-0.1779915	-0.5116969	

2.776e+10	-0.3168168	-0.4026023	-0.003278096	5.149225e-06	-0.2203931	-0.04037019	0.001268306	-0.002572096	
-0.003278096	5.149225e-06	-0.2466145	-0.4626449	-0.004897701	0.001006244	-0.09699914	-0.09311637	
-0.2203931	-0.04037019	-0.004897701	0.001006244	-0.2824335	-0.4783309	-0.001446753	0.000175845	
0.001268306	-0.002572096	-0.09699914	-0.09311637	-0.001446753	0.000175845	-0.1890704	-0.5197488	

2.778e+10	-0.3175166	-0.3964672	-0.003158265	0.0008948896	-0.2194322	-0.02352802	0.0008253933	-0.002603704	
-0.003158265	0.0008948896	-0.2605255	-0.4673038	-0.00462967	0.002153934	-0.107117	-0.09763995	
-0.2194322	-0.02352802	-0.00462967	0.002153934	-0.2881563	-0.4689414	-0.001258697	0.0005800009	
0.0008253933	-0.002603704	-0.107117	-0.09763995	-0.001258697	0.0005800009	-0.2002357	-0.5260176	

2.78e+10	-0.3170432	-0.3904	-0.002841245	0.001776096	-0.2153948	-0.006731425	0.0004198748	-0.002533239	
-0.002841245	0.001776096	-0.2739852	-0.4694335	-0.004132214	0.00324473	-0.1176178	-0.1005972	
-0.2153948	-0.006731425	-0.004132214	0.00324473	-0.2914797	-0.4575314	-0.00095747	0.0009038529	
0.0004198748	-0.002533239	-0.1176178	-0.1005972	-0.00095747	0.0009038529	-0.2118069	-0.5308983	

2.782e+10	-0.31553	-0.384406	-0.002264416	0.002612271	-0.2081355	0.009669796	0.0001048337	-0.002385798	
-0.002264416	0.002612271	-0.2868353	-0.4697272	-0.003391928	0.004253561	-0.1282081	-0.1016894	
-0.2081355	0.009669796	-0.003391928	0.004253561	-0.2916911	-0.4450722	-0.0005896867	0.001101145	
0.0001048337	-0.002385798	-0.1282081	-0.1016894	-0.0005896867	0.001101145	-0.2237071	-0.5342652	

2.784e+10	-0.3126542	-0.3780684	-0.001398493	0.003283484	-0.1972029	0.0252273	-9.40953e-05	-0.00222371	
-0.001398493	0.003283484	-0.29935	-0.4684407	-0.002386441	0.005117739	-0.1382802	-0.1010206	
-0.1972029	0.0252273	-0.002386441	0.005117739	-0.2884781	-0.4323911	-0.0002147684	0.001178287	
-9.40953e-05	-0.00222371	-0.1382802	-0.1010206	-0.0002147684	0.001178287	-0.2357518	-0.5357867	

2.786e+10	-0.3072592	-0.371941	-0.0003118294	0.003655323	-0.182022	0.03888924	-0.000195604	-0.002116983	
-0.0003118294	0.003655323	-0.311402	-0.4655182	-0.001132206	0.005739085	-0.1475001	-0.09919069	
-0.182022	0.03888924	-0.001132206	0.005739085	-0.2816973	-0.4198427	0.0001478246	0.001164757	
-0.000195604	-0.002116983	-0.1475001	-0.09919069	0.0001478246	0.001164757	-0.247273	-0.5356387	

2.788e+10	-0.2987678	-0.367896	0.0008625889	0.003657561	-0.162618	0.04875681	-0.000262435	-0.002117499	
0.0008625889	0.003657561	-0.3225217	-0.4609512	0.00029853	0.006028413	-0.1561252	-0.09676399	
-0.162618	0.04875681	0.00029853	0.006028413	-0.2703447	-0.4086012	0.00050189	0.001057549	
-0.000262435	-0.002117499	-0.1561252	-0.09676399	0.00050189	0.001057549	-0.257982	-0.5343753	

2.79e+10	-0.2885433	-0.3677285	0.001992644	0.003291413	-0.1402132	0.05287033	-0.0003878467	-0.002220888	
0.001992644	0.003291413	-0.3324034	-0.4550043	0.001807652	0.005929586	-0.1646277	-0.09374974	
-0.1402132	0.05287033	0.001807652	0.005929586	-0.2539906	-0.4011531	0.0008114332	0.0008299402	
-0.0003878467	-0.002220888	-0.1646277	-0.09374974	0.0008114332	0.0008299402	-0.2682648	-0.5324587	

2.792e+10	-0.2786809	-0.3721141	0.00297677	0.002597626	-0.1171145	0.05009857	-0.0006324065	-0.002351961	
0.00297677	0.002597626	-0.3409621	-0.4483879	0.003274345	0.005413834	-0.1731062	-0.08972975	
-0.1171145	0.05009857	0.003274345	0.005413834	-0.2344343	-0.4002235	0.0009984403	0.0005070198	
-0.0006324065	-0.002351961	-0.1731062	-0.08972975	0.0009984403	0.0005070198	-0.2784069	-0.5298375	

2.794e+10	-0.2711501	-0.3799981	0.00373428	0.001618909	-0.09576085	0.04056919	-0.0009779778	-0.00242912	
0.00373428	0.001618909	-0.3486346	-0.4412895	0.004558802	0.004497473	-0.1811891	-0.08448984	
-0.09576085	0.04056919	0.004558802	0.004497473	-0.2149226	-0.4072922	0.001031997	0.0001852951	
-0.0009779778	-0.00242912	-0.1811891	-0.08448984	0.001031997	0.0001852951	-0.2883466	-0.5262397	

2.796e+10	-0.266452	-0.3906041	0.004168584	0.0004120537	-0.07825685	0.02506527	-0.001374147	-0.002425833	
0.004168584	0.0004120537	-0.3556289	-0.4335665	0.005526099	0.003265263	-0.1885048	-0.07827405	
-0.07825685	0.02506527	0.005526099	0.003265263	-0.1991659	-0.4213386	0.0009699192	-5.158502e-05	
-0.001374147	-0.002425833	-0.1885048	-0.07827405	0.0009699192	-5.158502e-05	-0.2978523	-0.5213446	

2.798e+10	-0.2657005	-0.402956	0.004184845	-0.0008989103	-0.06656845	0.005040361	-0.001797711	-0.002351308	
0.004184845	-0.0008989103	-0.3617798	-0.4247893	0.006100142	0.001864768	-0.1951313	-0.07144654	
-0.06656845	0.005040361	0.006100142	0.001864768	-0.1893737	-0.4399321	0.0009043028	-0.000198675	
-0.001797711	-0.002351308	-0.1951313	-0.07144654	0.0009043028	-0.000198675	-0.3065376	-0.5154481	

2.8e+10	-0.2696927	-0.415449	0.003772317	-0.002130973	-0.06212073	-0.01693605	-0.002253103	-0.002195642	
0.003772317	-0.002130973	-0.366452	-0.4152197	0.006299972	0.0004468576	-0.2013852	-0.06399924	
-0.06212073	-0.01693605	0.006299972	0.0004468576	-0.1862707	-0.460342	0.0008842817	-0.000315383	
-0.002253103	-0.002195642	-0.2013852	-0.06399924	0.0008842817	-0.000315383	-0.3143271	-0.5091377	

2.802e+10	-0.2780645	-0.4257375	0.003029104	-0.003135524	-0.06465582	-0.03772129	-0.0027186	-0.001921316	
0.003029104	-0.003135524	-0.3696192	-0.4053526	0.006199908	-0.0009069996	-0.207365	-0.05548572	
-0.06465582	-0.03772129	0.006199908	-0.0009069996	-0.1894357	-0.4801731	0.0008955142	-0.0004607654	
-0.0027186	-0.001921316	-0.207365	-0.05548572	0.0008955142	-0.0004607654	-0.321803	-0.5024163	

2.804e+10	-0.288972	-0.4323138	0.002092904	-0.003864456	-0.07225201	-0.05524083	-0.003128954	-0.001522714	
0.002092904	-0.003864456	-0.3715933	-0.3955683	0.005852791	-0.002174541	-0.2126599	-0.04562915	
-0.07225201	-0.05524083	0.005852791	-0.002174541	-0.1976667	-0.4977258	0.0008975156	-0.00065261	
-0.003128954	-0.001522714	-0.2126599	-0.04562915	0.0008975156	-0.00065261	-0.3291619	-0.4948661	

2.806e+10	-0.3003042	-0.4353157	0.001051803	-0.004348299	-0.0828056	-0.06899102	-0.003440937	-0.001057256	
0.001051803	-0.004348299	-0.372673	-0.3856447	0.005279366	-0.003331418	-0.2167006	-0.03443832	
-0.0828056	-0.06899102	0.005279366	-0.003331418	-0.2098241	-0.511604	0.0008677979	-0.0008820916	
-0.003440937	-0.001057256	-0.2167006	-0.03443832	0.0008677979	-0.0008820916	-0.3360987	-0.4859316	

2.808e+10	-0.311137	-0.4355545	-8.335349e-05	-0.004609346	-0.09510104	-0.07943224	-0.003686441	-0.0005851941	
-8.335349e-05	-0.004609346	-0.3725753	-0.3751855	0.004512475	-0.004344424	-0.2192059	-0.02222748	
-0.09510104	-0.07943224	0.004512475	-0.004344424	-0.2239816	-0.5213313	0.0007986762	-0.001151416	
-0.003686441	-0.0005851941	-0.2192059	-0.02222748	0.0007986762	-0.001151416	-0.3420524	-0.4754908	

2.81e+10	-0.3210334	-0.4340101	-0.0013079	-0.004603616	-0.1086484	-0.08682607	-0.003931076	-9.401392e-05	
-0.0013079	-0.004603616	-0.3705842	-0.3642992	0.003591941	-0.005206232	-0.2201168	-0.009225625	
-0.1086484	-0.08682607	0.003591941	-0.005206232	-0.2385074	-0.5272536	0.0006625203	-0.001475483	
-0.003931076	-9.401392e-05	-0.2201168	-0.009225625	0.0006625203	-0.001475483	-0.3464267	-0.4640906	

2.812e+10	-0.3300841	-0.4309521	-0.002555304	-0.004264532	-0.1228942	-0.09103656	-0.004188525	0.0004935209	
-0.002555304	-0.004264532	-0.366476	-0.3536547	0.002523788	-0.005930414	-0.2192603	0.004669419	
-0.1228942	-0.09103656	0.002523788	-0.005930414	-0.2523355	-0.5304612	0.0003986458	-0.00184615	
-0.004188525	0.0004935209	-0.2192603	0.004669419	0.0003986458	-0.00184615	-0.3493471	-0.4520023	

2.814e+10	-0.3380845	-0.4265565	-0.003706305	-0.00357414	-0.1371014	-0.09212834	-0.004387136	0.001238127	
-0.003706305	-0.00357414	-0.3603096	-0.3440788	0.001272934	-0.006492999	-0.2160773	0.01955051	
-0.1371014	-0.09212834	0.001272934	-0.006492999	-0.2657064	-0.5317621	-5.091385e-05	-0.00219791	
-0.004387136	0.001238127	-0.2160773	0.01955051	-5.091385e-05	-0.00219791	-0.3511583	-0.4386308	

2.816e+10	-0.3448835	-0.4210654	-0.004652588	-0.002582157	-0.1505094	-0.09064985	-0.004434007	0.002118714	
-0.004652588	-0.002582157	-0.3525933	-0.3355355	-0.000170578	-0.006804562	-0.2097384	0.03494766	
-0.1505094	-0.09064985	-0.000170578	-0.006804562	-0.2786967	-0.531515	-0.0006897641	-0.002429481	
-0.004434007	0.002118714	-0.2097384	0.03494766	-0.0006897641	-0.002429481	-0.3508433	-0.4236449	

2.818e+10	-0.3502777	-0.4150852	-0.005340105	-0.001362168	-0.1629763	-0.08720409	-0.004292278	0.003072969	
-0.005340105	-0.001362168	-0.3430774	-0.3279665	-0.001740516	-0.006764159	-0.1995938	0.04991237	
-0.1629763	-0.08720409	-0.001740516	-0.006764159	-0.2912595	-0.5295802	-0.001463975	-0.002458767	
-0.004292278	0.003072969	-0.1995938	0.04991237	-0.001463975	-0.002458767	-0.3469577	-0.4073857	

2.82e+10	-0.3544505	-0.4091888	-0.005734523	4.503977e-05	-0.1746618	-0.08204071	-0.0039633	0.004076974	
-0.005734523	4.503977e-05	-0.3311206	-0.3221132	-0.003322261	-0.006325292	-0.1855117	0.06322561	
-0.1746618	-0.08204071	-0.003322261	-0.006325292	-0.3029074	-0.5261345	-0.002305275	-0.002245699	
-0.0039633	0.004076974	-0.1855117	0.06322561	-0.002305275	-0.002245699	-0.3384992	-0.3911878	

2.822e+10	-0.3580182	-0.4033874	-0.005757103	0.001606329	-0.1855327	-0.0751108	-0.003405701	0.005141552	
-0.005757103	0.001606329	-0.3169105	-0.3193536	-0.004811409	-0.005488293	-0.1678575	0.07361442	
-0.1855327	-0.0751108	-0.004811409	-0.005488293	-0.3136652	-0.521614	-0.003160698	-0.001757777	
-0.003405701	0.005141552	-0.1678575	0.07361442	-0.003160698	-0.001757777	-0.3255616	-0.3767677	

2.824e+10	-0.3611707	-0.3974785	-0.005305164	0.003205333	-0.1952454	-0.0663149	-0.002507389	0.006227902	
-0.005305164	0.003205333	-0.3016345	-0.3209835	-0.006112864	-0.004256467	-0.147162	0.0801021	
-0.1952454	-0.0663149	-0.006112864	-0.004256467	-0.3238451	-0.5164536	-0.003956614	-0.0009389504	
-0.002507389	0.006227902	-0.147162	0.0801021	-0.003956614	-0.0009389504	-0.3085246	-0.3654776	

2.826e+10	-0.3639006	-0.3910558	-0.004349771	0.004645016	-0.2033184	-0.05588871	-0.001176572	0.007172336	
-0.004349771	0.004645016	-0.2871648	-0.327103	-0.00709834	-0.002644081	-0.1241425	0.08154636	
-0.2033184	-0.05588871	-0.00709834	-0.002644081	-0.3339971	-0.5104011	-0.004542128	0.0002571254	
-0.001176572	0.007172336	-0.1241425	0.08154636	-0.004542128	0.0002571254	-0.2879434	-0.3582574	

2.828e+10	-0.365647	-0.3842357	-0.002989126	0.005727406	-0.2095657	-0.04431525	0.0005450547	0.007744142	
-0.002989126	0.005727406	-0.2746448	-0.3373484	-0.007607271	-0.0007391975	-0.1002132	0.076508	
-0.2095657	-0.04431525	-0.007607271	-0.0007391975	-0.3438125	-0.5030666	-0.00470382	0.001767113	
0.0005450547	0.007744142	-0.1002132	0.076508	-0.00470382	0.001767113	-0.2642766	-0.3570191	

2.83e+10	-0.3664866	-0.3771297	-0.001407696	0.006354956	-0.214041	-0.0317977	0.002466435	0.007787449	
-0.001407696	0.006354956	-0.2652699	-0.3511317	-0.007524382	0.001269953	-0.07798038	0.06428206	
-0.214041	-0.0317977	-0.007524382	0.001269953	-0.35316	-0.4938347	-0.004278164	0.003382329	
0.002466435	0.007787449	-0.07798038	0.06428206	-0.004278164	0.003382329	-0.2400045	-0.3637095	

2.832e+10	-0.3664348	-0.3701631	0.0002321618	0.006546685	-0.2167013	-0.01838737	0.004378659	0.007300583	
0.0002321618	0.006546685	-0.2603254	-0.3675348	-0.006858152	0.003152947	-0.06051407	0.04589939	
-0.2167013	-0.01838737	-0.006858152	0.003152947	-0.3613434	-0.482842	-0.003260043	0.004831394	
0.004378659	0.007300583	-0.06051407	0.04589939	-0.003260043	0.004831394	-0.2189554	-0.3784787	

2.834e+10	-0.3656697	-0.362999	0.001848234	0.006348014	-0.2171907	-0.004132354	0.006169308	0.006346919	
0.001848234	0.006348014	-0.2606523	-0.3849818	-0.005720336	0.004742372	-0.0496094	0.02401418	
-0.2171907	-0.004132354	-0.005720336	0.004742372	-0.3680385	-0.4703905	-0.001769631	0.005921008	
0.006169308	0.006346919	-0.0496094	0.02401418	-0.001769631	0.005921008	-0.2042826	-0.3988598	

2.836e+10	-0.3639107	-0.3552496	0.003379218	0.005771733	-0.2150499	0.01078107	0.007777356	0.004935851	
0.003379218	0.005771733	-0.2663714	-0.4010731	-0.004225007	0.005960571	-0.04515793	0.001379699	
-0.2150499	0.01078107	-0.004225007	0.005960571	-0.3730178	-0.4565509	8.407101e-05	0.00654436	
0.007777356	0.004935851	-0.04515793	0.001379699	8.407101e-05	0.00654436	-0.1966502	-0.4215257	

2.838e+10	-0.3602566	-0.3471675	0.004735305	0.004829967	-0.2098233	0.02568872	0.009067425	0.00303603	
0.004735305	0.004829967	-0.276096	-0.414145	-0.002459055	0.006737896	-0.04625882	-0.02043151	
-0.2098233	0.02568872	-0.002459055	0.006737896	-0.3761373	-0.4408675	0.002200353	0.006554106	
0.009067425	0.00303603	-0.04625882	-0.02043151	0.002200353	0.006554106	-0.1955968	-0.4438969	

2.84e+10	-0.3542126	-0.339559	0.005819617	0.003580392	-0.2013999	0.03987825	0.009818904	0.0007149734	
0.005819617	0.003580392	-0.2881674	-0.4232305	-0.0005338206	0.006987037	-0.05212641	-0.04040425	
-0.2013999	0.03987825	-0.0005338206	0.006987037	-0.3761084	-0.4234722	0.004350095	0.005774658	
0.009818904	0.0007149734	-0.05212641	-0.04040425	0.004350095	0.005774658	-0.1998929	-0.4645924	

2.842e+10	-0.3459489	-0.3333796	0.006575414	0.002114047	-0.189692	0.05271322	0.009862297	-0.001804377	
0.006575414	0.002114047	-0.3008944	-0.4286063	0.001370638	0.00665012	-0.06197181	-0.05746694	
-0.189692	0.05271322	0.001370638	0.00665012	-0.3717494	-0.4051251	0.006148905	0.00418507	
0.009862297	-0.001804377	-0.06197181	-0.05746694	0.006148905	0.00418507	-0.2084725	-0.4824443	

2.844e+10	-0.335851	-0.3293492	0.006989298	0.0005033534	-0.1746536	0.06332717	0.009188981	-0.004256614	
0.006989298	0.0005033534	-0.3132249	-0.4311171	0.003046261	0.005765059	-0.07445631	-0.07095336	
-0.1746536	0.06332717	0.003046261	0.005765059	-0.3625777	-0.387188	0.007255642	0.002017078	
0.009188981	-0.004256614	-0.07445631	-0.07095336	0.007255642	0.002017078	-0.2199943	-0.4966794	

2.846e+10	-0.3242711	-0.3277991	0.007030788	-0.001212659	-0.1563845	0.07064316	0.007875639	-0.00646452	
0.007030788	-0.001212659	-0.324938	-0.4312073	0.0043312	0.004454026	-0.08818027	-0.08088731	
-0.1563845	0.07064316	0.0043312	0.004454026	-0.3483737	-0.3714997	0.007533335	-0.000389545	
0.007875639	-0.00646452	-0.08818027	-0.08088731	0.007533335	-0.000389545	-0.2328701	-0.5072284	

2.848e+10	-0.3114448	-0.329574	0.006627471	-0.002963084	-0.1355385	0.07313263	0.005963887	-0.008287107	
0.006627471	-0.002963084	-0.3356864	-0.4291956	0.005128921	0.002870805	-0.1022494	-0.0879794	
-0.1355385	0.07313263	0.005128921	0.002870805	-0.3296427	-0.3596158	0.006979652	-0.002746263	
0.005963887	-0.008287107	-0.1022494	-0.0879794	0.006979652	-0.002746263	-0.2459825	-0.514557	

2.85e+10	-0.2985178	-0.3358743	0.005722164	-0.0045986	-0.1136687	0.06943817	0.003512164	-0.009492067	
0.005722164	-0.0045986	-0.3450501	-0.4253419	0.005385964	0.00117433	-0.1165679	-0.09282195	
-0.1136687	0.06943817	0.005385964	0.00117433	-0.3074603	-0.3528212	0.005625739	-0.004772999	
0.003512164	-0.009492067	-0.1165679	-0.09282195	0.005625739	-0.004772999	-0.2587295	-0.519385	

2.852e+10	-0.2877335	-0.3470694	0.004350463	-0.005911402	-0.09328125	0.05899275	0.0007802135	-0.009801998	
0.004350463	-0.005911402	-0.3525187	-0.4204134	0.00507845	-0.0004483173	-0.1312449	-0.09549507	
-0.09328125	0.05899275	0.00507845	-0.0004483173	-0.2831918	-0.3527235	0.003620006	-0.006127929	
0.0007802135	-0.009801998	-0.1312449	-0.09549507	0.003620006	-0.006127929	-0.2708092	-0.5224438	

2.854e+10	-0.2813419	-0.3619205	0.002679542	-0.006734075	-0.07697223	0.04264884	-0.001766427	-0.009164313	
0.002679542	-0.006734075	-0.3581112	-0.4154619	0.004267324	-0.001776141	-0.1460156	-0.095732	
-0.07697223	0.04264884	0.004267324	-0.001776141	-0.2593848	-0.3604409	0.001351428	-0.006557491	
-0.001766427	-0.009164313	-0.1460156	-0.095732	0.001351428	-0.006557491	-0.2822816	-0.5242538	

2.856e+10	-0.2803196	-0.3780017	0.0009370808	-0.007028708	-0.06656829	0.02241564	-0.003743165	-0.007847708	
0.0009370808	-0.007028708	-0.3627111	-0.410692	0.003144329	-0.002626364	-0.1603029	-0.09352339	
-0.06656829	0.02241564	0.003144329	-0.002626364	-0.2393916	-0.3753357	-0.0006969895	-0.006108867	
-0.003743165	-0.007847708	-0.1603029	-0.09352339	-0.0006969895	-0.006108867	-0.2932779	-0.5249742	

2.858e+10	-0.2841121	-0.3932074	-0.0007058702	-0.006879884	-0.06271911	0.0006020787	-0.005052113	-0.006232164	
-0.0007058702	-0.006879884	-0.366527	-0.4062132	0.00197562	-0.002966915	-0.1736296	-0.08934844	
-0.06271911	0.0006020787	0.00197562	-0.002966915	-0.2256748	-0.3950091	-0.002214424	-0.005090397	
-0.005052113	-0.006232164	-0.1736296	-0.08934844	-0.002214424	-0.005090397	-0.3038113	-0.5247351	

2.86e+10	-0.2917872	-0.4062145	-0.002175692	-0.006394712	-0.06524809	-0.02054761	-0.005786857	-0.004580032	
-0.002175692	-0.006394712	-0.3698074	-0.4015994	0.0009613394	-0.002921181	-0.1860032	-0.08363217	
-0.06524809	-0.02054761	0.0009613394	-0.002921181	-0.2186879	-0.4163625	-0.003145116	-0.003842581	
-0.005786857	-0.004580032	-0.1860032	-0.08363217	-0.003145116	-0.003842581	-0.3138426	-0.5237702	

2.862e+10	-0.3021248	-0.4164503	-0.003446573	-0.005641963	-0.07327475	-0.03912507	-0.006066005	-0.003019113	
-0.003446573	-0.005641963	-0.3720788	-0.397334	0.0001611831	-0.002650504	-0.1976169	-0.07645221	
-0.07327475	-0.03912507	0.0001611831	-0.002650504	-0.2174708	-0.4369425	-0.003578202	-0.002594948	
-0.006066005	-0.003019113	-0.1976169	-0.07645221	-0.003578202	-0.002594948	-0.3234075	-0.522417	

2.864e+10	-0.3140783	-0.4233697	-0.004481473	-0.004671605	-0.08521367	-0.05380742	-0.005979099	-0.001635696	
-0.004481473	-0.004671605	-0.3737695	-0.3937333	-0.0004453361	-0.002251174	-0.2083145	-0.0676051	
-0.08521367	-0.05380742	-0.0004453361	-0.002251174	-0.2206092	-0.455743	-0.003628914	-0.001472811	
-0.005979099	-0.001635696	-0.2083145	-0.0676051	-0.003628914	-0.001472811	-0.3330358	-0.5207535	

2.866e+10	-0.32639	-0.4270548	-0.005243985	-0.003557123	-0.09921508	-0.064136	-0.005634604	-0.000502875	
-0.005243985	-0.003557123	-0.3754492	-0.3909681	-0.0008641283	-0.001763126	-0.2176162	-0.05704994	
-0.09921508	-0.064136	-0.0008641283	-0.001763126	-0.2269031	-0.4725247	-0.003406703	-0.0005511554	
-0.005634604	-0.000502875	-0.2176162	-0.05704994	-0.003406703	-0.0005511554	-0.3429858	-0.5185883	

2.868e+10	-0.3380523	-0.4280484	-0.005742559	-0.002383344	-0.1138299	-0.07055005	-0.005168342	0.0003532485	
-0.005742559	-0.002383344	-0.3776163	-0.3885827	-0.001075563	-0.001241226	-0.2250842	-0.0452623	
-0.1138299	-0.07055005	-0.001075563	-0.001241226	-0.2359307	-0.4867446	-0.003023932	0.0001362582	
-0.005168342	0.0003532485	-0.2250842	-0.0452623	-0.003023932	0.0001362582	-0.3533964	-0.5153503	

2.87e+10	-0.3485502	-0.4272126	-0.006020341	-0.001198613	-0.128249	-0.073806	-0.004699762	0.0009826876	
-0.006020341	-0.001198613	-0.3802497	-0.3858657	-0.001090274	-0.0007711003	-0.2307406	-0.03279817	
-0.128249	-0.073806	-0.001090274	-0.0007711003	-0.2465331	-0.498165	-0.002582624	0.0005990951	
-0.004699762	0.0009826876	-0.2307406	-0.03279817	-0.002582624	0.0005990951	-0.3639263	-0.5107713	

2.872e+10	-0.3579199	-0.4253448	-0.006100799	-4.259162e-06	-0.1421743	-0.07439011	-0.004287402	0.001474597	
-0.006100799	-4.259162e-06	-0.3827993	-0.3827993	-0.00097348	-0.0004194481	-0.23485	-0.01976218	
-0.1421743	-0.07439011	-0.00097348	-0.0004194481	-0.2576853	-0.5070479	-0.002157429	0.0008786742	
-0.004287402	0.001474597	-0.23485	-0.01976218	-0.002157429	0.0008786742	-0.3741809	-0.5049388	

2.874e+10	-0.3665013	-0.4228023	-0.005968927	0.001190543	-0.1553721	-0.07258329	-0.003925957	0.001909731	
-0.005968927	0.001190543	-0.3852033	-0.379597	-0.0008015451	-0.0001968784	-0.2374508	-0.006134925	
-0.1553721	-0.07258329	-0.0008015451	-0.0001968784	-0.2688183	-0.5142019	-0.001791225	0.00102709	
-0.003925957	0.001909731	-0.2374508	-0.006134925	-0.001791225	0.00102709	-0.384341	-0.4978176	

2.876e+10	-0.3745451	-0.4196424	-0.00560434	0.002338602	-0.1673955	-0.06868801	-0.003581026	0.002324657	
-0.00560434	0.002338602	-0.3877985	-0.3763282	-0.0006216942	-8.494044e-05	-0.2382405	0.008153021	
-0.1673955	-0.06868801	-0.0006216942	-8.494044e-05	-0.2801529	-0.5203005	-0.001501046	0.001096187	
-0.003581026	0.002324657	-0.2382405	0.008153021	-0.001501046	0.001096187	-0.3943659	-0.4890923	

2.878e+10	-0.3819736	-0.4158299	-0.005023973	0.003377243	-0.1779706	-0.06323251	-0.00322916	0.002721133	
-0.005023973	0.003377243	-0.3907204	-0.3725985	-0.0004646763	-7.417957e-05	-0.2369083	0.02276994	
-0.1779706	-0.06323251	-0.0004646763	-7.417957e-05	-0.2922056	-0.5252056	-0.001279876	0.001129952	
-0.00322916	0.002721133	-0.2369083	0.02276994	-0.001279876	0.001129952	-0.4040307	-0.4781058	

2.88e+10	-0.3887686	-0.4113988	-0.004278478	0.004265058	-0.1871442	-0.05675174	-0.00287153	0.003105316	
-0.004278478	0.004265058	-0.3937179	-0.3677908	-0.0003731544	-0.0001503098	-0.2334278	0.03730551	
-0.1871442	-0.05675174	-0.0003731544	-0.0001503098	-0.3049105	-0.5285465	-0.001109977	0.001152229	
-0.00287153	0.003105316	-0.2334278	0.03730551	-0.001109977	0.001152229	-0.4124988	-0.4644452	

2.882e+10	-0.394811	-0.4068446	-0.003415754	0.004999807	-0.1951342	-0.04952152	-0.00250266	0.003506011	
-0.003415754	0.004999807	-0.3959443	-0.3618003	-0.0003893906	-0.0002711378	-0.2278602	0.05160131	
-0.1951342	-0.04952152	-0.0003893906	-0.0002711378	-0.317605	-0.5302591	-0.0009840169	0.001168972	
-0.00250266	0.003506011	-0.2278602	0.05160131	-0.0009840169	0.001168972	-0.4185489	-0.4485248	

2.884e+10	-0.4006598	-0.4020608	-0.002455901	0.005594698	-0.2020915	-0.04155694	-0.002078714	0.00395601	
-0.002455901	0.005594698	-0.3969287	-0.3548952	-0.0005298013	-0.0003706953	-0.2201344	0.06566675	
-0.2020915	-0.04155694	-0.0005298013	-0.0003706953	-0.330118	-0.5305631	-0.0009098916	0.001194403	
-0.002078714	0.00395601	-0.2201344	0.06566675	-0.0009098916	0.001194403	-0.4217972	-0.4305748	

2.886e+10	-0.4065086	-0.3968337	-0.001396586	0.006049279	-0.2078886	-0.03292633	-0.001523091	0.004446052	
-0.001396586	0.006049279	-0.3965133	-0.3476104	-0.0007763278	-0.0003779697	-0.2097411	0.0793801	
-0.2078886	-0.03292633	-0.0007763278	-0.0003779697	-0.3425201	-0.529861	-0.0008863477	0.001265836	
-0.001523091	0.004446052	-0.2097411	0.0793801	-0.0008863477	0.001265836	-0.4215865	-0.4109783	

2.888e+10	-0.4120126	-0.3909854	-0.000231546	0.006338772	-0.212432	-0.02379052	-0.0007712181	0.004906964	
-0.000231546	0.006338772	-0.3944754	-0.3402618	-0.001071037	-0.0002335239	-0.1961384	0.09208673	
-0.212432	-0.02379052	-0.001071037	-0.0002335239	-0.3551278	-0.5280876	-0.0008768771	0.001424786	
-0.0007712181	0.004906964	-0.1961384	0.09208673	-0.0008768771	0.001424786	-0.4170223	-0.3899696	

2.89e+10	-0.4171211	-0.3841003	0.001026021	0.006421448	-0.2157745	-0.01448304	0.0001869127	0.005237166	
0.001026021	0.006421448	-0.3905759	-0.3326413	-0.001325951	8.226013e-05	-0.1788767	0.1027756	
-0.2157745	-0.01448304	-0.001325951	8.226013e-05	-0.367983	-0.5247542	-0.0008153779	0.001679205	
0.0001869127	0.005237166	-0.1788767	0.1027756	-0.0008153779	0.001679205	-0.4065216	-0.368482	

2.892e+10	-0.4212909	-0.3766775	0.002341401	0.006258031	-0.2181512	-0.005064827	0.001311222	0.005348415	
0.002341401	0.006258031	-0.3838364	-0.3257474	-0.001457855	0.0005386985	-0.1579589	0.1099888	
-0.2181512	-0.005064827	-0.001457855	0.0005386985	-0.380561	-0.51959	-0.0006482249	0.001995031	
0.001311222	0.005348415	-0.1579589	0.1099888	-0.0006482249	0.001995031	-0.3888446	-0.3487678	

2.894e+10	-0.4247626	-0.3688502	0.00366771	0.005818368	-0.2197134	0.004525612	0.002542124	0.005178592	
0.00366771	0.005818368	-0.374162	-0.3212625	-0.001415729	0.001073818	-0.1341403	0.1119997	
-0.2197134	0.004525612	-0.001415729	0.001073818	-0.3923495	-0.5128007	-0.0003500808	0.002326609	
0.002542124	0.005178592	-0.1341403	0.1119997	-0.0003500808	0.002326609	-0.363918	-0.3344054	

2.896e+10	-0.4277882	-0.3603588	0.004950614	0.005072729	-0.2203547	0.01448143	0.003814807	0.004668758	
0.004950614	0.005072729	-0.3628987	-0.3208399	-0.001175773	0.001626656	-0.1089651	0.1073042	
-0.2203547	0.01448143	-0.001175773	0.001626656	-0.4034223	-0.5046354	9.686652e-05	0.002637922	
0.003814807	0.004668758	-0.1089651	0.1073042	9.686652e-05	0.002637922	-0.3341433	-0.3284764	

2.898e+10	-0.4299182	-0.3510077	0.006104696	0.003990237	-0.2199308	0.02466919	0.005020258	0.003745121	
0.006104696	0.003990237	-0.3521825	-0.3252124	-0.0007168718	0.002131372	-0.08496251	0.09489199	
-0.2199308	0.02466919	-0.0007168718	0.002131372	-0.4137195	-0.4953297	0.0007288708	0.002873088	
0.005020258	0.003745121	-0.08496251	0.09489199	0.0007288708	0.002873088	-0.3029768	-0.3329671	

2.9e+10	-0.430683	-0.3406214	0.007001842	0.002578119	-0.2182829	0.03511957	0.005961554	0.002382762	
0.007001842	0.002578119	-0.3442935	-0.3332942	-3.724724e-05	0.002487121	-0.06520708	0.07511801	
-0.2182829	0.03511957	-3.724724e-05	0.002487121	-0.4234232	-0.4843543	0.001556055	0.002908854	
0.005961554	0.002382762	-0.06520708	0.07511801	0.001556055	0.002908854	-0.2745956	-0.347948	

2.902e+10	-0.4294481	-0.3296462	0.007505409	0.0009258569	-0.2154004	0.04562763	0.006409602	0.000707219	
0.007505409	0.0009258569	-0.3401513	-0.3436122	0.0007938638	0.002580655	-0.05269117	0.04981015	
-0.2154004	0.04562763	0.0007938638	0.002580655	-0.4319589	-0.4714004	0.002471752	0.002601771	
0.006409602	0.000707219	-0.05269117	0.04981015	0.002471752	0.002601771	-0.253099	-0.3717257	

2.904e+10	-0.4261488	-0.3186841	0.00755014	-0.0007990012	-0.2111624	0.05630437	0.006258508	-0.001007605	
0.00755014	-0.0007990012	-0.3401866	-0.3542479	0.001637195	0.002359656	-0.0491445	0.02248973	
-0.2111624	0.05630437	0.001637195	0.002359656	-0.4384524	-0.4565755	0.003267092	0.001917635	
0.006258508	-0.001007605	-0.0491445	0.02248973	0.003267092	0.001917635	-0.2414738	-0.4006118	

2.906e+10	-0.4207626	-0.3081773	0.007175909	-0.002439385	-0.2052259	0.06707815	0.005603903	-0.002502053	
0.007175909	-0.002439385	-0.3437312	-0.363867	0.002360546	0.001865986	-0.05404869	-0.002983942	
-0.2052259	0.06707815	0.002360546	0.001865986	-0.4424745	-0.4403174	0.003769945	0.0009766591	
0.005603903	-0.002502053	-0.05404869	-0.002983942	0.003769945	0.0009766591	-0.2401977	-0.4297832	

2.908e+10	-0.4132532	-0.2980476	0.006470161	-0.003913994	-0.1971927	0.07767627	0.004631841	-0.003668783	
0.006470161	-0.003913994	-0.3500341	-0.3711875	0.002899616	0.001186028	-0.06508907	-0.02411593	
-0.1971927	0.07767627	0.002899616	0.001186028	-0.4436785	-0.4232483	0.003943037	-5.353068e-05	
0.004631841	-0.003668783	-0.06508907	-0.02411593	0.003943037	-5.353068e-05	-0.2471985	-0.4554725	

2.91e+10	-0.4029679	-0.288816	0.005492653	-0.00519814	-0.1865976	0.08760734	0.003466757	-0.004512581	
0.005492653	-0.00519814	-0.3576401	-0.3756904	0.003239734	0.0003847493	-0.07972095	-0.04021757	
-0.1865976	0.08760734	0.003239734	0.0003847493	-0.442107	-0.4054004	0.003827594	-0.001074302	
0.003466757	-0.004512581	-0.07972095	-0.04021757	0.003827594	-0.001074302	-0.2593727	-0.4759208	

2.912e+10	-0.3894194	-0.2818926	0.004266393	-0.006261573	-0.1732534	0.09603594	0.002163388	-0.005023572	
0.004266393	-0.006261573	-0.365178	-0.3774931	0.003366659	-0.0005028142	-0.09627339	-0.05164297	
-0.1732534	0.09603594	0.003366659	-0.0005028142	-0.4368502	-0.3871726	0.003438962	-0.00204077	
0.002163388	-0.005023572	-0.09627339	-0.05164297	0.003438962	-0.00204077	-0.274046	-0.491354	

2.914e+10	-0.3734249	-0.2787481	0.002819804	-0.007042881	-0.1571877	0.101923	0.0008043197	-0.005150981	
0.002819804	-0.007042881	-0.3716924	-0.3775773	0.003244521	-0.001433034	-0.113771	-0.05869646	
-0.1571877	0.101923	0.003244521	-0.001433034	-0.4271076	-0.3693203	0.00276546	-0.002872835	
0.0008043197	-0.005150981	-0.113771	-0.05869646	0.00276546	-0.002872835	-0.2899323	-0.50238	

2.916e+10	-0.3564	-0.2805599	0.001220852	-0.00747739	-0.1389322	0.1041238	-0.0004660437	-0.004889239	
0.001220852	-0.00747739	-0.3770505	-0.3770505	0.002840998	-0.002327069	-0.1312786	-0.06152335	
-0.1389322	0.1041238	0.002840998	-0.002327069	-0.4122424	-0.353834	0.001854497	-0.003445182	
-0.0004660437	-0.004889239	-0.1312786	-0.06152335	0.001854497	-0.003445182	-0.3059372	-0.5099711	

2.918e+10	-0.3401958	-0.2872842	-0.0004367159	-0.007532851	-0.1195157	0.101608	-0.001518032	-0.004325136	
-0.0004367159	-0.007532851	-0.3819198	-0.3763612	0.002165283	-0.003075292	-0.1477639	-0.06063253	
-0.1195157	0.101608	0.002165283	-0.003075292	-0.3932236	-0.3427891	0.0008427061	-0.003672967	
-0.001518032	-0.004325136	-0.1477639	-0.06063253	0.0008427061	-0.003672967	-0.3217031	-0.5146327	

2.92e+10	-0.3261057	-0.2987161	-0.002060707	-0.00720552	-0.1005444	0.09366076	-0.002305255	-0.00358392	
-0.002060707	-0.00720552	-0.3866924	-0.3753859	0.001291154	-0.003578282	-0.1625508	-0.05692449	
-0.1005444	0.09366076	0.001291154	-0.003578282	-0.3720473	-0.3374702	-0.000110949	-0.003576179	
-0.002305255	-0.00358392	-0.1625508	-0.05692449	-0.000110949	-0.003576179	-0.3370707	-0.516671	

2.922e+10	-0.3155796	-0.3144799	-0.003559242	-0.006503783	-0.08397396	0.08033142	-0.002841863	-0.002754919	
-0.003559242	-0.006503783	-0.3911973	-0.3739669	0.0003304508	-0.003790021	-0.1755951	-0.05128107	
-0.08397396	0.08033142	0.0003304508	-0.003790021	-0.3505675	-0.3381846	-0.0009146794	-0.003247547	
-0.002841863	-0.002754919	-0.1755951	-0.05128107	-0.0009146794	-0.003247547	-0.3514938	-0.5168192	

2.924e+10	-0.310483	-0.3330688	-0.004826581	-0.005461217	-0.07186245	0.06257926	-0.003139587	-0.001888692	
-0.004826581	-0.005461217	-0.3952383	-0.3723235	-0.0006128178	-0.003723508	-0.1871516	-0.04406836	
-0.07186245	0.06257926	-0.0006128178	-0.003723508	-0.3304871	-0.344388	-0.001548364	-0.002769337	
-0.003139587	-0.001888692	-0.1871516	-0.04406836	-0.001548364	-0.002769337	-0.3652184	-0.5154348	

2.926e+10	-0.3116037	-0.3522039	-0.005759555	-0.004166159	-0.06558644	0.04238107	-0.003195436	-0.001043812	
-0.005759555	-0.004166159	-0.3990454	-0.3708159	-0.001462526	-0.003418919	-0.1971825	-0.03537215	
-0.06558644	0.04238107	-0.001462526	-0.003418919	-0.3131937	-0.3557489	-0.002001959	-0.002188586	
-0.003195436	-0.001043812	-0.1971825	-0.03537215	-0.002001959	-0.002188586	-0.3784421	-0.5129314	

2.928e+10	-0.3183232	-0.3691715	-0.006308789	-0.002750999	-0.06523773	0.02215792	-0.003035258	-0.0003045642	
-0.006308789	-0.002750999	-0.403252	-0.3693829	-0.002163063	-0.002925347	-0.2053501	-0.02535935	
-0.06523773	0.02215792	-0.002163063	-0.002925347	-0.3005401	-0.3710037	-0.002252485	-0.001560276	
-0.003035258	-0.0003045642	-0.2053501	-0.02535935	-0.002252485	-0.001560276	-0.3915043	-0.5091135	

2.93e+10	-0.3285911	-0.3826974	-0.006495753	-0.001348753	-0.06990214	0.003700118	-0.002739463	0.0002686067	
-0.006495753	-0.001348753	-0.4079697	-0.3675955	-0.002671918	-0.00231041	-0.2114813	-0.01467695	
-0.06990214	0.003700118	-0.002671918	-0.00231041	-0.2933809	-0.3880598	-0.002304841	-0.0009660271	
-0.002739463	0.0002686067	-0.2114813	-0.01467695	-0.002304841	-0.0009660271	-0.4042715	-0.5037118	

2.932e+10	-0.3408403	-0.3925067	-0.006389544	-4.460816e-05	-0.0782576	-0.01203102	-0.00240536	0.0006765692	
-0.006389544	-4.460816e-05	-0.4130006	-0.36475	-0.002979596	-0.001659784	-0.2158071	-0.003766927	
-0.0782576	-0.01203102	-0.002979596	-0.001659784	-0.2911603	-0.4045961	-0.002214362	-0.0004767396	
-0.00240536	0.0006765692	-0.2158071	-0.003766927	-0.002214362	-0.0004767396	-0.4163659	-0.4965575	

2.934e+10	-0.3540322	-0.3990365	-0.006061668	0.001122369	-0.08925192	-0.02473497	-0.002092415	0.0009765983	
-0.006061668	0.001122369	-0.4177353	-0.360834	-0.003129447	-0.001045277	-0.2187709	0.007219154	
-0.08925192	-0.02473497	-0.003129447	-0.001045277	-0.2924352	-0.419196	-0.002064248	-0.0001085439	
-0.002092415	0.0009765983	-0.2187709	0.007219154	-0.002064248	-0.0001085439	-0.4276517	-0.4876433	

2.936e+10	-0.367311	-0.4026801	-0.005566566	0.002143495	-0.1019638	-0.0341166	-0.001798434	0.001228189	
-0.005566566	0.002143495	-0.4217998	-0.3563223	-0.003187551	-0.0004900416	-0.2205004	0.01843843	
-0.1019638	-0.0341166	-0.003187551	-0.0004900416	-0.2956715	-0.4321409	-0.001909747	0.0001744727	
-0.001798434	0.001228189	-0.2205004	0.01843843	-0.001909747	0.0001744727	-0.4378005	-0.4774407	

2.938e+10	-0.3803018	-0.4034254	-0.004941647	0.00301521	-0.115443	-0.0402241	-0.00149114	0.001449564	
-0.004941647	0.00301521	-0.42556	-0.351179	-0.003198619	3.405541e-05	-0.2207853	0.02996907	
-0.115443	-0.0402241	-0.003198619	3.405541e-05	-0.3007292	-0.4436747	-0.001756171	0.0004135233	
-0.00149114	0.001449564	-0.2207853	0.02996907	-0.001756171	0.0004135233	-0.4470966	-0.465577	

2.94e+10	-0.392125	-0.4019657	-0.004218815	0.003733805	-0.1287601	-0.04340762	-0.001155396	0.001622199	
-0.004218815	0.003733805	-0.4289674	-0.3451453	-0.003158478	0.0005580617	-0.2194008	0.04165455	
-0.1287601	-0.04340762	-0.003158478	0.0005580617	-0.3073654	-0.4538062	-0.001587934	0.000615919	
-0.001155396	0.001622199	-0.2194008	0.04165455	-0.001587934	0.000615919	-0.4551628	-0.4516808	

2.942e+10	-0.4025814	-0.3989442	-0.003426277	0.004299713	-0.1414661	-0.0443328	-0.000805239	0.001729204	
-0.003426277	0.004299713	-0.4315157	-0.3378653	-0.00304313	0.001081815	-0.21634	0.05317824	
-0.1414661	-0.0443328	-0.00304313	0.001081815	-0.3151875	-0.4618744	-0.001409447	0.0007652672	
-0.000805239	0.001729204	-0.21634	0.05317824	-0.001409447	0.0007652672	-0.4610475	-0.4356862	

2.944e+10	-0.4116913	-0.3950737	-0.002592746	0.004718137	-0.1535184	-0.04352815	-0.00046129	0.001778553	
-0.002592746	0.004718137	-0.432338	-0.3294726	-0.002848757	0.001581693	-0.2116405	0.06446272	
-0.1535184	-0.04352815	-0.002848757	0.001581693	-0.3232708	-0.4679085	-0.001253033	0.0008582906	
-0.00046129	0.001778553	-0.2116405	0.06446272	-0.001253033	0.0008582906	-0.4641431	-0.4176231	

2.946e+10	-0.419865	-0.3905725	-0.001735193	0.004999648	-0.1650182	-0.04114366	-0.0001204926	0.001788145	
-0.001735193	0.004999648	-0.4309457	-0.3206324	-0.002594322	0.002047402	-0.2051338	0.07559651	
-0.1650182	-0.04114366	-0.002594322	0.002047402	-0.3309284	-0.4727904	-0.001151688	0.0009269742	
-0.0001204926	0.001788145	-0.2051338	0.07559651	-0.001151688	0.0009269742	-0.4635336	-0.3984203	

2.948e+10	-0.4272016	-0.3856002	-0.0008668886	0.005149948	-0.1758284	-0.03714902	0.0002393166	0.001751829	
-0.0008668886	0.005149948	-0.4272998	-0.3121639	-0.002288855	0.002495223	-0.1962702	0.08636097	
-0.1758284	-0.03714902	-0.002288855	0.002495223	-0.3384204	-0.4772615	-0.00110159	0.001026172	
0.0002393166	0.001751829	-0.1962702	0.08636097	-0.00110159	0.001026172	-0.4587873	-0.3785987	

2.95e+10	-0.4336825	-0.3801954	3.338382e-06	0.005169599	-0.1856012	-0.03182542	0.0006213976	0.001629754	
3.338382e-06	0.005169599	-0.4213731	-0.3046872	-0.001906207	0.002942041	-0.1844371	0.09605282	
-0.1856012	-0.03182542	-0.001906207	0.002942041	-0.3464659	-0.4812715	-0.001056519	0.001192499	
0.0006213976	0.001629754	-0.1844371	0.09605282	-0.001056519	0.001192499	-0.4492962	-0.3585401	

2.952e+10	-0.4393868	-0.3743444	0.0008595271	0.005053931	-0.1942518	-0.02543578	0.00097947	0.001380288	
0.0008595271	0.005053931	-0.413147	-0.2985194	-0.001402413	0.003362461	-0.1694032	0.1034448	
-0.1942518	-0.02543578	-0.001402413	0.003362461	-0.3551228	-0.4843264	-0.0009598931	0.001417223	
0.00097947	0.001380288	-0.1694032	0.1034448	-0.0009598931	0.001417223	-0.4337004	-0.339698	

2.954e+10	-0.4442107	-0.368529	0.00167558	0.004802701	-0.2019486	-0.01834323	0.001232799	0.001013461	
0.00167558	0.004802701	-0.4023141	-0.294881	-0.0007638233	0.003691608	-0.1515267	0.1069696	
-0.2019486	-0.01834323	-0.0007638233	0.003691608	-0.3637691	-0.4862601	-0.0007802951	0.001663484	
0.001232799	0.001013461	-0.1515267	0.1069696	-0.0007802951	0.001663484	-0.4113187	-0.3247234	

2.956e+10	-0.4486133	-0.3626321	0.002421292	0.004431573	-0.2088559	-0.01050709	0.001327038	0.0006027251	
0.002421292	0.004431573	-0.3897849	-0.2953271	-2.672243e-05	0.003866308	-0.1320703	0.1050911	
-0.2088559	-0.01050709	-2.672243e-05	0.003866308	-0.3721878	-0.48733	-0.000512406	0.001893803	
0.001327038	0.0006027251	-0.1320703	0.1050911	-0.000512406	0.001893803	-0.3833639	-0.3169209	

2.958e+10	-0.4527498	-0.356663	0.003084587	0.003973188	-0.2148231	-0.001724747	0.00128044	0.0002370613	
0.003084587	0.003973188	-0.3775348	-0.3012742	0.0007450014	0.003862203	-0.1131704	0.09682759	
-0.2148231	-0.001724747	0.0007450014	0.003862203	-0.3804675	-0.4882044	-0.0001561334	0.002081853	
0.00128044	0.0002370613	-0.1131704	0.09682759	-0.0001561334	0.002081853	-0.3529021	-0.3192073	

2.96e+10	-0.4566519	-0.3502747	0.003679543	0.003449766	-0.2195907	0.007821772	0.001156042	-4.946116e-05	
0.003679543	0.003449766	-0.3685278	-0.3118714	0.001500226	0.003686856	-0.09759336	0.0823269	
-0.2195907	0.007821772	0.001500226	0.003686856	-0.3892093	-0.4887777	0.0002911658	0.002188012	
0.001156042	-4.946116e-05	-0.09759336	0.0823269	0.0002911658	0.002188012	-0.3244342	-0.332112	

2.962e+10	-0.4601556	-0.3432393	0.004221092	0.002854565	-0.2229957	0.01786346	0.0009886076	-0.0002740908	
0.004221092	0.002854565	-0.3643864	-0.3251131	0.002203143	0.00335116	-0.087861	0.06325087	
-0.2229957	0.01786346	0.002203143	0.00335116	-0.3986997	-0.4883318	0.00080306	0.002151086	
0.0009886076	-0.0002740908	-0.087861	0.06325087	0.00080306	0.002151086	-0.3021102	-0.3537256	

2.964e+10	-0.4628709	-0.3358019	0.004700019	0.002165744	-0.2252048	0.02809066	0.0007693294	-0.0004346454	
0.004700019	0.002165744	-0.3651827	-0.3387553	0.002812601	0.002868025	-0.08548989	0.04240036	
-0.2252048	0.02809066	0.002812601	0.002868025	-0.4082202	-0.4866703	0.00129264	0.001933622	
0.0007693294	-0.0004346454	-0.08548989	0.04240036	0.00129264	0.001933622	-0.2885633	-0.3809959	

2.966e+10	-0.4648737	-0.3280538	0.005082331	0.00137941	-0.2263709	0.038491	0.0005145967	-0.0004846771	
0.005082331	0.00137941	-0.3703021	-0.3509125	0.003285429	0.002273582	-0.09034216	0.02304472	
-0.2263709	0.038491	0.003285429	0.002273582	-0.4174644	-0.4838078	0.001662571	0.001579873	
0.0005145967	-0.0004846771	-0.09034216	0.02304472	0.001662571	0.001579873	-0.2846684	-0.4100422	

2.968e+10	-0.4662815	-0.3198676	0.005340347	0.0005168511	-0.2264084	0.04928224	0.0003038689	-0.0004035847	
0.005340347	0.0005168511	-0.3784734	-0.3607934	0.003602254	0.001627388	-0.1005446	0.007842408	
-0.2264084	0.04928224	0.003602254	0.001627388	-0.4263601	-0.480221	0.0018852	0.001190623	
0.0003038689	-0.0004035847	-0.1005446	0.007842408	0.0018852	0.001190623	-0.2897288	-0.4369036	

2.97e+10	-0.4669474	-0.3110621	0.005467134	-0.0003993515	-0.2250897	0.0603126	0.000213836	-0.0002531931	
0.005467134	-0.0003993515	-0.3887828	-0.3676537	0.003786169	0.0009857997	-0.1134659	-0.002337148	
-0.2250897	0.0603126	0.003786169	0.0009857997	-0.4351879	-0.4760907	0.002016746	0.000835075	
0.000213836	-0.0002531931	-0.1134659	-0.002337148	0.002016746	0.000835075	-0.3009733	-0.4594102	

2.972e+10	-0.4663378	-0.3014566	0.005458306	-0.001361718	-0.2222241	0.07139113	0.0002408864	-0.0001286754	
0.005458306	-0.001361718	-0.3998292	-0.3715443	0.003881845	0.0003674824	-0.1269618	-0.007943264	
-0.2222241	0.07139113	0.003881845	0.0003674824	-0.4443206	-0.4706779	0.002120254	0.0005003863	
0.0002408864	-0.0001286754	-0.1269618	-0.007943264	0.002120254	0.0005003863	-0.3158859	-0.476709	

2.974e+10	-0.4639433	-0.2912568	0.005291014	-0.002369113	-0.2178469	0.08223058	0.0003204247	-7.275167e-05	
0.005291014	-0.002369113	-0.410763	-0.3725878	0.003918885	-0.0002476129	-0.1400008	-0.01003538	
-0.2178469	0.08223058	0.003918885	-0.0002476129	-0.4531064	-0.4636674	0.00219799	0.0001424381	
0.0003204247	-7.275167e-05	-0.1400008	-0.01003538	0.00219799	0.0001424381	-0.3325004	-0.4892595	

2.976e+10	-0.4593302	-0.2812574	0.00492414	-0.003397698	-0.212014	0.09271478	0.0004088628	-6.13501e-05	
0.00492414	-0.003397698	-0.4207409	-0.3718475	0.003886486	-0.0008869121	-0.1521589	-0.009253126	
-0.212014	0.09271478	0.003886486	-0.0008869121	-0.4609126	-0.4549978	0.002210634	-0.0002416313	
0.0004088628	-6.13501e-05	-0.1521589	-0.009253126	0.002210634	-0.0002416313	-0.3496997	-0.4979417	

2.978e+10	-0.4526404	-0.2718663	0.004328844	-0.004389712	-0.2045016	0.1028983	0.0005235587	-7.340899e-05	
0.004328844	-0.004389712	-0.430029	-0.3698833	0.003747654	-0.001547274	-0.1630062	-0.006091123	
-0.2045016	0.1028983	0.003747654	-0.001547274	-0.4672758	-0.4452919	0.002149501	-0.0006093415	
0.0005235587	-7.340899e-05	-0.1630062	-0.006091123	0.002149501	-0.0006093415	-0.3670109	-0.5034822	

2.98e+10	-0.4437727	-0.2633882	0.003514899	-0.005278748	-0.1949926	0.1124429	0.0006890328	-0.0001480555	
0.003514899	-0.005278748	-0.4388618	-0.3670756	0.003483567	-0.002187611	-0.1721064	-0.00111143	
-0.1949926	0.1124429	0.003483567	-0.002187611	-0.47243	-0.4347261	0.002055385	-0.0009406383	
0.0006890328	-0.0001480555	-0.1721064	-0.00111143	0.002055385	-0.0009406383	-0.3842687	-0.5060719	

2.982e+10	-0.4324388	-0.2561513	0.002511504	-0.006022831	-0.1832996	0.1207721	0.0008649103	-0.0003508168	
0.002511504	-0.006022831	-0.4474749	-0.363005	0.003116609	-0.002770948	-0.1793652	0.004822152	
-0.1832996	0.1207721	0.003116609	-0.002770948	-0.4762604	-0.4232899	0.001960476	-0.001273148	
0.0008649103	-0.0003508168	-0.1793652	0.004822152	0.001960476	-0.001273148	-0.4009371	-0.5060382	

2.984e+10	-0.4182345	-0.2515988	0.001333343	-0.006596597	-0.1694114	0.1271514	0.0009518239	-0.0006935477	
0.001333343	-0.006596597	-0.4553942	-0.3577168	0.002676184	-0.003301983	-0.1851258	0.0111282	
-0.1694114	0.1271514	0.002676184	-0.003301983	-0.4783168	-0.4106917	0.001834318	-0.001659063	
0.0009518239	-0.0006935477	-0.1851258	0.0111282	0.001834318	-0.001659063	-0.4167911	-0.5036349	

2.986e+10	-0.4018617	-0.2513061	-1.856187e-05	-0.006951075	-0.1536023	0.1308183	0.0008669773	-0.001103831	
-1.856187e-05	-0.006951075	-0.4623395	-0.3514438	0.00215116	-0.003800306	-0.189815	0.01760861	
-0.1536023	0.1308183	0.00215116	-0.003800306	-0.4778508	-0.3971423	0.001602988	-0.002095863	
0.0008669773	-0.001103831	-0.189815	0.01760861	0.001602988	-0.002095863	-0.4316521	-0.4993685	

2.988e+10	-0.3851441	-0.2563739	-0.001513572	-0.007000546	-0.1364596	0.1309973	0.0006065925	-0.00147807	
-0.001513572	-0.007000546	-0.4683666	-0.3445531	0.001500306	-0.004244972	-0.1935942	0.02435366	
-0.1364596	0.1309973	0.001500306	-0.004244972	-0.4740804	-0.3841768	0.001220289	-0.002515209	
0.0006065925	-0.00147807	-0.1935942	0.02435366	0.001220289	-0.002515209	-0.445582	-0.4936547	

2.99e+10	-0.3701128	-0.2669337	-0.003050176	-0.006668312	-0.1189271	0.1269994	0.0002220055	-0.001761062	
-0.003050176	-0.006668312	-0.4736864	-0.3372539	0.0007167711	-0.004563655	-0.1963681	0.03138277	
-0.1189271	0.1269994	0.0007167711	-0.004563655	-0.4675836	-0.3728664	0.0007075638	-0.002843591	
0.0002220055	-0.001761062	-0.1963681	0.03138277	0.0007075638	-0.002843591	-0.4588066	-0.4863633	

2.992e+10	-0.3586713	-0.2819425	-0.00449064	-0.005948474	-0.1023071	0.1184822	-0.0002569798	-0.001944089	
-0.00449064	-0.005948474	-0.4785209	-0.3290013	-0.0001381136	-0.00469777	-0.1981223	0.03840343	
-0.1023071	0.1184822	-0.0001381136	-0.00469777	-0.45938	-0.3637086	0.000111277	-0.003055074	
-0.0002569798	-0.001944089	-0.1981223	0.03840343	0.000111277	-0.003055074	-0.4711148	-0.4774057	

2.994e+10	-0.3520596	-0.300581	-0.005727722	-0.004902319	-0.08805757	0.1055775	-0.000830767	-0.001996772	
-0.005727722	-0.004902319	-0.4823383	-0.3197372	-0.0009873253	-0.004656989	-0.199112	0.04516406	
-0.08805757	0.1055775	-0.0009873253	-0.004656989	-0.4500904	-0.3566094	-0.0005492312	-0.003148251	
-0.000830767	-0.001996772	-0.199112	0.04516406	-0.0005492312	-0.003148251	-0.4821215	-0.466719	

2.996e+10	-0.3516863	-0.3210212	-0.006705805	-0.003600143	-0.07775675	0.08910284	-0.001463761	-0.001848794	
-0.006705805	-0.003600143	-0.4846734	-0.3096041	-0.001806716	-0.004487555	-0.1997115	0.05176047	
-0.07775675	0.08910284	-0.001806716	-0.004487555	-0.4398601	-0.3516387	-0.001271813	-0.003096382	
-0.001463761	-0.001848794	-0.1997115	0.05176047	-0.001271813	-0.003096382	-0.4914923	-0.4546491	

2.998e+10	-0.3581004	-0.340657	-0.007380388	-0.002094005	-0.07247743	0.07062905	-0.002048509	-0.00145957	
-0.007380388	-0.002094005	-0.4852831	-0.2991322	-0.002617063	-0.004197952	-0.199955	0.05854671	
-0.07247743	0.07062905	-0.002617063	-0.004197952	-0.4292103	-0.3490586	-0.002021219	-0.002846235	
-0.002048509	-0.00145957	-0.199955	0.05854671	-0.002021219	-0.002846235	-0.4993106	-0.4414421	

3e+10	-0.3702656	-0.3568127	-0.00769507	-0.0004531282	-0.0723635	0.05205593	-0.00246613	-0.0008849452	
-0.00769507	-0.0004531282	-0.4843921	-0.2886411	-0.003409387	-0.003754759	-0.1996327	0.06571312	
-0.0723635	0.05205593	-0.003409387	-0.003754759	-0.4188697	-0.3493608	-0.002708994	-0.002373216	
-0.00246613	-0.0008849452	-0.1996327	0.06571312	-0.002708994	-0.002373216	-0.5055948	-0.4272607	

3.002e+10	-0.3857938	-0.3681576	-0.007616264	0.001215838	-0.0767679	0.03482346	-0.002679822	-0.0002349254	
-0.007616264	0.001215838	-0.4820576	-0.2780917	-0.004130366	-0.003139665	-0.1984965	0.07318988	
-0.0767679	0.03482346	-0.004130366	-0.003139665	-0.4099445	-0.3516133	-0.003245471	-0.001719839	
-0.002679822	-0.0002349254	-0.1984965	0.07318988	-0.003245471	-0.001719839	-0.5101192	-0.4119083	

3.004e+10	-0.4026947	-0.374469	-0.007165036	0.002802178	-0.08472441	0.01982514	-0.002729021	0.0004137001	
-0.007165036	0.002802178	-0.4779742	-0.2672403	-0.004726926	-0.002386707	-0.1964203	0.08087841	
-0.08472441	0.01982514	-0.004726926	-0.002386707	-0.4024346	-0.3547938	-0.00359699	-0.0009685221	
-0.002729021	0.0004137001	-0.1964203	0.08087841	-0.00359699	-0.0009685221	-0.5124307	-0.395195	

3.006e+10	-0.4194444	-0.3766103	-0.006401874	0.004232489	-0.09549265	0.007465127	-0.002656103	0.001054308	
-0.006401874	0.004232489	-0.4714094	-0.2567006	-0.005196707	-0.001539335	-0.1933744	0.08877878	
-0.09549265	0.007465127	-0.005196707	-0.001539335	-0.3956037	-0.35846	-0.003784456	-0.0001771465	
-0.002656103	0.001054308	-0.1933744	0.08877878	-0.003784456	-0.0001771465	-0.5118707	-0.3775216	

3.008e+10	-0.4354002	-0.3750324	-0.005376376	0.005474862	-0.1084048	-0.00181651	-0.002454575	0.001700896	
-0.005376376	0.005474862	-0.4621776	-0.2472984	-0.005558236	-0.0005969478	-0.1890696	0.09704347	
-0.1084048	-0.00181651	-0.005558236	-0.0005969478	-0.3890632	-0.3630613	-0.003831088	0.00064798	
-0.002454575	0.001700896	-0.1890696	0.09704347	-0.003831088	0.00064798	-0.5080595	-0.359593	

3.01e+10	-0.4497212	-0.3705897	-0.004110678	0.006499938	-0.1225032	-0.007621387	-0.002085661	0.002331046	
-0.004110678	0.006499938	-0.4505685	-0.2399752	-0.005786609	0.0004777795	-0.182871	0.1055381	
-0.1225032	-0.007621387	-0.005786609	0.0004777795	-0.3831836	-0.3692614	-0.00371897	0.001519198	
-0.002085661	0.002331046	-0.182871	0.1055381	-0.00371897	0.001519198	-0.5008928	-0.3419421	

3.012e+10	-0.4621068	-0.3637728	-0.00262234	0.007252042	-0.1368046	-0.01014233	-0.001532863	0.002878046	
-0.00262234	0.007252042	-0.4372067	-0.235018	-0.005793753	0.001696407	-0.1742005	0.1136032	
-0.1368046	-0.01014233	-0.005793753	0.001696407	-0.3788607	-0.3767506	-0.003392589	0.002414554	
-0.001532863	0.002878046	-0.1742005	0.1136032	-0.003392589	0.002414554	-0.4901215	-0.3247735	

3.014e+10	-0.4722295	-0.3555921	-0.0009619957	0.007652571	-0.1505803	-0.00981677	-0.0008289562	0.003271201	
-0.0009619957	0.007652571	-0.4221433	-0.2331318	-0.005478965	0.002987229	-0.1627283	0.1202369	
-0.1505803	-0.00981677	-0.005478965	0.002987229	-0.3762413	-0.3847419	-0.002811296	0.003258068	
-0.0008289562	0.003271201	-0.1627283	0.1202369	-0.002811296	0.003258068	-0.4748374	-0.3089525	

3.016e+10	-0.4803651	-0.3465777	0.000770107	0.007638578	-0.1636141	-0.007143547	-3.408388e-05	0.003474733	
0.000770107	0.007638578	-0.4057192	-0.2350926	-0.004795845	0.004220673	-0.1486496	0.1241581	
-0.1636141	-0.007143547	-0.004795845	0.004220673	-0.3748819	-0.3928402	-0.001986256	0.003954388	
-3.408388e-05	0.003474733	-0.1486496	0.1241581	-0.001986256	0.003954388	-0.4545155	-0.2960689	

3.018e+10	-0.4867122	-0.3375184	0.002445095	0.007194353	-0.1757253	-0.002269696	0.0008020431	0.00348346	
0.002445095	0.007194353	-0.3890839	-0.2422776	-0.003774349	0.005260309	-0.132743	0.1241318	
-0.1757253	-0.002269696	-0.003774349	0.005260309	-0.3745436	-0.4013678	-0.0009635601	0.00443043	
0.0008020431	0.00348346	-0.132743	0.1241318	-0.0009635601	0.00443043	-0.4296061	-0.2886833	

3.02e+10	-0.4919761	-0.3281073	0.003941601	0.006358391	-0.1864811	0.004687768	0.001649451	0.003286281	
0.003941601	0.006358391	-0.3746963	-0.2550259	-0.00249088	0.005998703	-0.1164808	0.1191125	
-0.1864811	0.004687768	-0.00249088	0.005998703	-0.3756929	-0.410572	0.0002028439	0.004627356	
0.001649451	0.003286281	-0.1164808	0.1191125	0.0002028439	0.004627356	-0.4022104	-0.2889111	

3.022e+10	-0.4960571	-0.3185853	0.005165737	0.005197571	-0.1954364	0.01332352	0.002457979	0.002848903	
0.005165737	0.005197571	-0.3648434	-0.2725407	-0.001050769	0.006359577	-0.1018868	0.1088024	
-0.1954364	0.01332352	-0.001050769	0.006359577	-0.3791004	-0.4198533	0.001445387	0.004478747	
0.002457979	0.002848903	-0.1018868	0.1088024	0.001445387	0.004478747	-0.3753137	-0.2975767	

3.024e+10	-0.4990689	-0.3085924	0.006038835	0.003795208	-0.2024364	0.02292157	0.003116703	0.002159959	
0.006038835	0.003795208	-0.3610975	-0.2923066	0.0004070884	0.006300262	-0.09122124	0.09393598	
-0.2024364	0.02292157	0.0004070884	0.006300262	-0.3846274	-0.4283734	0.002631564	0.003917361	
0.003116703	0.002159959	-0.09122124	0.09393598	0.002631564	0.003917361	-0.3518578	-0.3142658	

3.026e+10	-0.5007221	-0.2984903	0.006497056	0.002268492	-0.2076763	0.03311566	0.003499403	0.001307816	
0.006497056	0.002268492	-0.3634871	-0.3120967	0.001715884	0.005850047	-0.08616978	0.0763976	
-0.2076763	0.03311566	0.001715884	0.005850047	-0.3916058	-0.4355334	0.003557643	0.002968116	
0.003499403	0.001307816	-0.08616978	0.0763976	0.003557643	0.002968116	-0.3344607	-0.3375101	

3.028e+10	-0.5012484	-0.2882306	0.00653658	0.000774465	-0.2113457	0.04376758	0.003580071	0.0004669907	
0.00653658	0.000774465	-0.3713887	-0.3298503	0.002747547	0.005136417	-0.08733479	0.05886371	
-0.2113457	0.04376758	0.002747547	0.005136417	-0.3994468	-0.4414566	0.004059709	0.001809452	
0.003580071	0.0004669907	-0.08733479	0.05886371	0.004059709	0.001809452	-0.3251921	-0.3647313	

3.03e+10	-0.5006221	-0.2779564	0.006241202	-0.0005523903	-0.2133789	0.05478638	0.003469932	-0.000236757	
0.006241202	-0.0005523903	-0.3834453	-0.3444084	0.003484708	0.004328376	-0.09368735	0.04384649	
-0.2133789	0.05478638	0.003484708	0.004328376	-0.4082212	-0.4462765	0.004145161	0.000681441	
0.003469932	-0.000236757	-0.09368735	0.04384649	0.004145161	0.000681441	-0.3246974	-0.3924917	

3.032e+10	-0.4987877	-0.2672235	0.005739044	-0.001661808	-0.213568	0.06598781	0.003305846	-0.0008178081	
0.005739044	-0.001661808	-0.3983134	-0.354635	0.004010557	0.003535906	-0.1032037	0.03259943	
-0.213568	0.06598781	0.004010557	0.003535906	-0.4180443	-0.4498692	0.003960726	-0.0002826647	
0.003305846	-0.0008178081	-0.1032037	0.03259943	0.003960726	-0.0002826647	-0.3318307	-0.417617	

3.034e+10	-0.4950203	-0.2562654	0.005125978	-0.002580789	-0.2119303	0.07692695	0.003121633	-0.001367183	
0.005125978	-0.002580789	-0.4141896	-0.3605575	0.00442056	0.002770325	-0.1140177	0.02511015	
-0.2119303	0.07692695	0.00442056	0.002770325	-0.4287547	-0.4514975	0.003634253	-0.001098007	
0.003121633	-0.001367183	-0.1140177	0.02511015	0.003634253	-0.001098007	-0.3443208	-0.4381828	

3.036e+10	-0.4888776	-0.2452387	0.004434104	-0.003353122	-0.2086384	0.08736092	0.00286038	-0.00192014	
0.004434104	-0.003353122	-0.4297991	-0.3625659	0.004751761	0.001989654	-0.1250802	0.02075176	
-0.2086384	0.08736092	0.004751761	0.001989654	-0.4393847	-0.451041	0.00318519	-0.00181194	
0.00286038	-0.00192014	-0.1250802	0.02075176	0.00318519	-0.00181194	-0.359733	-0.4540329	

3.038e+10	-0.4799316	-0.2353238	0.003661871	-0.003993851	-0.2038297	0.09717814	0.002486315	-0.002428157	
0.003661871	-0.003993851	-0.4442416	-0.3617985	0.004987803	0.001165655	-0.1358318	0.01904157	
-0.2038297	0.09717814	0.004987803	0.001165655	-0.4493832	-0.4485996	0.002592098	-0.002397705	
0.002486315	-0.002428157	-0.1358318	0.01904157	0.002592098	-0.002397705	-0.376706	-0.4655254	

3.04e+10	-0.4684828	-0.22718	0.002817669	-0.004489312	-0.1974216	0.1062561	0.002038739	-0.002845162	
0.002817669	-0.004489312	-0.4574774	-0.3589661	0.005103287	0.0003084472	-0.145761	0.01957816	
-0.1974216	0.1062561	0.005103287	0.0003084472	-0.4584214	-0.4448623	0.001896543	-0.002788585	
0.002038739	-0.002845162	-0.145761	0.01957816	0.001896543	-0.002788585	-0.3944407	-0.4730866	

3.042e+10	-0.4546425	-0.2215475	0.001932676	-0.004831055	-0.1892123	0.1142303	0.001565823	-0.003199493	
0.001932676	-0.004831055	-0.4696079	-0.3545179	0.005095071	-0.000560422	-0.1544049	0.02175516	
-0.1892123	0.1142303	0.005095071	-0.000560422	-0.4666067	-0.4401694	0.001194775	-0.002974947	
0.001565823	-0.003199493	-0.1544049	0.02175516	0.001194775	-0.002974947	-0.4122886	-0.4769674	

3.044e+10	-0.4386782	-0.2190994	0.001031318	-0.005038024	-0.1793159	0.1204953	0.001035794	-0.003543518	
0.001031318	-0.005038024	-0.4807232	-0.3483693	0.00497123	-0.00143788	-0.1617386	0.02480727	
-0.1793159	0.1204953	0.00497123	-0.00143788	-0.4739198	-0.4344197	0.0005471132	-0.003021059	
0.001035794	-0.003543518	-0.1617386	0.02480727	0.0005471132	-0.003021059	-0.4294657	-0.4774725	

3.046e+10	-0.4210683	-0.2215347	0.0001021691	-0.005129783	-0.1681725	0.1243957	0.0003619418	-0.003844701	
0.0001021691	-0.005129783	-0.4902959	-0.3410184	0.004714379	-0.00233624	-0.1680976	0.02822038	
-0.1681725	0.1243957	0.004714379	-0.00233624	-0.4800211	-0.427533	-6.833984e-05	-0.002983918	
0.0003619418	-0.003844701	-0.1680976	0.02822038	-6.833984e-05	-0.002983918	-0.4452446	-0.4752997	

3.048e+10	-0.4038538	-0.2298873	-0.0008832466	-0.005078567	-0.1564058	0.125529	-0.0004690265	-0.003971098	
-0.0008832466	-0.005078567	-0.4984156	-0.3325276	0.004275266	-0.003242517	-0.1738954	0.03191578	
-0.1564058	0.125529	0.004275266	-0.003242517	-0.4842338	-0.4201967	-0.0006921136	-0.002841319	
-0.0004690265	-0.003971098	-0.1738954	0.03191578	-0.0006921136	-0.002841319	-0.4594906	-0.4711864	

3.05e+10	-0.3896001	-0.244301	-0.001908034	-0.004809333	-0.1448421	0.1237069	-0.001332117	-0.00382317	
-0.001908034	-0.004809333	-0.5049078	-0.3237718	0.003610591	-0.004091091	-0.1792356	0.03607513	
-0.1448421	0.1237069	0.003610591	-0.004091091	-0.4867169	-0.4132043	-0.001288359	-0.00253073	
-0.001332117	-0.00382317	-0.1792356	0.03607513	-0.001288359	-0.00253073	-0.4723966	-0.4656838	

3.052e+10	-0.380744	-0.2629521	-0.002876211	-0.004268977	-0.1344243	0.1189704	-0.002073511	-0.003448175	
-0.002876211	-0.004268977	-0.5102811	-0.3146641	0.002734639	-0.004786953	-0.1840309	0.04066391	
-0.1344243	0.1189704	0.002734639	-0.004786953	-0.4881156	-0.4071158	-0.001753476	-0.002053782	
-0.002073511	-0.003448175	-0.1840309	0.04066391	-0.001753476	-0.002053782	-0.4841158	-0.4589273	

3.054e+10	-0.378241	-0.2835787	-0.003669976	-0.003491209	-0.1260355	0.1118209	-0.002656813	-0.002972527	
-0.003669976	-0.003491209	-0.5145751	-0.305168	0.001714936	-0.005271143	-0.1883042	0.045486	
-0.1260355	0.1118209	0.001714936	-0.005271143	-0.4891944	-0.4018288	-0.002020577	-0.001505543	
-0.002656813	-0.002972527	-0.1883042	0.045486	-0.002020577	-0.001505543	-0.4945336	-0.4509385	

3.056e+10	-0.3820945	-0.3040406	-0.004228052	-0.002565645	-0.1203453	0.1030392	-0.003142699	-0.002448287	
-0.004228052	-0.002565645	-0.5176088	-0.2952389	0.0006140196	-0.005535147	-0.192284	0.05048064	
-0.1203453	0.1030392	0.0006140196	-0.005535147	-0.4900916	-0.3968683	-0.00211883	-0.0009866764	
-0.003142699	-0.002448287	-0.192284	0.05048064	-0.00211883	-0.0009866764	-0.5032964	-0.4420011	

3.058e+10	-0.3917806	-0.3223852	-0.004545083	-0.001571211	-0.1176246	0.09362991	-0.003546692	-0.001841573	
-0.004545083	-0.001571211	-0.5191185	-0.2851519	-0.0005383192	-0.005576377	-0.1962245	0.05578495	
-0.1176246	0.09362991	-0.0005383192	-0.005576377	-0.4904371	-0.392212	-0.00211462	-0.000524099	
-0.003546692	-0.001841573	-0.1962245	0.05578495	-0.00211462	-0.000524099	-0.5103609	-0.4325113	

3.06e+10	-0.4061578	-0.3368396	-0.00462068	-0.0005550727	-0.1177277	0.08459597	-0.003805212	-0.001151761	
-0.00462068	-0.0005550727	-0.5191665	-0.2754649	-0.001709925	-0.005364367	-0.2000772	0.06181947	
-0.1177277	0.08459597	-0.001709925	-0.005364367	-0.4903509	-0.3879511	-0.002030755	-9.967579e-05	
-0.003805212	-0.001151761	-0.2000772	0.06181947	-0.002030755	-9.967579e-05	-0.5160265	-0.4229647	

3.062e+10	-0.4233061	-0.346472	-0.004441222	0.000417473	-0.1201333	0.07668081	-0.003882475	-0.0004698311	
-0.004441222	0.000417473	-0.5181186	-0.2663911	-0.002826256	-0.004869669	-0.2035397	0.06869649	
-0.1201333	0.07668081	-0.002826256	-0.004869669	-0.4901541	-0.3844681	-0.001845836	0.0002728985	
-0.003882475	-0.0004698311	-0.2035397	0.06869649	-0.001845836	0.0002728985	-0.5206858	-0.4134309	

3.064e+10	-0.441361	-0.3512002	-0.004029297	0.001251901	-0.1241317	0.07028756	-0.003848158	0.0001222778	
-0.004029297	0.001251901	-0.5163409	-0.2576632	-0.003787704	-0.004117655	-0.2063089	0.07639786	
-0.1241317	0.07028756	-0.003787704	-0.004117655	-0.4903043	-0.3814167	-0.001574431	0.0005295485	
-0.003848158	0.0001222778	-0.2063089	0.07639786	-0.001574431	0.0005295485	-0.5243998	-0.4036964	

3.066e+10	-0.4589784	-0.3516777	-0.003471862	0.001870969	-0.1291691	0.06541786	-0.003800396	0.0006441534	
-0.003471862	0.001870969	-0.5136985	-0.249217	-0.004532726	-0.003180928	-0.208345	0.0847696	
-0.1291691	0.06541786	-0.004532726	-0.003180928	-0.4907152	-0.3781745	-0.001299511	0.000629608	
-0.003800396	0.0006441534	-0.208345	0.0847696	-0.001299511	0.000629608	-0.5270247	-0.393548	

3.068e+10	-0.475333	-0.3490391	-0.002883391	0.00226819	-0.1349044	0.06204908	-0.00376025	0.001179832	
-0.002883391	0.00226819	-0.5098997	-0.2412463	-0.005048649	-0.002132633	-0.2095505	0.09395599	
-0.1349044	0.06204908	-0.005048649	-0.002132633	-0.4908543	-0.3746082	-0.001117825	0.0006155464	
-0.00376025	0.001179832	-0.2095505	0.09395599	-0.001117825	0.0006155464	-0.5282521	-0.383516	

3.07e+10	-0.4904211	-0.3436517	-0.002346123	0.002499241	-0.1411019	0.06015596	-0.0036645	0.001774646	
-0.002346123	0.002499241	-0.5051104	-0.2339289	-0.005340109	-0.001013851	-0.2096774	0.1040392	
-0.1411019	0.06015596	-0.005340109	-0.001013851	-0.4902779	-0.3714673	-0.001059166	0.0005842087	
-0.0036645	0.001774646	-0.2096774	0.1040392	-0.001059166	0.0005842087	-0.5283837	-0.3738397	

3.072e+10	-0.5038809	-0.3361739	-0.001884344	0.002633966	-0.1473922	0.05984976	-0.003456565	0.002389871	
-0.001884344	0.002633966	-0.4995812	-0.227567	-0.00539555	0.0001450569	-0.2082092	0.1149851	
-0.1473922	0.05984976	-0.00539555	0.0001450569	-0.4895955	-0.3689367	-0.001077729	0.0006067736	
-0.003456565	0.002389871	-0.2082092	0.1149851	-0.001077729	0.0006067736	-0.5278407	-0.3644049	

3.074e+10	-0.5156567	-0.3267409	-0.001492521	0.002714886	-0.1533481	0.06093163	-0.003151629	0.002968906	
-0.001492521	0.002714886	-0.4935916	-0.2219324	-0.00519467	0.001292288	-0.2046626	0.1264022	
-0.1533481	0.06093163	-0.00519467	0.001292288	-0.4893274	-0.3668635	-0.001118818	0.0006850754	
-0.003151629	0.002968906	-0.2046626	0.1264022	-0.001118818	0.0006850754	-0.5266081	-0.3548006	

3.076e+10	-0.525441	-0.3160914	-0.001172824	0.002769719	-0.1588125	0.06310288	-0.002792769	0.003517288	
-0.001172824	0.002769719	-0.4868545	-0.2168634	-0.004744585	0.002355233	-0.1988614	0.1378009	
-0.1588125	0.06310288	-0.004744585	0.002355233	-0.4895552	-0.3646375	-0.001181139	0.0008045107	
-0.002792769	0.003517288	-0.1988614	0.1378009	-0.001181139	0.0008045107	-0.5241884	-0.3447204	

3.078e+10	-0.5333812	-0.3044821	-0.0009304759	0.002846795	-0.1637638	0.06609836	-0.002379173	0.004079636	
-0.0009304759	0.002846795	-0.4790132	-0.2124695	-0.004092888	0.003275504	-0.1906945	0.1487191	
-0.1637638	0.06609836	-0.004092888	0.003275504	-0.4897154	-0.3621059	-0.001277382	0.0009976412	
-0.002379173	0.004079636	-0.1906945	0.1487191	-0.001277382	0.0009976412	-0.519914	-0.3345482	

3.08e+10	-0.5397032	-0.29206	-0.000731492	0.003014416	-0.1682396	0.06999693	-0.00185363	0.004676966	
-0.000731492	0.003014416	-0.4699186	-0.2092213	-0.003293957	0.004037351	-0.1799188	0.1587314	
-0.1682396	0.06999693	-0.003293957	0.004037351	-0.48945	-0.3596683	-0.00136609	0.001328001	
-0.00185363	0.004676966	-0.1799188	0.1587314	-0.00136609	0.001328001	-0.5134726	-0.3251058	

3.082e+10	-0.5443977	-0.2791821	-0.0004820164	0.003315444	-0.1720588	0.0748133	-0.001150219	0.00527096	
-0.0004820164	0.003315444	-0.4597218	-0.2080555	-0.00237407	0.00464934	-0.1663721	0.1670705	
-0.1720588	0.0748133	-0.00237407	0.00464934	-0.4892655	-0.357433	-0.00133911	0.001814335	
-0.001150219	0.00527096	-0.1663721	0.1670705	-0.00133911	0.001814335	-0.5051348	-0.3167476	

3.084e+10	-0.54752	-0.2655072	-6.375933e-05	0.003715953	-0.1749844	0.08037287	-0.0002469051	0.005789538	
-6.375933e-05	0.003715953	-0.4490765	-0.2090263	-0.001325599	0.005103657	-0.150206	0.1726704	
-0.1749844	0.08037287	-0.001325599	0.005103657	-0.4894661	-0.355357	-0.001094563	0.002380846	
-0.0002469051	0.005789538	-0.150206	0.1726704	-0.001094563	0.002380846	-0.4948966	-0.3098466	

3.086e+10	-0.5486529	-0.2513087	0.00059997	0.00410913	-0.176822	0.08650945	0.000849364	0.006174858	
0.00059997	0.00410913	-0.4382668	-0.2126219	-0.0001434181	0.005351979	-0.1320247	0.1744414	
-0.176822	0.08650945	-0.0001434181	0.005351979	-0.4900121	-0.3527583	-0.0006060165	0.002910988	
0.000849364	0.006174858	-0.1320247	0.1744414	-0.0006060165	0.002910988	-0.4825346	-0.3050457	

3.088e+10	-0.5476289	-0.2366398	0.001516635	0.004365238	-0.1777015	0.09290012	0.002138914	0.006375155	
0.001516635	0.004365238	-0.42792	-0.2191663	0.00113633	0.005328176	-0.1129484	0.1714254	
-0.1777015	0.09290012	0.00113633	0.005328176	-0.4903454	-0.3491148	9.377211e-05	0.003317675	
0.002138914	0.006375155	-0.1129484	0.1714254	9.377211e-05	0.003317675	-0.4683245	-0.3036688	

3.09e+10	-0.5442267	-0.2220948	0.002640471	0.004370257	-0.1776142	0.09959096	0.003623209	0.006307065	
0.002640471	0.004370257	-0.4190401	-0.2292277	0.002447316	0.004981502	-0.09474235	0.1631109	
-0.1776142	0.09959096	0.002447316	0.004981502	-0.4897353	-0.3449584	0.0009779433	0.00354436	
0.003623209	0.006307065	-0.09474235	0.1631109	0.0009779433	0.00354436	-0.4537021	-0.3069485	

3.092e+10	-0.5385018	-0.2078985	0.003891356	0.004026381	-0.1763494	0.1065908	0.00525819	0.005844733	
0.003891356	0.004026381	-0.4134098	-0.2423521	0.00370167	0.004272873	-0.07921885	0.1498713	
-0.1763494	0.1065908	0.00370167	0.004272873	-0.4881421	-0.340786	0.002022386	0.003506833	
0.00525819	0.005844733	-0.07921885	0.1498713	0.002022386	0.003506833	-0.4408801	-0.3151738	

3.094e+10	-0.5303159	-0.1940681	0.005148809	0.003252176	-0.1735973	0.1136854	0.006906503	0.004863161	
0.005148809	0.003252176	-0.4123978	-0.2569947	0.00477611	0.00318539	-0.06811019	0.1328702	
-0.1735973	0.1136854	0.00477611	0.00318539	-0.4857836	-0.3368745	0.003135473	0.003089299	
0.006906503	0.004863161	-0.06811019	0.1328702	0.003135473	0.003089299	-0.4318469	-0.3270774	

3.096e+10	-0.5190979	-0.1812771	0.006237228	0.002007719	-0.1691936	0.1204175	0.008345628	0.003317417	
0.006237228	0.002007719	-0.4161422	-0.2711762	0.005516146	0.001761912	-0.06222884	0.1138991	
-0.1691936	0.1204175	0.005516146	0.001761912	-0.4826959	-0.3328653	0.004122022	0.002235096	
0.008345628	0.003317417	-0.06222884	0.1138991	0.004122022	0.002235096	-0.4274577	-0.3405028	

3.098e+10	-0.5045775	-0.1702013	0.006948932	0.0003451724	-0.1632108	0.1262802	0.00934371	0.001292641	
0.006948932	0.0003451724	-0.4237746	-0.2830502	0.005786738	0.0001344823	-0.06172576	0.09472325	
-0.1632108	0.1262802	0.005786738	0.0001344823	-0.4782163	-0.3289148	0.004769065	0.001037906	
0.00934371	0.001292641	-0.06172576	0.09472325	0.004769065	0.001037906	-0.4274189	-0.353843	

3.1e+10	-0.4868215	-0.1623215	0.007109977	-0.001572989	-0.1556842	0.130959	0.009743954	-0.001024836	
0.007109977	-0.001572989	-0.4338583	-0.2920906	0.005532055	-0.001506448	-0.06605444	0.07701261	
-0.1556842	0.130959	0.005532055	-0.001506448	-0.4718892	-0.3257777	0.004978904	-0.0003027435	
0.009743954	-0.001024836	-0.06605444	0.07701261	0.004978904	-0.0003027435	-0.4311126	-0.3659983	

3.102e+10	-0.4666798	-0.1589617	0.00664565	-0.003515276	-0.1467643	0.1338733	0.009493741	-0.003426008	
0.00664565	-0.003515276	-0.4453683	-0.2980355	0.004786292	-0.002971908	-0.0741258	0.06197879	
-0.1467643	0.1338733	0.004786292	-0.002971908	-0.4640148	-0.3245447	0.004782509	-0.001610514	
0.009493741	-0.003426008	-0.0741258	0.06197879	0.004782509	-0.001610514	-0.4378601	-0.375822	

3.104e+10	-0.4454606	-0.1606392	0.005594271	-0.00525815	-0.1367964	0.1343825	0.008602005	-0.005737692	
0.005594271	-0.00525815	-0.4574745	-0.3007332	0.003651919	-0.004111665	-0.08459333	0.05008816	
-0.1367964	0.1343825	0.003651919	-0.004111665	-0.4554259	-0.3260529	0.004253034	-0.002794571	
0.008602005	-0.005737692	-0.08459333	0.05008816	0.004253034	-0.002794571	-0.4464439	-0.3826487	

3.106e+10	-0.4243627	-0.1683599	0.00405543	-0.006627464	-0.1265651	0.1318426	0.007076661	-0.007790796	
0.00405543	-0.006627464	-0.4691251	-0.3007107	0.002270918	-0.004832293	-0.09635937	0.04118029	
-0.1265651	0.1318426	0.002270918	-0.004832293	-0.4472944	-0.3298944	0.003433591	-0.003800163	
0.007076661	-0.007790796	-0.09635937	0.04118029	0.003433591	-0.003800163	-0.4555558	-0.3862028	

3.108e+10	-0.4054056	-0.1822815	0.002161736	-0.007480198	-0.1173689	0.1259508	0.004978032	-0.009358376	
0.002161736	-0.007480198	-0.4797329	-0.298143	0.0007930038	-0.005100117	-0.1088779	0.03485209	
-0.1173689	0.1259508	0.0007930038	-0.005100117	-0.4398943	-0.3362029	0.002359562	-0.004546812	
0.004978032	-0.009358376	-0.1088779	0.03485209	0.002359562	-0.004546812	-0.4639667	-0.3872489	

3.11e+10	-0.3911163	-0.2019566	0.0001083755	-0.007703538	-0.1106013	0.1171623	0.002516394	-0.01022181	
0.0001083755	-0.007703538	-0.4887828	-0.2939226	-0.0006407292	-0.004924593	-0.1219734	0.03095464	
-0.1106013	0.1171623	-0.0006407292	-0.004924593	-0.433698	-0.3449789	0.0011251	-0.004942561	
0.002516394	-0.01022181	-0.1219734	0.03095464	0.0011251	-0.004942561	-0.4711105	-0.3868368	

3.112e+10	-0.3837141	-0.2253038	-0.001842695	-0.007276917	-0.1073377	0.1067026	1.296472e-05	-0.01031699	
-0.001842695	-0.007276917	-0.4962162	-0.2889207	-0.001894143	-0.00435	-0.1352169	0.02960568	
-0.1073377	0.1067026	-0.001894143	-0.00435	-0.4299064	-0.3560288	-0.0001190152	-0.004958372	
1.296472e-05	-0.01031699	-0.1352169	0.02960568	-0.0001190152	-0.004958372	-0.477227	-0.3854864	

3.114e+10	-0.3839465	-0.2491473	-0.003446512	-0.006334496	-0.10785	0.09612465	-0.002266266	-0.00976959	
-0.003446512	-0.006334496	-0.5024113	-0.2834409	-0.002847627	-0.003476644	-0.1480977	0.03066955	
-0.10785	0.09612465	-0.002847627	-0.003476644	-0.4295055	-0.3686512	-0.001243973	-0.00465557	
-0.002266266	-0.00976959	-0.1480977	0.03066955	-0.001243973	-0.00465557	-0.482384	-0.3837056	

3.116e+10	-0.3906685	-0.2710164	-0.004587078	-0.005107	-0.1116838	0.08678707	-0.004199501	-0.008761111	
-0.004587078	-0.005107	-0.5075085	-0.2776226	-0.003438438	-0.002451708	-0.1602602	0.03377212	
-0.1116838	0.08678707	-0.003438438	-0.002451708	-0.4329592	-0.3810339	-0.002187955	-0.004127101	
-0.004199501	-0.008761111	-0.1602602	0.03377212	-0.002187955	-0.004127101	-0.4867266	-0.3813681	

3.118e+10	-0.4023044	-0.2891915	-0.00529091	-0.003807508	-0.117936	0.07960873	-0.005747118	-0.007425183	
-0.00529091	-0.003807508	-0.5114749	-0.2716126	-0.003684047	-0.001421555	-0.1715875	0.03857451	
-0.117936	0.07960873	-0.003684047	-0.001421555	-0.4394378	-0.3919377	-0.002938426	-0.003445323	
-0.005747118	-0.007425183	-0.1715875	0.03857451	-0.002938426	-0.003445323	-0.4900307	-0.3790121	

3.12e+10	-0.4172343	-0.3031385	-0.005659586	-0.002561349	-0.1256524	0.07499303	-0.006866284	-0.005878884	
-0.005659586	-0.002561349	-0.5143919	-0.2656112	-0.003656707	-0.0004885585	-0.1820773	0.04505957	
-0.1256524	0.07499303	-0.003656707	-0.0004885585	-0.4477007	-0.401135	-0.00348632	-0.002661639	
-0.006866284	-0.005878884	-0.1820773	0.04505957	-0.00348632	-0.002661639	-0.4924226	-0.3771669	

3.122e+10	-0.4340202	-0.312795	-0.005788056	-0.001409906	-0.1338972	0.07303345	-0.00754668	-0.004269706	
-0.005788056	-0.001409906	-0.516374	-0.2602739	-0.003442046	0.0003023508	-0.1915133	0.05325536	
-0.1338972	0.07303345	-0.003442046	0.0003023508	-0.4574517	-0.4085782	-0.003824555	-0.001828318	
-0.00754668	-0.004269706	-0.1915133	0.05325536	-0.003824555	-0.001828318	-0.4946296	-0.3759889	

3.124e+10	-0.4514529	-0.3182291	-0.005742619	-0.0003633075	-0.1416657	0.07352667	-0.007862028	-0.002737848	
-0.005742619	-0.0003633075	-0.5180785	-0.2554881	-0.003113135	0.0009405037	-0.1993673	0.06305159	
-0.1416657	0.07352667	-0.003113135	0.0009405037	-0.4685591	-0.4144003	-0.003966922	-0.001009681	
-0.007862028	-0.002737848	-0.1993673	0.06305159	-0.003966922	-0.001009681	-0.4971171	-0.3754215	

3.126e+10	-0.4684368	-0.3199055	-0.005570834	0.000574707	-0.1483934	0.07577342	-0.007931709	-0.001342972	
-0.005570834	0.000574707	-0.5198573	-0.2508612	-0.002725879	0.001439018	-0.2054201	0.07387479	
-0.1483934	0.07577342	-0.002725879	0.001439018	-0.4807978	-0.4180985	-0.003954967	-0.0002474395	
-0.007931709	-0.001342972	-0.2054201	0.07387479	-0.003954967	-0.0002474395	-0.5001128	-0.3749496	

3.128e+10	-0.4844122	-0.3186837	-0.005317721	0.00141593	-0.1538641	0.07910937	-0.007849399	-5.617008e-05	
-0.005317721	0.00141593	-0.5216038	-0.2462269	-0.002316881	0.001819934	-0.2096176	0.08533003	
-0.1538641	0.07910937	-0.002316881	0.001819934	-0.4934224	-0.4194901	-0.003833158	0.0004475798	
-0.007849399	-5.617008e-05	-0.2096176	0.08533003	-0.003833158	0.0004475798	-0.5033232	-0.3742099	

3.13e+10	-0.4991358	-0.3152967	-0.005019668	0.00218574	-0.1582698	0.08305825	-0.00763685	0.001157692	
-0.005019668	0.00218574	-0.5231276	-0.2414973	-0.001907761	0.002106921	-0.2121375	0.09725854	
-0.1582698	0.08305825	-0.001907761	0.002106921	-0.5057806	-0.4187155	-0.003624305	0.001087343	
-0.00763685	0.001157692	-0.2121375	0.09725854	-0.003624305	0.001087343	-0.5066902	-0.3732913	

3.132e+10	-0.5127878	-0.309944	-0.004687927	0.002928205	-0.161697	0.08742924	-0.007289485	0.002302563	
-0.004687927	0.002928205	-0.5245362	-0.2365066	-0.001511955	0.002322877	-0.2129516	0.1094893	
-0.161697	0.08742924	-0.001511955	0.002322877	-0.5175689	-0.4164336	-0.003330472	0.001672868	
-0.007289485	0.002302563	-0.2129516	0.1094893	-0.003330472	0.001672868	-0.5102769	-0.3725097	

3.134e+10	-0.5252194	-0.3031133	-0.004294701	0.003679704	-0.1641556	0.09204448	-0.006825658	0.003363081	
-0.004294701	0.003679704	-0.5258297	-0.2315897	-0.001134229	0.002491142	-0.2118609	0.1218254	
-0.1641556	0.09204448	-0.001134229	0.002491142	-0.5290829	-0.4127704	-0.002953852	0.002188929	
-0.006825658	0.003363081	-0.2118609	0.1218254	-0.002953852	0.002188929	-0.5145876	-0.3712689	

3.136e+10	-0.5363774	-0.2947541	-0.003793426	0.004441531	-0.1656577	0.09660874	-0.006277278	0.004349836	
-0.003793426	0.004441531	-0.527082	-0.2261254	-0.0007671953	0.002633839	-0.2087667	0.1339229	
-0.1656577	0.09660874	-0.0007671953	0.002633839	-0.540256	-0.4077037	-0.00251773	0.002618137	
-0.006277278	0.004349836	-0.2087667	0.1339229	-0.00251773	0.002618137	-0.5192624	-0.3692934	

3.138e+10	-0.546136	-0.2850277	-0.003159535	0.005184285	-0.1664534	0.1008475	-0.005651532	0.005299721	
-0.003159535	0.005184285	-0.5280407	-0.219694	-0.0003931388	0.002763375	-0.203889	0.1453252	
-0.1664534	0.1008475	-0.0003931388	0.002763375	-0.5508874	-0.400831	-0.002049836	0.002965866	
-0.005651532	0.005299721	-0.203889	0.1453252	-0.002049836	0.002965866	-0.5238644	-0.3661329	

3.14e+10	-0.5543033	-0.2744354	-0.002387207	0.005881928	-0.1668563	0.1047093	-0.004915533	0.006239803	
-0.002387207	0.005881928	-0.5279389	-0.2126583	8.033531e-06	0.002876789	-0.1974147	0.1559647	
-0.1668563	0.1047093	8.033531e-06	0.002876789	-0.560297	-0.39247	-0.001563728	0.003250638	
-0.004915533	0.006239803	-0.1974147	0.1559647	-0.001563728	0.003250638	-0.5277432	-0.3621656	

3.142e+10	-0.560998	-0.2631489	-0.001476209	0.006529199	-0.1671347	0.1082899	-0.004020499	0.007161516	
-0.001476209	0.006529199	-0.5264973	-0.2051669	0.0004477156	0.002960032	-0.1894332	0.1657194	
-0.1671347	0.1082899	0.0004477156	0.002960032	-0.5683064	-0.3830389	-0.001052914	0.003487419	
-0.004020499	0.007161516	-0.1894332	0.1657194	-0.001052914	0.003487419	-0.5309289	-0.3577118	

3.144e+10	-0.5663475	-0.2512072	-0.0003850628	0.007126104	-0.1672639	0.1118044	-0.002924579	0.008030855	
-0.0003850628	0.007126104	-0.5235184	-0.1977167	0.0009266117	0.002999328	-0.1797474	0.1744308	
-0.1672639	0.1118044	0.0009266117	0.002999328	-0.5751084	-0.3727666	-0.0005021027	0.003673545	
-0.002924579	0.008030855	-0.1797474	0.1744308	-0.0005021027	0.003673545	-0.5334817	-0.3529699	

3.146e+10	-0.5702948	-0.2383256	0.0009513444	0.007622663	-0.1672147	0.1152245	-0.001602637	0.008801277	
0.0009513444	0.007622663	-0.5190455	-0.1903547	0.001443941	0.002990665	-0.1683203	0.1816421	
-0.1672147	0.1152245	0.001443941	0.002990665	-0.5807449	-0.3619039	9.105126e-05	0.003796108	
-0.001602637	0.008801277	-0.1683203	0.1816421	9.105126e-05	0.003796108	-0.5352691	-0.3478735	

3.148e+10	-0.5724012	-0.2250134	0.002573402	0.007906968	-0.1671319	0.1184674	-2.776284e-05	0.009412359	
0.002573402	0.007906968	-0.5126928	-0.1836716	0.002014717	0.002928255	-0.1554163	0.1868014	
-0.1671319	0.1184674	0.002014717	0.002928255	-0.5852023	-0.349959	0.0007246134	0.003844101	
-2.776284e-05	0.009412359	-0.1554163	0.1868014	0.0007246134	0.003844101	-0.5359967	-0.3422572	

3.15e+10	-0.5725038	-0.2113213	0.004465451	0.007833533	-0.1671905	0.1216941	0.001826648	0.009769092	
0.004465451	0.007833533	-0.5041304	-0.1783239	0.002665919	0.002782229	-0.1413388	0.1894824	
-0.1671905	0.1216941	0.002665919	0.002782229	-0.5879014	-0.3372396	0.001402318	0.003808107	
0.001826648	0.009769092	-0.1413388	0.1894824	0.001402318	0.003808107	-0.5350487	-0.3371991	

3.152e+10	-0.5705729	-0.1976901	0.006535118	0.007262316	-0.1674147	0.1251967	0.003933604	0.0097321	
0.006535118	0.007262316	-0.4936217	-0.1752855	0.003399355	0.002484491	-0.1265305	0.1892233	
-0.1674147	0.1251967	0.003399355	0.002484491	-0.588499	-0.3241992	0.002128455	0.003660577	
0.003933604	0.0097321	-0.1265305	0.1892233	0.002128455	0.003660577	-0.5328492	-0.3333492	

3.154e+10	-0.5666951	-0.1844585	0.00864193	0.006084472	-0.1676814	0.1291787	0.006189554	0.009162242	
0.00864193	0.006084472	-0.4820806	-0.1758442	0.004162852	0.001964483	-0.1118046	0.1855603	
-0.1676814	0.1291787	0.004162852	0.001964483	-0.5871979	-0.3111677	0.002884958	0.003360119	
0.006189554	0.009162242	-0.1118046	0.1855603	0.002884958	0.003360119	-0.5303322	-0.331131	

3.156e+10	-0.5608211	-0.1717814	0.01060807	0.004204743	-0.1676595	0.1337929	0.008428396	0.007956973	
0.01060807	0.004204743	-0.4709925	-0.1805142	0.004867902	0.001192339	-0.09805836	0.1782938	
-0.1676595	0.1337929	0.004867902	0.001192339	-0.5841106	-0.2986473	0.003625901	0.002875812	
0.008428396	0.007956973	-0.09805836	0.1782938	0.003625901	0.002875812	-0.5282458	-0.3304693	

3.158e+10	-0.552815	-0.1597709	0.01216158	0.001573859	-0.1671539	0.1390204	0.01042496	0.006077221	
0.01216158	0.001573859	-0.4620598	-0.1886572	0.005439247	0.0001822537	-0.08654258	0.1676732	
-0.1671539	0.1390204	0.005439247	0.0001822537	-0.5793992	-0.2863569	0.004296093	0.002202113	
0.01042496	0.006077221	-0.08654258	0.1676732	0.004296093	0.002202113	-0.5270316	-0.3308627	

3.16e+10	-0.5424522	-0.1492125	0.01293932	-0.001718936	-0.1659874	0.1448	0.01191656	0.003581035	
0.01293932	-0.001718936	-0.4563248	-0.1995531	0.005815615	-0.001059288	-0.07843803	0.1544094	
-0.1659874	0.1448	0.005815615	-0.001059288	-0.5727476	-0.2742918	0.004842862	0.001345503	
0.01191656	0.003581035	-0.07843803	0.1544094	0.004842862	0.001345503	-0.5269343	-0.3319567	

3.162e+10	-0.5299571	-0.1407136	0.01261051	-0.005359081	-0.1638332	0.1512868	0.01266354	0.0006651531	
0.01261051	-0.005359081	-0.4546319	-0.2119017	0.005893855	-0.002531712	-0.07445631	0.1398553	
-0.1638332	0.1512868	0.005893855	-0.002531712	-0.5636582	-0.2631975	0.005206387	0.0003230517	
0.01266354	0.0006651531	-0.07445631	0.1398553	0.005206387	0.0003230517	-0.5282436	-0.3335547	

3.164e+10	-0.5159134	-0.1348663	0.0110634	-0.008837804	-0.1602805	0.1582789	0.01256199	-0.002355906	
0.0110634	-0.008837804	-0.4573231	-0.2242383	0.005523485	-0.004150015	-0.07479124	0.1255631	
-0.1602805	0.1582789	0.005523485	-0.004150015	-0.5522083	-0.2538707	0.00531958	-0.0008140101	
0.01256199	-0.002355906	-0.07479124	0.1255631	0.00531958	-0.0008140101	-0.5313263	-0.3348531	

3.166e+10	-0.5009468	-0.1317013	0.008486941	-0.01169629	-0.1547478	0.1653672	0.01168359	-0.005196252	
0.008486941	-0.01169629	-0.4640843	-0.2347309	0.004617609	-0.005714294	-0.07864275	0.1128996	
-0.1547478	0.1653672	0.004617609	-0.005714294	-0.5390449	-0.2465665	0.005151823	-0.001979973	
0.01168359	-0.005196252	-0.07864275	0.1128996	0.005151823	-0.001979973	-0.5359306	-0.3346265	

3.168e+10	-0.4851791	-0.1316384	0.00518602	-0.01368106	-0.1469212	0.1717796	0.01016664	-0.007694274	
0.00518602	-0.01368106	-0.4736444	-0.2422718	0.003223779	-0.007010932	-0.08497275	0.1024593	
-0.1469212	0.1717796	0.003223779	-0.007010932	-0.5243469	-0.2418382	0.004717075	-0.003100661	
0.01016664	-0.007694274	-0.08497275	0.1024593	0.004717075	-0.003100661	-0.5409696	-0.3324164	

3.17e+10	-0.4690752	-0.1351256	0.001448535	-0.01466262	-0.1368616	0.1766318	0.008118081	-0.009741895	
0.001448535	-0.01466262	-0.4844609	-0.2464193	0.00146275	-0.007912327	-0.09293888	0.09441035	
-0.1368616	0.1766318	0.00146275	-0.007912327	-0.5082077	-0.2397947	0.00402974	-0.004136644	
0.008118081	-0.009741895	-0.09293888	0.09441035	0.00402974	-0.004136644	-0.5453633	-0.3284651	

3.172e+10	-0.4536509	-0.1429485	-0.002432342	-0.01452576	-0.125013	0.1789355	0.005653197	-0.01121136	
-0.002432342	-0.01452576	-0.4953257	-0.2473922	-0.0005713487	-0.008329427	-0.1019748	0.08877039	
-0.125013	0.1789355	-0.0005713487	-0.008329427	-0.4906927	-0.2414507	0.003074326	-0.005032209	
0.005653197	-0.01121136	-0.1019748	0.08877039	0.003074326	-0.005032209	-0.5486587	-0.3234427	

3.174e+10	-0.4405768	-0.1549788	-0.006075935	-0.01324045	-0.1121677	0.1779126	0.00295773	-0.01200192	
-0.006075935	-0.01324045	-0.5055688	-0.2459273	-0.002758582	-0.008135851	-0.1114451	0.08560761	
-0.1121677	0.1779126	-0.002758582	-0.008135851	-0.4729557	-0.2478862	0.001861564	-0.005678342	
0.00295773	-0.01200192	-0.1114451	0.08560761	0.001861564	-0.005678342	-0.5509638	-0.3178427	

3.176e+10	-0.431275	-0.1704057	-0.009063506	-0.01098319	-0.09958349	0.1730412	0.0002525532	-0.01211737	
-0.009063506	-0.01098319	-0.5149429	-0.2425333	-0.004850925	-0.007232564	-0.1206708	0.08468305	
-0.09958349	0.1730412	-0.004850925	-0.007232564	-0.456942	-0.2597902	0.000486706	-0.005961967	
0.0002525532	-0.01211737	-0.1206708	0.08468305	0.000486706	-0.005961967	-0.552278	-0.311828	

3.178e+10	-0.4265886	-0.1878812	-0.01113713	-0.008118361	-0.08882708	0.164488	-0.002304979	-0.01164099	
-0.01113713	-0.008118361	-0.5231868	-0.2375483	-0.006533739	-0.005693722	-0.1292255	0.08550008	
-0.08882708	0.164488	-0.006533739	-0.005693722	-0.4448281	-0.2762352	-0.0008974436	-0.005845713	
-0.002304979	-0.01164099	-0.1292255	0.08550008	-0.0008974436	-0.005845713	-0.5523889	-0.3054384	

3.18e+10	-0.4268501	-0.2060717	-0.01227091	-0.005025164	-0.08121649	0.1530681	-0.004625625	-0.01064329	
-0.01227091	-0.005025164	-0.530072	-0.2312523	-0.007592407	-0.00377386	-0.1370823	0.08763408	
-0.08121649	0.1530681	-0.007592407	-0.00377386	-0.4377761	-0.2956173	-0.002155892	-0.005371075	
-0.004625625	-0.01064329	-0.1370823	0.08763408	-0.002155892	-0.005371075	-0.5510788	-0.2989623	

3.182e+10	-0.4322931	-0.2234098	-0.01255392	-0.001979362	-0.07762193	0.1402645	-0.006597228	-0.00918778	
-0.01255392	-0.001979362	-0.5353928	-0.2240695	-0.00799601	-0.001768281	-0.1443701	0.09094988	
-0.07762193	0.1402645	-0.00799601	-0.001768281	-0.4363482	-0.3160956	-0.003194683	-0.004613708	
-0.006597228	-0.00918778	-0.1443701	0.09094988	-0.003194683	-0.004613708	-0.5483954	-0.2930619	

3.184e+10	-0.4424311	-0.2382246	-0.01210861	0.0008148671	-0.07811041	0.1277647	-0.008096796	-0.007398575	
-0.01210861	0.0008148671	-0.5392691	-0.2165662	-0.007840428	0.0001026368	-0.1509222	0.09551971	
-0.07811041	0.1277647	-0.007840428	0.0001026368	-0.440571	-0.3363549	-0.003948768	-0.003664287	
-0.008096796	-0.007398575	-0.1509222	0.09551971	-0.003948768	-0.003664287	-0.5447178	-0.2884132	

3.186e+10	-0.4559305	-0.2492011	-0.01109068	0.003203256	-0.08183148	0.1169543	-0.00909178	-0.005467213	
-0.01109068	0.003203256	-0.5420358	-0.2090455	-0.007266179	0.001710958	-0.1563942	0.1012534	
-0.08183148	0.1169543	-0.007266179	0.001710958	-0.4502263	-0.3544204	-0.00438725	-0.00264134	
-0.00909178	-0.005467213	-0.1563942	0.1012534	-0.00438725	-0.00264134	-0.5407805	-0.2845184	

3.188e+10	-0.4709486	-0.2558107	-0.009713677	0.005078188	-0.0875507	0.108464	-0.009660227	-0.003556186	
-0.009713677	0.005078188	-0.5439123	-0.2013072	-0.006415502	0.002992961	-0.1606184	0.1077278	
-0.0875507	0.108464	-0.006415502	0.002992961	-0.4641267	-0.3685222	-0.00454151	-0.001666452	
-0.009660227	-0.003556186	-0.1606184	0.1077278	-0.00454151	-0.001666452	-0.5364568	-0.2812879	

3.19e+10	-0.4860803	-0.2584535	-0.008192625	0.006467824	-0.09427776	0.1021678	-0.009923266	-0.001706912	
-0.008192625	0.006467824	-0.5447402	-0.1933307	-0.005415601	0.003941889	-0.1636511	0.1146749	
-0.09427776	0.1021678	-0.005415601	0.003941889	-0.4801948	-0.3780117	-0.004497589	-0.0008181614	
-0.009923266	-0.001706912	-0.1636511	0.1146749	-0.004497589	-0.0008181614	-0.5315105	-0.2785761	

3.192e+10	-0.5005878	-0.2578196	-0.006676821	0.007483375	-0.1014502	0.09776423	-0.00993748	0.0001110073	
-0.006676821	0.007483375	-0.5443462	-0.1852045	-0.00437517	0.004583156	-0.1655851	0.1219907	
-0.1014502	0.09776423	-0.00437517	0.004583156	-0.4967518	-0.3831032	-0.004352955	-0.0001041034	
-0.00993748	0.0001110073	-0.1655851	0.1219907	-0.004352955	-0.0001041034	-0.5259175	-0.2768158	

3.194e+10	-0.5140291	-0.2544957	-0.005194157	0.008251375	-0.1087286	0.09508419	-0.009681381	0.001915209	
-0.005194157	0.008251375	-0.5426209	-0.1773559	-0.003376298	0.004969938	-0.166351	0.1296873	
-0.1087286	0.09508419	-0.003376298	0.004969938	-0.5128473	-0.3846369	-0.004164932	0.0005121273	
-0.009681381	0.001915209	-0.166351	0.1296873	-0.004164932	0.0005121273	-0.5200337	-0.2763904	

3.196e+10	-0.5260892	-0.2489059	-0.003700568	0.008842159	-0.1157137	0.09383696	-0.009121948	0.003670699	
-0.003700568	0.008842159	-0.5397879	-0.1698838	-0.002458742	0.005178099	-0.1656345	0.1376101	
-0.1157137	0.09383696	-0.002458742	0.005178099	-0.5281998	-0.3831965	-0.003944679	0.001069528	
-0.009121948	0.003670699	-0.1656345	0.1376101	-0.003944679	0.001069528	-0.5143705	-0.2770758	

3.198e+10	-0.5363918	-0.2414017	-0.002169896	0.009244143	-0.1222101	0.09363961	-0.008260769	0.005313505	
-0.002169896	0.009244143	-0.5358829	-0.1629158	-0.001625966	0.005268921	-0.1633062	0.1453472	
-0.1222101	0.09363961	-0.001625966	0.005268921	-0.5423961	-0.3792258	-0.003682884	0.001579247	
-0.008260769	0.005313505	-0.1633062	0.1453472	-0.003682884	0.001579247	-0.5088102	-0.2786809	

3.2e+10	-0.5447291	-0.2325714	-0.0006153903	0.009442067	-0.1283137	0.09404906	-0.007117075	0.006803601	
-0.0006153903	0.009442067	-0.5307117	-0.1561969	-0.000853877	0.005274329	-0.1593851	0.1524714	
-0.1283137	0.09404906	-0.000853877	0.005274329	-0.5549545	-0.372914	-0.003383117	0.002035193	
-0.007117075	0.006803601	-0.1593851	0.1524714	-0.003383117	0.002035193	-0.5031228	-0.2810706	

3.202e+10	-0.5510756	-0.2229847	0.0009354008	0.009458359	-0.1343046	0.09495228	-0.00569882	0.0081086	
0.0009354008	0.009458359	-0.5238614	-0.1503138	-0.0001437193	0.005200514	-0.1541506	0.1586273	
-0.1343046	0.09495228	-0.0001437193	0.005200514	-0.5654095	-0.3648007	-0.003068464	0.002436398	
-0.00569882	0.0081086	-0.1541506	0.1586273	-0.003068464	0.002436398	-0.4971932	-0.2850911	

3.204e+10	-0.5555919	-0.2129381	0.002510979	0.009324218	-0.1403648	0.09650614	-0.00399349	0.009171262	
0.002510979	0.009324218	-0.5153832	-0.1458387	0.0004857014	0.005067376	-0.1476982	0.1635756	
-0.1403648	0.09650614	0.0004857014	0.005067376	-0.573607	-0.35579	-0.002758499	0.002811973	
-0.00399349	0.009171262	-0.1476982	0.1635756	-0.002758499	0.002811973	-0.4917944	-0.2909623	

3.206e+10	-0.5583733	-0.2026796	0.004189598	0.009001023	-0.1464226	0.09887488	-0.002004918	0.009889822	
0.004189598	0.009001023	-0.5056147	-0.1437419	0.001035207	0.004932029	-0.1401958	0.1669013	
-0.1464226	0.09887488	0.001035207	0.004932029	-0.5798216	-0.3466038	-0.002438605	0.003202286	
-0.002004918	0.009889822	-0.1401958	0.1669013	-0.002438605	0.003202286	-0.48766	-0.2987214	

3.208e+10	-0.5593551	-0.1924922	0.005978401	0.008353006	-0.1522648	0.1020864	0.0001817784	0.01013037	
0.005978401	0.008353006	-0.4953413	-0.1444726	0.001558636	0.004844122	-0.1319856	0.1681461	
-0.1522648	0.1020864	0.001558636	0.004844122	-0.5845463	-0.337216	-0.002060202	0.003622194	
0.0001817784	0.01013037	-0.1319856	0.1681461	-0.002060202	0.003622194	-0.4852214	-0.3078121	

3.21e+10	-0.5585292	-0.1826634	0.007767436	0.00723793	-0.1579035	0.1060667	0.002410796	0.009809091	
0.007767436	0.00723793	-0.4853038	-0.1480019	0.002142843	0.004794202	-0.1239141	0.1669113	
-0.1579035	0.1060667	0.002142843	0.004794202	-0.5877192	-0.3277924	-0.001580926	0.004042352	
0.002410796	0.009809091	-0.1239141	0.1669113	-0.001580926	0.004042352	-0.4846507	-0.3179928	

3.212e+10	-0.5560462	-0.173615	0.009349247	0.005615374	-0.163437	0.1108633	0.004490542	0.008929225	
0.009349247	0.005615374	-0.4762686	-0.1546571	0.00283783	0.004706553	-0.1169932	0.1632338	
-0.163437	0.1108633	0.00283783	0.004706553	-0.5892238	-0.3185921	-0.0009879707	0.004419927	
0.004490542	0.008929225	-0.1169932	0.1632338	-0.0009879707	0.004419927	-0.4863353	-0.3290263	

3.214e+10	-0.552213	-0.165882	0.01053383	0.003572062	-0.1687204	0.1168275	0.00624995	0.007569406	
0.01053383	0.003572062	-0.4693529	-0.1641812	0.003622847	0.004507685	-0.1121676	0.1578935	
-0.1687204	0.1168275	0.003622847	0.004507685	-0.5891884	-0.3101183	-0.0002977687	0.004727632	
0.00624995	0.007569406	-0.1121676	0.1578935	-0.0002977687	0.004727632	-0.4911148	-0.3406985	

3.216e+10	-0.5475625	-0.1593926	0.01121256	0.00123158	-0.1734587	0.1240469	0.007581864	0.005855915	
0.01121256	0.00123158	-0.4658257	-0.175928	0.004462734	0.004166083	-0.1097774	0.1518188	
-0.1734587	0.1240469	0.004462734	0.004166083	-0.5881644	-0.3027947	0.0005003001	0.004950283	
0.007581864	0.005855915	-0.1097774	0.1518188	0.0005003001	0.004950283	-0.4992802	-0.3515513	

3.218e+10	-0.5424183	-0.1543072	0.01129904	-0.001259324	-0.1770755	0.1325658	0.008411266	0.003928137	
0.01129904	-0.001259324	-0.4664477	-0.1884571	0.005343001	0.003657059	-0.1097192	0.145973	
-0.1770755	0.1325658	0.005343001	0.003657059	-0.5867877	-0.2965364	0.001421728	0.005038037	
0.008411266	0.003928137	-0.1097192	0.145973	0.001421728	0.005038037	-0.5104019	-0.3603158	

3.22e+10	-0.5369573	-0.1504264	0.01073626	-0.003724688	-0.1793443	0.1419937	0.00870514	0.00195652	
0.01073626	-0.003724688	-0.4710077	-0.200125	0.006240722	0.002922438	-0.1116274	0.1410409	
-0.1793443	0.1419937	0.006240722	0.002922438	-0.5853178	-0.290809	0.002430983	0.004914186	
0.00870514	0.00195652	-0.1116274	0.1410409	0.002430983	0.004914186	-0.523371	-0.3663322	

3.222e+10	-0.5313777	-0.1477637	0.009553999	-0.005926732	-0.1800991	0.1521417	0.00851554	0.0001278547	
0.009553999	-0.005926732	-0.4786168	-0.2096997	0.007068876	0.001902433	-0.1149991	0.1375374	
-0.1800991	0.1521417	0.007068876	0.001902433	-0.5835393	-0.2856204	0.003437394	0.004538626	
0.00851554	0.0001278547	-0.1149991	0.1375374	0.003437394	0.004538626	-0.5372755	-0.3695354	

3.224e+10	-0.5259602	-0.146455	0.007920992	-0.007665795	-0.179208	0.1628382	0.007987729	-0.001429305	
0.007920992	-0.007665795	-0.4881858	-0.2169461	0.007696246	0.0006089516	-0.1191675	0.1358367	
-0.179208	0.1628382	0.007696246	0.0006089516	-0.5814879	-0.2808519	0.00435091	0.003943642	
0.007987729	-0.001429305	-0.1191675	0.1358367	0.00435091	0.003943642	-0.551513	-0.3701823	

3.226e+10	-0.5210661	-0.1461707	0.006067387	-0.008893457	-0.1763048	0.1738601	0.007286935	-0.002713317	
0.006067387	-0.008893457	-0.4991561	-0.2216126	0.008029969	-0.0008731421	-0.1233789	0.1359249	
-0.1763048	0.1738601	0.008029969	-0.0008731421	-0.5792757	-0.2767969	0.005145801	0.003188543	
0.007286935	-0.002713317	-0.1233789	0.1359249	0.005145801	0.003188543	-0.5656782	-0.3683391	

3.228e+10	-0.5168076	-0.1465341	0.004165785	-0.009684008	-0.171068	0.184672	0.006500632	-0.00378984	
0.004165785	-0.009684008	-0.5108513	-0.2237165	0.008048963	-0.002441473	-0.1269489	0.1374287	
-0.171068	0.184672	0.008048963	-0.002441473	-0.5772543	-0.2729901	0.005829589	0.002293163	
0.006500632	-0.00378984	-0.1269489	0.1374287	0.005829589	0.002293163	-0.5793002	-0.3640992	

3.23e+10	-0.5129771	-0.1473845	0.002260273	-0.01014014	-0.1635197	0.1945991	0.005638552	-0.004717906	
0.002260273	-0.01014014	-0.5226453	-0.2232506	0.007763058	-0.004045671	-0.1296467	0.1398098	
-0.1635197	0.1945991	0.007763058	-0.004045671	-0.5752587	-0.2691036	0.006387525	0.001241725	
0.005638552	-0.004717906	-0.1296467	0.1398098	0.006387525	0.001241725	-0.591908	-0.3577666	

3.232e+10	-0.5093275	-0.1488413	0.0003508844	-0.01029002	-0.1539222	0.2030793	0.004695102	-0.005503868	
0.0003508844	-0.01029002	-0.5338947	-0.2202736	0.007155806	-0.005651518	-0.1316037	0.1426175	
-0.1539222	0.2030793	0.007155806	-0.005651518	-0.572668	-0.2650951	0.006761306	3.558654e-05	
0.004695102	-0.005503868	-0.1316037	0.1426175	0.006761306	3.558654e-05	-0.6031922	-0.3496583	

3.234e+10	-0.5060159	-0.1509461	-0.001532479	-0.01012468	-0.1425472	0.2096731	0.003690828	-0.006144755	
-0.001532479	-0.01012468	-0.5440959	-0.2154228	0.006186762	-0.00719506	-0.1328333	0.1457773	
-0.1425472	0.2096731	0.006186762	-0.00719506	-0.569136	-0.2611718	0.006900438	-0.00127917	
0.003690828	-0.006144755	-0.1328333	0.1457773	0.006900438	-0.00127917	-0.6131402	-0.340289	

3.236e+10	-0.503259	-0.1540538	-0.003342808	-0.009658906	-0.1296747	0.2139498	0.002640999	-0.006670402	
-0.003342808	-0.009658906	-0.5532234	-0.2092664	0.004842111	-0.008574457	-0.1333725	0.1491167	
-0.1296747	0.2139498	0.004842111	-0.008574457	-0.5645708	-0.2581232	0.006789845	-0.002649298	
0.002640999	-0.006670402	-0.1333725	0.1491167	0.006789845	-0.002649298	-0.6218215	-0.3299326	

3.238e+10	-0.5013775	-0.1579875	-0.005047589	-0.008932494	-0.1158347	0.2153084	0.001521444	-0.007108402	
-0.005047589	-0.008932494	-0.5613341	-0.2018714	0.003165388	-0.009675367	-0.1331392	0.1524591	
-0.1158347	0.2153084	0.003165388	-0.009675367	-0.5592565	-0.2566382	0.006426176	-0.004042238	
0.001521444	-0.007108402	-0.1331392	0.1524591	0.006426176	-0.004042238	-0.6292074	-0.318663	

3.24e+10	-0.5005697	-0.1627416	-0.006672237	-0.007948845	-0.1017885	0.2133083	0.0002698584	-0.007441008	
-0.006672237	-0.007948845	-0.5683789	-0.1932706	0.00122828	-0.01042288	-0.1322659	0.1555218	
-0.1017885	0.2133083	0.00122828	-0.01042288	-0.5538565	-0.2565044	0.00577991	-0.005441	
0.0002698584	-0.007441008	-0.1322659	0.1555218	0.00577991	-0.005441	-0.6352439	-0.3062686	

3.242e+10	-0.5012226	-0.1681933	-0.008189227	-0.006652831	-0.08869269	0.2078366	-0.001141244	-0.00758462	
-0.008189227	-0.006652831	-0.5740315	-0.1836385	-0.0008878828	-0.01076043	-0.131031	0.1581643	
-0.08869269	0.2078366	-0.0008878828	-0.01076043	-0.5486958	-0.2579627	0.004797185	-0.006786855	
-0.001141244	-0.00758462	-0.131031	0.1581643	0.004797185	-0.006786855	-0.6396385	-0.2928494	

3.244e+10	-0.5038854	-0.1739937	-0.009504729	-0.004994327	-0.07774149	0.1992938	-0.002678265	-0.007439168	
-0.009504729	-0.004994327	-0.5781064	-0.1732203	-0.003103482	-0.01064065	-0.1296517	0.160507	
-0.07774149	0.1992938	-0.003103482	-0.01064065	-0.5442085	-0.2613252	0.003448057	-0.007970661	
-0.002678265	-0.007439168	-0.1296517	0.160507	0.003448057	-0.007970661	-0.6421679	-0.278956	

3.246e+10	-0.5089381	-0.1794251	-0.01046569	-0.003002966	-0.06970292	0.1886338	-0.00424042	-0.006941473	
-0.01046569	-0.003002966	-0.5805961	-0.1624331	-0.005303293	-0.01002464	-0.1281514	0.162676	
-0.06970292	0.1886338	-0.005303293	-0.01002464	-0.5413625	-0.266266	0.00177136	-0.008859962	
-0.00424042	-0.006941473	-0.1281514	0.162676	0.00177136	-0.008859962	-0.6429016	-0.2648537	

3.248e+10	-0.5163266	-0.1832466	-0.0109602	-0.0008087137	-0.06493086	0.1769533	-0.005724497	-0.006089577	
-0.0109602	-0.0008087137	-0.5816416	-0.1515063	-0.007349884	-0.008916122	-0.1265016	0.1646815	
-0.06493086	0.1769533	-0.007349884	-0.008916122	-0.5409514	-0.2721885	-0.0001356762	-0.009365217	
-0.005724497	-0.006089577	-0.1265016	0.1646815	-0.0001356762	-0.009365217	-0.6419661	-0.2504212	

3.25e+10	-0.5252776	-0.1845674	-0.01097009	0.001446187	-0.06340587	0.1652641	-0.007061355	-0.004909597	
-0.01097009	0.001446187	-0.5812965	-0.1403083	-0.00911232	-0.00738955	-0.1246781	0.1664789	
-0.06340587	0.1652641	-0.00911232	-0.00738955	-0.5432207	-0.2778605	-0.002167221	-0.009455	
-0.007061355	-0.004909597	-0.1246781	0.1664789	-0.002167221	-0.009455	-0.639036	-0.2358796	

3.252e+10	-0.5347239	-0.1831812	-0.01052671	0.003651374	-0.06464685	0.1543919	-0.008196856	-0.003410343	
-0.01052671	0.003651374	-0.5793682	-0.1289734	-0.01052306	-0.005545833	-0.1228289	0.1680089	
-0.06464685	0.1543919	-0.01052306	-0.005545833	-0.547586	-0.2819044	-0.004264371	-0.009115878	
-0.008196856	-0.003410343	-0.1228289	0.1680089	-0.004264371	-0.009115878	-0.6338064	-0.2210869	

3.254e+10	-0.5437273	-0.179084	-0.009664885	0.005750002	-0.06815901	0.1449109	-0.009045961	-0.001586909	
-0.009664885	0.005750002	-0.5755436	-0.1177235	-0.01157417	-0.003483428	-0.1210555	0.1694632	
-0.06815901	0.1449109	-0.01157417	-0.003483428	-0.5529871	-0.2839528	-0.006360775	-0.008307522	
-0.009045961	-0.001586909	-0.1210555	0.1694632	-0.006360775	-0.008307522	-0.625886	-0.2067497	

3.256e+10	-0.5516494	-0.172665	-0.008394573	0.007676052	-0.07329965	0.1371628	-0.009481006	0.0005134729	
-0.008394573	0.007676052	-0.5697733	-0.1071449	-0.01227484	-0.001246833	-0.1193039	0.1710181	
-0.07329965	0.1371628	-0.01227484	-0.001246833	-0.5585694	-0.284237	-0.008347658	-0.006974776	
-0.009481006	0.0005134729	-0.1193039	0.1710181	-0.008347658	-0.006974776	-0.6152394	-0.1936301	

3.258e+10	-0.5579852	-0.1644356	-0.006729628	0.009354928	-0.0794269	0.1312011	-0.009395103	0.002779389	
-0.006729628	0.009354928	-0.5621691	-0.09760876	-0.0126009	0.00116895	-0.117267	0.1727476	
-0.0794269	0.1312011	-0.0126009	0.00116895	-0.5640408	-0.2829433	-0.01007107	-0.005113766	
-0.009395103	0.002779389	-0.117267	0.1727476	-0.01007107	-0.005113766	-0.6021035	-0.1822445	

3.26e+10	-0.5623453	-0.1547901	-0.004719311	0.01069506	-0.08607884	0.1268516	-0.00874416	0.00506066	
-0.004719311	0.01069506	-0.5529912	-0.08926791	-0.01247219	0.003729977	-0.1147798	0.1744699	
-0.08607884	0.1268516	-0.01247219	0.003729977	-0.5690022	-0.280354	-0.01137393	-0.002781079	
-0.00874416	0.00506066	-0.1147798	0.1744699	-0.01137393	-0.002781079	-0.58653	-0.1729589	

3.262e+10	-0.5644053	-0.1441799	-0.002434496	0.01163299	-0.09306274	0.1239029	-0.007521113	0.007237728	
-0.002434496	0.01163299	-0.5422162	-0.08238972	-0.01180811	0.006347384	-0.1117706	0.1759865	
-0.09306274	0.1239029	-0.01180811	0.006347384	-0.5731567	-0.2762114	-0.01213581	-6.777986e-05	
-0.007521113	0.007237728	-0.1117706	0.1759865	-0.01213581	-6.777986e-05	-0.56855	-0.1663634	

3.264e+10	-0.56393	-0.1335153	7.754225e-05	0.01213875	-0.100329	0.1223165	-0.005691581	0.009190321	
7.754225e-05	0.01213875	-0.5297489	-0.07737644	-0.01056655	0.008907322	-0.1082234	0.1771594	
-0.100329	0.1223165	-0.01056655	0.008907322	-0.5758278	-0.2712095	-0.01223784	0.002931269	
-0.005691581	0.009190321	-0.1082234	0.1771594	-0.01223784	0.002931269	-0.5483713	-0.1634766	

3.266e+10	-0.5611783	-0.1232804	0.002780534	0.01213656	-0.1077968	0.1221855	-0.003230663	0.01070723	
0.002780534	0.01213656	-0.5158826	-0.07516718	-0.008717522	0.01129137	-0.104098	0.177786	
-0.1077968	0.1221855	-0.008717522	0.01129137	-0.5768697	-0.2660627	-0.01152627	0.00607454	
-0.003230663	0.01070723	-0.104098	0.177786	-0.01152627	0.00607454	-0.5269592	-0.1655431	

3.268e+10	-0.5563896	-0.114008	0.005612281	0.01150179	-0.1150601	0.1236462	-0.0002228548	0.01150184	
0.005612281	0.01150179	-0.5013548	-0.07644943	-0.00622792	0.01334973	-0.09933993	0.1774569	
-0.1150601	0.1236462	-0.00622792	0.01334973	-0.576636	-0.261331	-0.009854849	0.009103351	
-0.0002228548	0.01150184	-0.09933993	0.1774569	-0.009854849	0.009103351	-0.5058132	-0.1732772	

3.27e+10	-0.5498391	-0.1059819	0.008388872	0.01009548	-0.1218402	0.1265223	0.003048965	0.01131646	
0.008388872	0.01009548	-0.4873423	-0.08137826	-0.003094022	0.01484908	-0.09425013	0.1756285	
-0.1218402	0.1265223	-0.003094022	0.01484908	-0.5755762	-0.2571061	-0.00720973	0.01162357	
0.003048965	0.01131646	-0.09425013	0.1756285	-0.00720973	0.01162357	-0.4867401	-0.1862574	

3.272e+10	-0.5417043	-0.09951908	0.01082286	0.007882329	-0.1278459	0.1306431	0.006184218	0.01006726	
0.01082286	0.007882329	-0.4748614	-0.08981184	0.0005427488	0.0155035	-0.08961848	0.1719356	
-0.1278459	0.1306431	0.0005427488	0.0155035	-0.5737301	-0.253404	-0.003797456	0.0132433	
0.006184218	0.01006726	-0.08961848	0.1719356	-0.003797456	0.0132433	-0.4711132	-0.2040642	

3.274e+10	-0.5322084	-0.09528	0.01262627	0.004963949	-0.1329866	0.1358963	0.00879865	0.007855303	
0.01262627	0.004963949	-0.4647336	-0.1014133	0.004384345	0.01509102	-0.08637175	0.1665569	
-0.1329866	0.1358963	0.004384345	0.01509102	-0.5709777	-0.2505228	-7.652082e-06	0.013701	
0.00879865	0.007855303	-0.08637175	0.1665569	-7.652082e-06	0.013701	-0.460281	-0.2260873	

3.276e+10	-0.5220926	-0.09356305	0.01355908	0.001564163	-0.1371137	0.1421342	0.0105714	0.00491471	
0.01355908	0.001564163	-0.4580371	-0.115561	0.008018259	0.01354572	-0.08531155	0.1601778	
-0.1371137	0.1421342	0.008018259	0.01354572	-0.5676007	-0.2486868	0.003701476	0.01293585	
0.0105714	0.00491471	-0.08531155	0.1601778	0.003701476	0.01293585	-0.455846	-0.2507071	

3.278e+10	-0.512224	-0.09456526	0.01347466	-0.002031886	-0.1398213	0.1492596	0.01128116	0.001585283	
0.01347466	-0.002031886	-0.455705	-0.1313602	0.01105352	0.01099541	-0.0866936	0.1538564	
-0.1398213	0.1492596	0.01105352	0.01099541	-0.5641913	-0.2483676	0.006897667	0.01107812	
0.01128116	0.001585283	-0.0866936	0.1538564	0.006897667	0.01107812	-0.4586016	-0.2755557	

3.28e+10	-0.5033195	-0.0978354	0.01232925	-0.0054646	-0.140936	0.1568003	0.01085567	-0.001693721	
0.01232925	-0.0054646	-0.4582226	-0.1468546	0.01318037	0.00771835	-0.09029247	0.1485634	
-0.140936	0.1568003	0.01318037	0.00771835	-0.5614179	-0.2493726	0.009233448	0.008412403	
0.01085567	-0.001693721	-0.09029247	0.1485634	0.009233448	0.008412403	-0.4679389	-0.2981099	

3.282e+10	-0.4956598	-0.1030071	0.01023296	-0.008365146	-0.1404226	0.1642975	0.009444214	-0.004484846	
0.01023296	-0.008365146	-0.4648756	-0.1605234	0.0142324	0.00408484	-0.09542263	0.1450463	
-0.1404226	0.1642975	0.0142324	0.00408484	-0.5595586	-0.2508889	0.01052048	0.005355135	
0.009444214	-0.004484846	-0.09542263	0.1450463	0.01052048	0.005355135	-0.482134	-0.3163416	

3.284e+10	-0.4894726	-0.1097689	0.007447419	-0.01045093	-0.1384127	0.1714142	0.007384603	-0.006505595	
0.007447419	-0.01045093	-0.4744122	-0.1712667	0.0142103	0.0004677297	-0.1012829	0.1436309	
-0.1384127	0.1714142	0.0142103	0.0004677297	-0.55828	-0.2527772	0.01078884	0.002327308	
0.007384603	-0.006505595	-0.1012829	0.1436309	0.01078884	0.002327308	-0.4991209	-0.3301104	

3.286e+10	-0.4852341	-0.1180182	0.00433026	-0.01158304	-0.1350251	0.177889	0.005066099	-0.00768752	
0.00433026	-0.01158304	-0.4855953	-0.178953	0.01324706	-0.002796423	-0.107023	0.144317	
-0.1350251	0.177889	0.01324706	-0.002796423	-0.5574589	-0.2548716	0.0102472	-0.0003447153	
0.005066099	-0.00768752	-0.107023	0.144317	0.0102472	-0.0003447153	-0.5176451	-0.3392538	

3.288e+10	-0.4834707	-0.1271068	0.001207271	-0.01180543	-0.1304255	0.1833908	0.002779803	-0.008147435	
0.001207271	-0.01180543	-0.4976706	-0.1838965	0.01157151	-0.005488122	-0.1119059	0.1467381	
-0.1304255	0.1833908	0.01157151	-0.005488122	-0.5572483	-0.2574849	0.009168765	-0.002518613	
0.002779803	-0.008147435	-0.1119059	0.1467381	0.009168765	-0.002518613	-0.5367011	-0.3442915	

3.29e+10	-0.4842249	-0.1362919	-0.001684029	-0.01124662	-0.1249033	0.1875681	0.0006727857	-0.008040602	
-0.001684029	-0.01124662	-0.5101088	-0.185967	0.00944063	-0.007491677	-0.1155603	0.1502751	
-0.1249033	0.1875681	0.00944063	-0.007491677	-0.5579319	-0.2604051	0.00777013	-0.004186933	
0.0006727857	-0.008040602	-0.1155603	0.1502751	0.00777013	-0.004186933	-0.5553897	-0.3455652	

3.292e+10	-0.4871556	-0.1447646	-0.004213395	-0.01005273	-0.1188277	0.1902379	-0.001187352	-0.007482276	
-0.004213395	-0.01005273	-0.5222503	-0.1854516	0.007086795	-0.008804121	-0.1178534	0.1543132	
-0.1188277	0.1902379	0.007086795	-0.008804121	-0.5595374	-0.2630598	0.006186167	-0.005377932	
-0.001187352	-0.007482276	-0.1178534	0.1543132	0.006186167	-0.005377932	-0.5729391	-0.3434405	

3.294e+10	-0.4918367	-0.152343	-0.006270955	-0.008343026	-0.112786	0.1913199	-0.002725947	-0.006558344	
-0.006270955	-0.008343026	-0.5334467	-0.1827437	0.004692553	-0.009463452	-0.1190718	0.1583584	
-0.112786	0.1913199	0.004692553	-0.009463452	-0.561607	-0.2654704	0.004524879	-0.006101204	
-0.002725947	-0.006558344	-0.1190718	0.1583584	0.004524879	-0.006101204	-0.5888325	-0.3387305	

3.296e+10	-0.4981562	-0.1589819	-0.007752762	-0.006266869	-0.1071365	0.1909932	-0.003876231	-0.005394346	
-0.007752762	-0.006266869	-0.5434231	-0.1782481	0.002405618	-0.009530689	-0.1193625	0.1622548	
-0.1071365	0.1909932	0.002405618	-0.009530689	-0.564008	-0.2676901	0.002907008	-0.006385638	
-0.003876231	-0.005394346	-0.1193625	0.1622548	0.002907008	-0.006385638	-0.6030792	-0.3320941	

3.298e+10	-0.5061431	-0.1642605	-0.008605186	-0.004010836	-0.1022981	0.1895126	-0.004638262	-0.004141262	
-0.008605186	-0.004010836	-0.552214	-0.1727359	0.0003571348	-0.009089687	-0.1189734	0.1658131	
-0.1022981	0.1895126	0.0003571348	-0.009089687	-0.5668978	-0.2702749	0.001442621	-0.0063064	
-0.004638262	-0.004141262	-0.1189734	0.1658131	0.001442621	-0.0063064	-0.6158152	-0.3241333	

3.3e+10	-0.5154046	-0.167664	-0.008859784	-0.001767144	-0.09842143	0.187227	-0.005084795	-0.002900316	
-0.008859784	-0.001767144	-0.5600459	-0.1662122	-0.00134479	-0.008260957	-0.1179611	0.1689675	
-0.09842143	0.187227	-0.00134479	-0.008260957	-0.5708959	-0.2726704	0.0001828571	-0.005967899	
-0.005084795	-0.002900316	-0.1179611	0.1689675	0.0001828571	-0.005967899	-0.6272175	-0.314635	

3.302e+10	-0.5252204	-0.1689332	-0.008605994	0.0003321132	-0.09563409	0.1844181	-0.005281536	-0.00169775	
-0.008605994	0.0003321132	-0.566808	-0.158789	-0.002648553	-0.007194682	-0.1165817	0.1715448	
-0.09563409	0.1844181	-0.002648553	-0.007194682	-0.5759723	-0.274478	-0.000869019	-0.005452887	
-0.005281536	-0.00169775	-0.1165817	0.1715448	-0.000869019	-0.005452887	-0.6369115	-0.3040642	

3.304e+10	-0.5350487	-0.168187	-0.007924985	0.002223136	-0.09387838	0.1814196	-0.005238796	-0.0005404528	
-0.007924985	0.002223136	-0.5723117	-0.1504635	-0.003561899	-0.006027643	-0.1150813	0.1735397	
-0.09387838	0.1814196	-0.003561899	-0.006027643	-0.5817534	-0.2752421	-0.001712078	-0.004808073	
-0.005238796	-0.0005404528	-0.1150813	0.1735397	-0.001712078	-0.004808073	-0.6448151	-0.2923654	

3.306e+10	-0.5445696	-0.1658683	-0.006870974	0.003832192	-0.09329392	0.1784548	-0.004955159	0.0005076959	
-0.006870974	0.003832192	-0.5763241	-0.1416654	-0.004128773	-0.004870205	-0.1137185	0.1750442	
-0.09329392	0.1784548	-0.004128773	-0.004870205	-0.5877649	-0.2750791	-0.00233259	-0.004087807	
-0.004955159	0.0005076959	-0.1137185	0.1750442	-0.00233259	-0.004087807	-0.6507927	-0.2802756	

3.308e+10	-0.5537405	-0.161925	-0.005528317	0.005079988	-0.0936365	0.1759564	-0.00449071	0.001374662	
-0.005528317	0.005079988	-0.5789984	-0.1326083	-0.004415867	-0.003800928	-0.1125409	0.176314	
-0.0936365	0.1759564	-0.004415867	-0.003800928	-0.5940025	-0.2740904	-0.002737299	-0.003365844	
-0.00449071	0.001374662	-0.1125409	0.176314	-0.002737299	-0.003365844	-0.6551906	-0.2679121	

3.31e+10	-0.5622834	-0.1562521	-0.004028481	0.005918838	-0.09465928	0.1741232	-0.003949005	0.002046095	
-0.004028481	0.005918838	-0.5805071	-0.1236024	-0.004501855	-0.002867998	-0.111567	0.17744	
-0.09465928	0.1741232	-0.004501855	-0.002867998	-0.6005725	-0.272179	-0.002976167	-0.002704308	
-0.003949005	0.002046095	-0.111567	0.17744	-0.002976167	-0.002704308	-0.6580942	-0.2555222	

3.312e+10	-0.5697118	-0.1491423	-0.002491983	0.006375161	-0.09609588	0.1729342	-0.003391605	0.002579037	
-0.002491983	0.006375161	-0.5809237	-0.1144993	-0.004464382	-0.002081775	-0.1108117	0.1784426	
-0.09609588	0.1729342	-0.004464382	-0.002081775	-0.607267	-0.2689769	-0.003113724	-0.002120855	
-0.003391605	0.002579037	-0.1108117	0.1784426	-0.003113724	-0.002120855	-0.6595166	-0.2426549	

3.314e+10	-0.5757436	-0.1408836	-0.0009832911	0.006506318	-0.09774441	0.1723413	-0.002811495	0.003020239	
-0.0009832911	0.006506318	-0.5800494	-0.1054128	-0.004366182	-0.001431307	-0.1103201	0.1793929	
-0.09774441	0.1723413	-0.004366182	-0.001431307	-0.6134848	-0.2645892	-0.003193707	-0.001601381	
-0.002811495	0.003020239	-0.1103201	0.1793929	-0.003193707	-0.001601381	-0.6590355	-0.2298874	

3.316e+10	-0.5803371	-0.1319559	0.0004651472	0.00634016	-0.09965033	0.1723215	-0.002188627	0.00336376	
0.0004651472	0.00634016	-0.5777168	-0.09667664	-0.004255079	-0.0008897075	-0.1101779	0.1805004	
-0.09965033	0.1723215	-0.004255079	-0.0008897075	-0.6189308	-0.2589044	-0.003235865	-0.001130015	
-0.002188627	0.00336376	-0.1101779	0.1805004	-0.003235865	-0.001130015	-0.6566987	-0.2173095	

3.318e+10	-0.5836061	-0.1227723	0.00180756	0.005886529	-0.1016717	0.1730183	-0.001550545	0.003583098	
0.00180756	0.005886529	-0.5740223	-0.08886335	-0.004166623	-0.0004166187	-0.1102576	0.1819852	
-0.1016717	0.1730183	-0.004166623	-0.0004166187	-0.6233619	-0.2527409	-0.003254772	-0.0006995454	
-0.001550545	0.003583098	-0.1102576	0.1819852	-0.003254772	-0.0006995454	-0.6525904	-0.205761	

3.32e+10	-0.5857086	-0.1132138	0.002982786	0.005170295	-0.1035536	0.1744735	-0.0009407845	0.003698935	
0.002982786	0.005170295	-0.5694326	-0.08195504	-0.004108704	4.015911e-05	-0.1103627	0.1839652	
-0.1035536	0.1744735	-0.004108704	4.015911e-05	-0.6270712	-0.2462517	-0.00327234	-0.0002937756	
-0.0009407845	0.003698935	-0.1103627	0.1839652	-0.00327234	-0.0002937756	-0.6471342	-0.1952581	

3.322e+10	-0.5864924	-0.1034144	0.003933864	0.004252205	-0.105117	0.1765456	-0.0003675842	0.00376108	
0.003933864	0.004252205	-0.5641931	-0.07638217	-0.004057896	0.0005248683	-0.1102004	0.1864129	
-0.105117	0.1765456	-0.004057896	0.0005248683	-0.630161	-0.2392499	-0.003298229	0.0001169058	
-0.0003675842	0.00376108	-0.1102004	0.1864129	-0.003298229	0.0001169058	-0.6404379	-0.1854585	

3.324e+10	-0.5857962	-0.09361963	0.004647581	0.003197539	-0.1062791	0.1790656	0.0002119279	0.003792984	
0.004647581	0.003197539	-0.5584465	-0.07153865	-0.00397321	0.001053477	-0.1097134	0.1891895	
-0.1062791	0.1790656	-0.00397321	0.001053477	-0.6323991	-0.2316756	-0.003320638	0.0005670106	
0.0002119279	0.003792984	-0.1097134	0.1891895	-0.003320638	0.0005670106	-0.6322449	-0.1767639	

3.326e+10	-0.5837055	-0.08400926	0.005123133	0.002051182	-0.1070549	0.1820336	0.0008305961	0.003761487	
0.005123133	0.002051182	-0.5521714	-0.06789594	-0.003822816	0.001616393	-0.1088345	0.1922861	
-0.1070549	0.1820336	-0.003822816	0.001616393	-0.6334903	-0.2237087	-0.003309876	0.001077999	
0.0008305961	0.003761487	-0.1088345	0.1922861	-0.003309876	0.001077999	-0.622509	-0.1698322	

3.328e+10	-0.580382	-0.07517246	0.005346127	0.0008463129	-0.1074564	0.1854467	0.001464047	0.003621459	
0.005346127	0.0008463129	-0.5456356	-0.06564269	-0.003585863	0.002200864	-0.1073519	0.1956766	
-0.1074564	0.1854467	-0.003585863	0.002200864	-0.6334411	-0.2157643	-0.003226002	0.001655094	
0.001464047	0.003621459	-0.1073519	0.1956766	-0.003226002	0.001655094	-0.6118295	-0.1649697	

3.33e+10	-0.5761048	-0.0667595	0.005293714	-0.0003652614	-0.1071267	0.1893459	0.002063927	0.003376218	
0.005293714	-0.0003652614	-0.5393992	-0.06498792	-0.00324083	0.002793464	-0.1050604	0.1991805	
-0.1071267	0.1893459	-0.00324083	0.002793464	-0.6325043	-0.2082015	-0.003032339	0.002285031	
0.002063927	0.003376218	-0.1050604	0.1991805	-0.003032339	0.002285031	-0.6008928	-0.1624709	

3.332e+10	-0.5708404	-0.05888992	0.004968764	-0.001502619	-0.1058987	0.1935082	0.002617959	0.003067403	
0.004968764	-0.001502619	-0.5339417	-0.06546521	-0.002761901	0.003367184	-0.1018337	0.2024737	
-0.1058987	0.1935082	-0.002761901	0.003367184	-0.6308785	-0.2008538	-0.002693358	0.002946504	
0.002617959	0.003067403	-0.1018337	0.2024737	-0.002693358	0.002946504	-0.5901108	-0.1621004	

3.334e+10	-0.5643625	-0.05185763	0.00441758	-0.002495277	-0.1038012	0.1976283	0.003160657	0.002709394	
0.00441758	-0.002495277	-0.5292669	-0.06667427	-0.002131039	0.003874744	-0.09786378	0.2051757	
-0.1038012	0.1976283	-0.002131039	0.003874744	-0.6285205	-0.193118	-0.002174003	0.003601043	
0.003160657	0.002709394	-0.09786378	0.2051757	-0.002174003	0.003601043	-0.5796479	-0.1633684	

3.336e+10	-0.5566678	-0.0455708	0.003698375	-0.00331289	-0.1008015	0.2015594	0.003715732	0.002260089	
0.003698375	-0.00331289	-0.5252267	-0.06830826	-0.001357282	0.00425549	-0.09321428	0.2071211	
-0.1008015	0.2015594	-0.001357282	0.00425549	-0.6248485	-0.1855632	-0.001444609	0.004190696	
0.003715732	0.002260089	-0.09321428	0.2071211	-0.001444609	0.004190696	-0.5695564	-0.1670896	

3.338e+10	-0.5479619	-0.04081677	0.002859048	-0.00394107	-0.09685154	0.205169	0.004247224	0.001675595	
0.002859048	-0.00394107	-0.5218493	-0.07064955	-0.0004827502	0.004456831	-0.08825604	0.2081201	
-0.09685154	0.205169	-0.0004827502	0.004456831	-0.6197577	-0.1785324	-0.0005041384	0.004630135	
0.004247224	0.001675595	-0.08825604	0.2081201	-0.0005041384	0.004630135	-0.5607548	-0.1731537	

3.34e+10	-0.5386447	-0.03766571	0.001941305	-0.004366394	-0.0918994	0.2082654	0.00470351	0.0009601034	
0.001941305	-0.004366394	-0.5194773	-0.07356259	0.0004358093	0.004455135	-0.08313312	0.2081637	
-0.0918994	0.2082654	0.0004358093	0.004455135	-0.6134573	-0.1723195	0.0006092362	0.004833456	
0.00470351	0.0009601034	-0.08313312	0.2081637	0.0006092362	0.004833456	-0.5541697	-0.1811306	

3.342e+10	-0.5288987	-0.03596396	0.001002499	-0.004583651	-0.08595289	0.2104111	0.005075513	0.0001384209	
0.001002499	-0.004583651	-0.5183292	-0.0765402	0.001348799	0.004247066	-0.07814735	0.2071389	
-0.08595289	0.2104111	0.001348799	0.004247066	-0.6061649	-0.1671933	0.001823275	0.004735954	
0.005075513	0.0001384209	-0.07814735	0.2071389	0.001823275	0.004735954	-0.5501641	-0.1899739	

3.344e+10	-0.5185889	-0.03589947	9.481917e-05	-0.004619027	-0.07913675	0.2112112	0.005374165	-0.0008202415	
9.481917e-05	-0.004619027	-0.5181566	-0.07910401	0.002215477	0.003827901	-0.07351791	0.205102	
-0.07913675	0.2112112	0.002215477	0.003827901	-0.5978594	-0.1629952	0.003054938	0.004293476	
0.005374165	-0.0008202415	-0.07351791	0.205102	0.003054938	0.004293476	-0.5484094	-0.1990629	

3.346e+10	-0.5079926	-0.03837449	-0.0007565471	-0.004519009	-0.07186114	0.2102484	0.005539906	-0.001985319	
-0.0007565471	-0.004519009	-0.5185462	-0.08129489	0.00297885	0.003192749	-0.0695777	0.2021829	
-0.07186114	0.2102484	0.00297885	0.003192749	-0.5882694	-0.1603807	0.004194822	0.003471369	
0.005539906	-0.001985319	-0.0695777	0.2021829	0.004194822	0.003471369	-0.5486647	-0.2080895	

3.348e+10	-0.4980253	-0.04348398	-0.001559906	-0.004318611	-0.06471968	0.2072812	0.005421999	-0.003365713	
-0.001559906	-0.004318611	-0.5193744	-0.08309733	0.003558068	0.002362901	-0.06665504	0.1986347	
-0.06471968	0.2072812	0.003558068	0.002362901	-0.5776357	-0.1598669	0.005093846	0.002276987	
0.005421999	-0.003365713	-0.06665504	0.1986347	0.005093846	0.002276987	-0.5512191	-0.2166866	

3.35e+10	-0.4897384	-0.05112793	-0.002340051	-0.004022225	-0.05833666	0.2022446	0.004871869	-0.004845581	
-0.002340051	-0.004022225	-0.520759	-0.0846244	0.003883444	0.001410312	-0.06470704	0.1948571	
-0.05833666	0.2022446	0.003883444	0.001410312	-0.5667022	-0.1624992	0.00559601	0.0008063076	
0.004871869	-0.004845581	-0.06470704	0.1948571	0.00559601	0.0008063076	-0.5560734	-0.2244425	

3.352e+10	-0.4838678	-0.06069777	-0.003101382	-0.00360951	-0.05347366	0.1953328	0.003843906	-0.006235736	
-0.003101382	-0.00360951	-0.5227623	-0.08551192	0.003936604	0.0004371298	-0.06371461	0.1910877	
-0.05347366	0.1953328	0.003936604	0.0004371298	-0.5567579	-0.1680951	0.005612894	-0.0007695296	
0.003843906	-0.006235736	-0.06371461	0.1910877	0.005612894	-0.0007695296	-0.5627842	-0.2302411	

3.354e+10	-0.4806773	-0.07132318	-0.003824295	-0.003059457	-0.0508044	0.1869912	0.002382406	-0.00737431	
-0.003824295	-0.003059457	-0.5250226	-0.0856935	0.003749348	-0.0004748694	-0.06346855	0.1875097	
-0.0508044	0.1869912	0.003749348	-0.0004748694	-0.548617	-0.1761416	0.005148298	-0.002269919	
0.002382406	-0.00737431	-0.06346855	0.1875097	0.005148298	-0.002269919	-0.5703346	-0.2336787	

3.356e+10	-0.480413	-0.08229111	-0.004481369	-0.002356764	-0.05089349	0.1779555	0.0005505604	-0.008132385	
-0.004481369	-0.002356764	-0.5271014	-0.08480544	0.003363443	-0.001284576	-0.06396171	0.1841904	
-0.05089349	0.1779555	0.003363443	-0.001284576	-0.5427976	-0.1858411	0.004260786	-0.003547686	
0.0005505604	-0.008132385	-0.06396171	0.1841904	0.004260786	-0.003547686	-0.5778747	-0.2352382	

3.358e+10	-0.4832774	-0.09297708	-0.005034566	-0.001497999	-0.05406839	0.1693166	-0.001548654	-0.008363935	
-0.005034566	-0.001497999	-0.5286743	-0.08345005	0.002804885	-0.001958535	-0.06512454	0.1812874	
-0.05406839	0.1693166	0.002804885	-0.001958535	-0.5395472	-0.197126	0.003044433	-0.00447051	
-0.001548654	-0.008363935	-0.06512454	0.1812874	0.003044433	-0.00447051	-0.5852009	-0.2353679	

3.36e+10	-0.4890519	-0.1021683	-0.005437247	-0.0004890878	-0.05994183	0.162305	-0.003713654	-0.007953083	
-0.005437247	-0.0004890878	-0.5298277	-0.0818323	0.002108709	-0.00244866	-0.06674394	0.1789908	
-0.05994183	0.162305	0.002108709	-0.00244866	-0.5395062	-0.209044	0.001661256	-0.004941742	
-0.003713654	-0.007953083	-0.06674394	0.1789908	0.001661256	-0.004941742	-0.5923661	-0.2340561	

3.362e+10	-0.4967829	-0.1089521	-0.005635639	0.0006420999	-0.0675729	0.1577354	-0.005685284	-0.006916454	
-0.005635639	0.0006420999	-0.5306697	-0.08016151	0.001345629	-0.002718491	-0.06861386	0.1772641	
-0.0675729	0.1577354	0.001345629	-0.002718491	-0.5428068	-0.220411	0.0003110829	-0.004965265	
-0.005685284	-0.006916454	-0.06861386	0.1772641	0.0003110829	-0.004965265	-0.5989998	-0.2312549	

3.364e+10	-0.5053095	-0.1132279	-0.005588053	0.001850236	-0.07596972	0.155761	-0.007279464	-0.005398326	
-0.005588053	0.001850236	-0.5311318	-0.07814658	0.0005947023	-0.002785421	-0.07059193	0.1759578	
-0.07596972	0.155761	0.0005947023	-0.002785421	-0.548811	-0.2301356	-0.000860193	-0.004654786	
-0.007279464	-0.005398326	-0.07059193	0.1759578	-0.000860193	-0.004654786	-0.6045188	-0.2271033	

3.366e+10	-0.5139051	-0.1153424	-0.005271471	0.00306807	-0.08432025	0.1562728	-0.008427027	-0.003561449	
-0.005271471	0.00306807	-0.5309297	-0.07612981	-0.0001071616	-0.00269507	-0.07266359	0.1749933	
-0.08432025	0.1562728	-0.0001071616	-0.00269507	-0.5564917	-0.2378231	-0.001819939	-0.004145937	
-0.008427027	-0.003561449	-0.07266359	0.1749933	-0.001819939	-0.004145937	-0.6085463	-0.2223351	

3.368e+10	-0.5223274	-0.1158929	-0.004685654	0.004235299	-0.09214491	0.1590223	-0.00910749	-0.001525705	
-0.004685654	0.004235299	-0.5300707	-0.07449658	-0.0007606622	-0.002474107	-0.07493423	0.1744141	
-0.09214491	0.1590223	-0.0007606622	-0.002474107	-0.5650902	-0.2436001	-0.002592784	-0.003519338	
-0.00910749	-0.001525705	-0.07493423	0.1744141	-0.002592784	-0.003519338	-0.6113299	-0.2174444	

3.37e+10	-0.5304514	-0.1150753	-0.003841521	0.005293226	-0.09884416	0.1637266	-0.009296938	0.0006126128	
-0.003841521	0.005293226	-0.5289035	-0.07367371	-0.001359276	-0.002110801	-0.07742886	0.1743173	
-0.09884416	0.1637266	-0.001359276	-0.002110801	-0.5744045	-0.2477343	-0.003199944	-0.002805288	
-0.009296938	0.0006126128	-0.07742886	0.1743173	-0.003199944	-0.002805288	-0.6132827	-0.212608	

3.372e+10	-0.5381419	-0.1127178	-0.002750426	0.006189182	-0.1038777	0.1699122	-0.008978842	0.002739968	
-0.002750426	0.006189182	-0.5279089	-0.07334733	-0.001858999	-0.001596735	-0.07985248	0.1748158	
-0.1038777	0.1699122	-0.001858999	-0.001596735	-0.5843197	-0.250319	-0.003644232	-0.00203002	
-0.008978842	0.002739968	-0.07985248	0.1748158	-0.003644232	-0.00203002	-0.614471	-0.2077479	

3.374e+10	-0.5450372	-0.109206	-0.001439669	0.00686139	-0.1071176	0.1768722	-0.008179346	0.004726155	
-0.001439669	0.00686139	-0.5271999	-0.07343641	-0.002205456	-0.0009621652	-0.08207576	0.1757717	
-0.1071176	0.1768722	-0.002205456	-0.0009621652	-0.5945838	-0.2509175	-0.003937888	-0.001227269	
-0.008179346	0.004726155	-0.08207576	0.1757717	-0.003937888	-0.001227269	-0.614622	-0.2029098	

3.376e+10	-0.5510507	-0.1049192	4.439255e-05	0.007246364	-0.1087265	0.1840664	-0.006961544	0.006471331	
4.439255e-05	0.007246364	-0.5266405	-0.07382704	-0.002370481	-0.0002600286	-0.08420776	0.1770221	
-0.1087265	0.1840664	-0.002370481	-0.0002600286	-0.6045371	-0.2497896	-0.004107561	-0.0004092651	
-0.006961544	0.006471331	-0.08420776	0.1770221	-0.004107561	-0.0004092651	-0.6135447	-0.1986427	

3.378e+10	-0.556321	-0.1002984	0.00163384	0.007293233	-0.1088922	0.1912184	-0.005399959	0.007907147	
0.00163384	0.007293233	-0.5262633	-0.07471094	-0.00235314	0.0004616677	-0.08617222	0.1786535	
-0.1088922	0.1912184	-0.00235314	0.0004616677	-0.6139159	-0.2472906	-0.004160885	0.0004439358	
-0.005399959	0.007907147	-0.08617222	0.1786535	-0.004160885	0.0004439358	-0.6116794	-0.1953294	

3.38e+10	-0.5610546	-0.09499601	0.003236703	0.00697511	-0.1077067	0.198206	-0.00356416	0.008983711	
0.003236703	0.00697511	-0.5263662	-0.07603809	-0.002154389	0.001168764	-0.0879777	0.1807011	
-0.1077067	0.198206	-0.002154389	0.001168764	-0.6227806	-0.2436889	-0.004063921	0.001344013	
-0.00356416	0.008983711	-0.0879777	0.1807011	-0.004063921	0.001344013	-0.6095992	-0.1932592	

3.382e+10	-0.5651838	-0.0890108	0.004768006	0.006296892	-0.1052285	0.2047525	-0.001511974	0.009658572	
0.004768006	0.006296892	-0.5273291	-0.07768111	-0.001767926	0.001824996	-0.08940836	0.183152	
-0.1052285	0.2047525	-0.001767926	0.001824996	-0.6312486	-0.2390327	-0.003766411	0.002261299	
-0.001511974	0.009658572	-0.08940836	0.183152	-0.003766411	0.002261299	-0.6076699	-0.1920641	

3.384e+10	-0.5684368	-0.08262202	0.006151717	0.005281978	-0.101569	0.2105742	0.0006849147	0.00987648	
0.006151717	0.005281978	-0.529169	-0.07917926	-0.001197676	0.002375115	-0.0903318	0.1857834	
-0.101569	0.2105742	-0.001197676	0.002375115	-0.6392167	-0.233035	-0.003241777	0.003130547	
0.0006849147	0.00987648	-0.0903318	0.1857834	-0.003241777	0.003130547	-0.6057962	-0.1915882	

3.386e+10	-0.570676	-0.07573897	0.007318197	0.003954294	-0.09705286	0.2154494	0.00292898	0.009580261	
0.007318197	0.003954294	-0.5316387	-0.08030788	-0.0004710674	0.002758467	-0.09087291	0.1883991	
-0.09705286	0.2154494	-0.0004710674	0.002758467	-0.6462162	-0.2259219	-0.00249871	0.003881701	
0.00292898	0.009580261	-0.09087291	0.1883991	-0.00249871	0.003881701	-0.6040223	-0.1919553	

3.388e+10	-0.5719558	-0.06880915	0.008184423	0.002353185	-0.09192932	0.2193339	0.005074068	0.008747948	
0.008184423	0.002353185	-0.5345768	-0.08094258	0.0003535139	0.002928137	-0.09122631	0.1910025	
-0.09192932	0.2193339	0.0003535139	0.002928137	-0.6520203	-0.2177834	-0.00157626	0.004453691	
0.005074068	0.008747948	-0.09122631	0.1910025	-0.00157626	0.004453691	-0.6027793	-0.1934152	

3.39e+10	-0.5724538	-0.06198621	0.008670088	0.0005591499	-0.08646576	0.2222315	0.006974777	0.007424786	
0.008670088	0.0005591499	-0.5379922	-0.08136368	0.001205422	0.002867866	-0.09146391	0.1936683	
-0.08646576	0.2222315	0.001205422	0.002867866	-0.6565791	-0.2091624	-0.0005165114	0.004806125	
0.006974777	0.007424786	-0.09146391	0.1936683	-0.0005165114	0.004806125	-0.602675	-0.195821	

3.392e+10	-0.5722135	-0.05509789	0.008738151	-0.001309995	-0.08067196	0.2241977	0.008528782	0.005697888	
0.008738151	-0.001309995	-0.5420513	-0.08120355	0.002022303	0.002590759	-0.09141839	0.1964949	
-0.08067196	0.2241977	0.002022303	0.002590759	-0.6600766	-0.2001692	0.0006322092	0.004901899	
0.008528782	0.005697888	-0.09141839	0.1964949	0.0006322092	0.004901899	-0.604014	-0.1983561	

3.394e+10	-0.5710649	-0.04825479	0.00840364	-0.003158218	-0.07466292	0.2251007	0.00967465	0.003640702	
0.00840364	-0.003158218	-0.5465978	-0.08012976	0.002766818	0.002118455	-0.09105401	0.1993386	
-0.07466292	0.2251007	0.002766818	0.002118455	-0.6624848	-0.1907155	0.001804976	0.004707526	
0.00967465	0.003640702	-0.09105401	0.1993386	0.001804976	0.004707526	-0.606512	-0.2005847	

3.396e+10	-0.5688582	-0.04177434	0.007691363	-0.004915806	-0.06873951	0.2248368	0.01032576	0.001321679	
0.007691363	-0.004915806	-0.5512206	-0.07805773	0.003405377	0.001462643	-0.09046415	0.2021405	
-0.06873951	0.2248368	0.003405377	0.001462643	-0.663593	-0.1807918	0.002913848	0.004208759	
0.01032576	0.001321679	-0.09046415	0.2021405	0.002913848	0.004208759	-0.609896	-0.2022944	

3.398e+10	-0.565729	-0.03579091	0.006612015	-0.006518056	-0.0632262	0.2234366	0.01037755	-0.001130973	
0.006612015	-0.006518056	-0.5555912	-0.0749214	0.00388921	0.0006343318	-0.08974496	0.2049304	
-0.0632262	0.2234366	0.00388921	0.0006343318	-0.6631078	-0.1708741	0.003857752	0.003433027	
0.01037755	-0.001130973	-0.08974496	0.2049304	0.003857752	0.003433027	-0.6141103	-0.2036922	

3.4e+10	-0.5619711	-0.03053364	0.005185096	-0.007877365	-0.05829192	0.2210947	0.009793528	-0.003511413	
0.005185096	-0.007877365	-0.5595999	-0.0711901	0.00416218	-0.0003294712	-0.08883294	0.2078637	
-0.05829192	0.2210947	0.00416218	-0.0003294712	-0.6610819	-0.1612766	0.004561667	0.00245641	
0.009793528	-0.003511413	-0.08883294	0.2078637	0.004561667	0.00245641	-0.6193938	-0.2042454	

3.402e+10	-0.5577393	-0.0261072	0.003479179	-0.008900674	-0.05415028	0.2179952	0.008663958	-0.005625365	
0.003479179	-0.008900674	-0.5633146	-0.06687208	0.004187257	-0.001354223	-0.08767031	0.2109256	
-0.05415028	0.2179952	0.004187257	-0.001354223	-0.6578177	-0.152353	0.005002835	0.001376695	
0.008663958	-0.005625365	-0.08767031	0.2109256	0.005002835	0.001376695	-0.6254534	-0.203705	

3.404e+10	-0.5530041	-0.02221094	0.001595706	-0.009540677	-0.05080655	0.2142586	0.007121317	-0.007387487	
0.001595706	-0.009540677	-0.5666942	-0.06176285	0.003972737	-0.002371047	-0.08599601	0.2140297	
-0.05080655	0.2142586	0.003972737	-0.002371047	-0.6534942	-0.1440388	0.005200534	0.0002553585	
0.007121317	-0.007387487	-0.08599601	0.2140297	0.005200534	0.0002553585	-0.6318307	-0.2015214	

3.406e+10	-0.5477228	-0.01922261	-0.0003830889	-0.009798214	-0.04843356	0.209956	0.005243726	-0.008764058	
-0.0003830889	-0.009798214	-0.5694293	-0.05583303	0.003543715	-0.003339194	-0.08394985	0.2169971	
-0.04843356	0.209956	0.003543715	-0.003339194	-0.6480554	-0.1363305	0.005161877	-0.0008749197	
0.005243726	-0.008764058	-0.08394985	0.2169971	0.005161877	-0.0008749197	-0.6379056	-0.1980749	

3.408e+10	-0.5421542	-0.0176062	-0.002405182	-0.00966822	-0.04728071	0.2052856	0.003084752	-0.009680388	
-0.002405182	-0.00966822	-0.5712315	-0.04947401	0.002907478	-0.004240229	-0.08164601	0.2197743	
-0.04728071	0.2052856	0.002907478	-0.004240229	-0.6413236	-0.129663	0.004881955	-0.001968276	
0.003084752	-0.009680388	-0.08164601	0.2197743	0.004881955	-0.001968276	-0.6435651	-0.1934461	

3.41e+10	-0.5367631	-0.01724357	-0.004421339	-0.009117535	-0.04754363	0.2006543	0.000760565	-0.01003321	
-0.004421339	-0.009117535	-0.5721001	-0.0428156	0.00204675	-0.00503499	-0.07904147	0.2224656	
-0.04754363	0.2006543	0.00204675	-0.00503499	-0.633444	-0.1242768	0.004375171	-0.002962325	
0.000760565	-0.01003321	-0.07904147	0.2224656	0.004375171	-0.002962325	-0.6487618	-0.1879917	

3.412e+10	-0.5319412	-0.0178322	-0.006321183	-0.008116994	-0.04910903	0.1965271	-0.001524926	-0.009795007	
-0.006321183	-0.008116994	-0.5721724	-0.0360983	0.0009708916	-0.005649075	-0.07607987	0.2250269	
-0.04910903	0.1965271	0.0009708916	-0.005649075	-0.6248751	-0.1206713	0.003699945	-0.003805534	
-0.001524926	-0.009795007	-0.07607987	0.2250269	0.003699945	-0.003805534	-0.6534199	-0.1815779	

3.414e+10	-0.5277719	-0.01944476	-0.007976378	-0.006700096	-0.05173009	0.1931942	-0.003612392	-0.009059124	
-0.007976378	-0.006700096	-0.5715216	-0.02945209	-0.0002643336	-0.006013293	-0.07270088	0.2273908	
-0.05173009	0.1931942	-0.0002643336	-0.006013293	-0.6160591	-0.1188573	0.002910956	-0.004506375	
-0.003612392	-0.009059124	-0.07270088	0.2273908	0.002910956	-0.004506375	-0.6572826	-0.173907	

3.416e+10	-0.5243311	-0.02170097	-0.009296633	-0.004951435	-0.05513852	0.1907819	-0.005442812	-0.007934165	
-0.009296633	-0.004951435	-0.5700363	-0.02249643	-0.001583761	-0.006106358	-0.06895158	0.2293912	
-0.05513852	0.1907819	-0.001583761	-0.006106358	-0.6072284	-0.1186933	0.002013842	-0.005089239	
-0.005442812	-0.007934165	-0.06895158	0.2293912	0.002013842	-0.005089239	-0.6598619	-0.1656234	

3.418e+10	-0.52186	-0.02461029	-0.01023858	-0.002953278	-0.05927235	0.1894859	-0.006987833	-0.006464012	
-0.01023858	-0.002953278	-0.5674742	-0.01565275	-0.002943578	-0.005937603	-0.06497089	0.2309865	
-0.05927235	0.1894859	-0.002943578	-0.005937603	-0.5985102	-0.1202461	0.0009797191	-0.005536484	
-0.006987833	-0.006464012	-0.06497089	0.2309865	0.0009797191	-0.005536484	-0.6611074	-0.1567666	

3.42e+10	-0.5206919	-0.02810852	-0.01076093	-0.0007638021	-0.06388357	0.1896072	-0.008167634	-0.004670079	
-0.01076093	-0.0007638021	-0.5638208	-0.009447793	-0.004329411	-0.005485921	-0.06079301	0.2322245	
-0.06388357	0.1896072	-0.004329411	-0.005485921	-0.5902471	-0.1238467	-0.0001962428	-0.005781671	
-0.008167634	-0.004670079	-0.06079301	0.2322245	-0.0001962428	-0.005781671	-0.6611118	-0.1476548	

3.422e+10	-0.5209197	-0.0313133	-0.01080062	0.001541003	-0.06844108	0.191359	-0.008866496	-0.00266345	
-0.01080062	0.001541003	-0.5593477	-0.003709789	-0.005691117	-0.004691395	-0.05639648	0.2331151	
-0.06844108	0.191359	-0.005691117	-0.004691395	-0.5832624	-0.1295198	-0.001449601	-0.005758342	
-0.008866496	-0.00266345	-0.05639648	0.2331151	-0.001449601	-0.005758342	-0.6599395	-0.1384697	

3.424e+10	-0.5222913	-0.03404969	-0.01031371	0.003827442	-0.07234005	0.1946205	-0.00905472	-0.0006093509	
-0.01031371	0.003827442	-0.554289	0.00106416	-0.006908766	-0.003518673	-0.05166087	0.2336059	
-0.07234005	0.1946205	-0.006908766	-0.003518673	-0.5782488	-0.1367988	-0.002701355	-0.005451398	
-0.00905472	-0.0006093509	-0.05166087	0.2336059	-0.002701355	-0.005451398	-0.6574534	-0.1291064	

3.426e+10	-0.5244502	-0.03593735	-0.009325249	0.005952286	-0.07520531	0.1990251	-0.008796258	0.001352302	
-0.009325249	0.005952286	-0.5486538	0.005362627	-0.007849689	-0.002015457	-0.04661403	0.2334925	
-0.07520531	0.1990251	-0.007849689	-0.002015457	-0.5754948	-0.1448747	-0.003894484	-0.00487679	
-0.008796258	0.001352302	-0.04661403	0.2334925	-0.003894484	-0.00487679	-0.6532796	-0.1197814	

3.428e+10	-0.5271463	-0.03695412	-0.007912277	0.007813468	-0.07688583	0.2042267	-0.008167268	0.003172795	
-0.007912277	0.007813468	-0.542307	0.008897939	-0.008439199	-0.0002725846	-0.04131385	0.2326401	
-0.07688583	0.2042267	-0.008439199	-0.0002725846	-0.5748824	-0.1531793	-0.00499586	-0.004028272	
-0.008167268	0.003172795	-0.04131385	0.2326401	-0.00499586	-0.004028272	-0.6472048	-0.1112101	

3.43e+10	-0.5302921	-0.03726765	-0.006143565	0.009352684	-0.07724666	0.2099503	-0.007191299	0.004821429	
-0.006143565	0.009352684	-0.5353445	0.01112039	-0.008641677	0.0016313	-0.03602497	0.2309472	
-0.07724666	0.2099503	-0.008641677	0.0016313	-0.5763499	-0.1613536	-0.005930643	-0.002887444	
-0.007191299	0.004821429	-0.03602497	0.2309472	-0.005930643	-0.002887444	-0.6395162	-0.103579	

3.432e+10	-0.5336649	-0.0364752	-0.004069585	0.01051924	-0.0760893	0.215947	-0.005873808	0.006228776	
-0.004069585	0.01051924	-0.528184	0.01198617	-0.008402898	0.003643226	-0.03074558	0.2283898	
-0.0760893	0.215947	-0.008402898	0.003643226	-0.5799956	-0.1689435	-0.006577848	-0.001472734	
-0.005873808	0.006228776	-0.03074558	0.2283898	-0.006577848	-0.001472734	-0.6304842	-0.09737877	

3.434e+10	-0.5369745	-0.03463047	-0.001747097	0.01123497	-0.07340405	0.2216937	-0.004260648	0.007299996	
-0.001747097	0.01123497	-0.5213039	0.01146592	-0.00764043	0.005659814	-0.02563472	0.2248535	
-0.07340405	0.2216937	-0.00764043	0.005659814	-0.585716	-0.1752776	-0.006831161	0.0001132753	
-0.004260648	0.007299996	-0.02563472	0.2248535	-0.006831161	0.0001132753	-0.6201822	-0.09268685	

3.436e+10	-0.5397905	-0.03169131	0.0007301919	0.01142469	-0.06927007	0.2267137	-0.002453701	0.007961046	
0.0007301919	0.01142469	-0.5148634	0.009975776	-0.006319732	0.007499608	-0.02085918	0.2201339	
-0.06927007	0.2267137	-0.006319732	0.007499608	-0.5928907	-0.179682	-0.006656886	0.001721588	
-0.002453701	0.007961046	-0.02085918	0.2201339	-0.006656886	0.001721588	-0.6086061	-0.0897626	

3.438e+10	-0.5419111	-0.02811584	0.003229158	0.01104358	-0.06409229	0.2306403	-0.0005538388	0.008189293	
0.003229158	0.01104358	-0.5088453	0.007460596	-0.004501767	0.008974168	-0.01684831	0.214078	
-0.06409229	0.2306403	-0.004501767	0.008974168	-0.6007191	-0.1820544	-0.006077788	0.003241148	
-0.0005538388	0.008189293	-0.01684831	0.214078	-0.006077788	0.003241148	-0.5959764	-0.08970741	

3.44e+10	-0.5432957	-0.02410083	0.005610156	0.01008567	-0.05819189	0.2333949	0.001354955	0.007972885	
0.005610156	0.01008567	-0.5034171	0.003602439	-0.002320597	0.009940729	-0.01412347	0.2067983	
-0.05819189	0.2333949	-0.002320597	0.009940729	-0.6086004	-0.1825889	-0.005117105	0.004581652	
0.001354955	0.007972885	-0.01412347	0.2067983	-0.005117105	0.004581652	-0.5832605	-0.09269247	

3.442e+10	-0.5439682	-0.01956615	0.007736828	0.008581166	-0.05187037	0.2349422	0.003180912	0.007287752	
0.007736828	0.008581166	-0.4990885	-0.001219506	7.276706e-05	0.01031974	-0.01319926	0.198672	
-0.05187037	0.2349422	7.276706e-05	0.01031974	-0.6163151	-0.1816252	-0.003803178	0.005623611	
0.003180912	0.007287752	-0.01319926	0.198672	-0.003803178	0.005623611	-0.5715242	-0.09902758	

3.444e+10	-0.5437258	-0.01490272	0.009472662	0.006583917	-0.04525109	0.2352067	0.004781873	0.006124263	
0.009472662	0.006583917	-0.4962628	-0.006842956	0.002509451	0.01005663	-0.01428891	0.1902141	
-0.04525109	0.2352067	0.002509451	0.01005663	-0.6237074	-0.1791987	-0.002243127	0.006223708	
0.004781873	0.006124263	-0.01428891	0.1902141	-0.002243127	0.006223708	-0.5616419	-0.1082568	

3.446e+10	-0.5423854	-0.01013024	0.01068107	0.004185866	-0.03854569	0.2340269	0.005981392	0.004544403	
0.01068107	0.004185866	-0.4949615	-0.0125288	0.004801513	0.009145147	-0.01753006	0.1818571	
-0.03854569	0.2340269	0.004801513	0.009145147	-0.6304888	-0.1752056	-0.0006313917	0.006301246	
0.005981392	0.004544403	-0.01753006	0.1818571	-0.0006313917	0.006301246	-0.5541988	-0.1195183	

3.448e+10	-0.5398994	-0.005748261	0.01123413	0.001531214	-0.03215266	0.2313262	0.006626709	0.002707818	
0.01123413	0.001531214	-0.4949205	-0.01806142	0.006738118	0.007640206	-0.02306763	0.174159	
-0.03215266	0.2313262	0.006738118	0.007640206	-0.63621	-0.169996	0.0008156955	0.005899577	
0.006626709	0.002707818	-0.02306763	0.174159	0.0008156955	0.005899577	-0.5496978	-0.1325797	

3.45e+10	-0.536496	-0.002060007	0.0110547	-0.001156219	-0.02659443	0.2272089	0.006661366	0.0008596044	
0.0110547	-0.001156219	-0.495927	-0.02321383	0.008129951	0.005711918	-0.03094994	0.1679724	
-0.02659443	0.2272089	0.008129951	0.005711918	-0.6406484	-0.1640139	0.001941911	0.005167465	
0.006661366	0.0008596044	-0.03094994	0.1679724	0.001941911	0.005167465	-0.5488643	-0.1466571	

3.452e+10	-0.5324995	0.00074351	0.01017595	-0.003632903	-0.02210192	0.2219422	0.006167039	-0.0007754479	
0.01017595	-0.003632903	-0.4979974	-0.02792957	0.008892182	0.00358726	-0.04057006	0.1641817	
-0.02210192	0.2219422	0.008892182	0.00358726	-0.6439059	-0.157801	0.002704743	0.004280465	
0.006167039	-0.0007754479	-0.04057006	0.1641817	0.002704743	0.004280465	-0.5519104	-0.1604493	

3.454e+10	-0.5280846	0.002396388	0.008739071	-0.00570976	-0.01891849	0.2157622	0.005299477	-0.002064475	
0.008739071	-0.00570976	-0.501026	-0.03204867	0.009061303	0.001493136	-0.05100251	0.1632483	
-0.01891849	0.2157622	0.009061303	0.001493136	-0.6462241	-0.1512136	0.003136831	0.003377405	
0.005299477	-0.002064475	-0.05100251	0.1632483	0.003136831	0.003377405	-0.5582786	-0.1724958	

3.456e+10	-0.5233802	0.003197188	0.006908566	-0.007289277	-0.0171909	0.2088738	0.00421431	-0.002947714	
0.006908566	-0.007289277	-0.504696	-0.03502624	0.008744512	-0.0004138492	-0.06126481	0.1650888	
-0.0171909	0.2088738	0.008744512	-0.0004138492	-0.6475574	-0.1443903	0.00329308	0.0025623	
0.00421431	-0.002947714	-0.06126481	0.1650888	0.00329308	0.0025623	-0.5668468	-0.1824312	

3.458e+10	-0.5186738	0.002534739	0.004827935	-0.008321593	-0.01727824	0.2015006	0.003058746	-0.003410225	
0.004827935	-0.008321593	-0.5085272	-0.03725467	0.008057721	-0.00205928	-0.07077394	0.1693566	
-0.01727824	0.2015006	0.008057721	-0.00205928	-0.6476883	-0.1371979	0.00325993	0.001909685	
0.003058746	-0.003410225	-0.07077394	0.1693566	0.00325993	0.001909685	-0.5769373	-0.1899105	

3.46e+10	-0.5144395	0.0007182935	0.002641814	-0.008766698	-0.01942631	0.1941807	0.001996158	-0.003482809	
0.002641814	-0.008766698	-0.5123367	-0.03888251	0.007102244	-0.003389271	-0.07901676	0.1758203	
-0.01942631	0.1941807	0.007102244	-0.003389271	-0.6463841	-0.1302165	0.003151818	0.001456545	
0.001996158	-0.003482809	-0.07901676	0.1758203	0.003151818	0.001456545	-0.5880164	-0.1952651	

3.462e+10	-0.5111647	-0.002319608	0.000536684	-0.008624017	-0.02373981	0.1876039	0.001157509	-0.003287475	
0.000536684	-0.008624017	-0.5163218	-0.04027273	0.005988077	-0.004371706	-0.08560301	0.1840793	
-0.02373981	0.1876039	0.005988077	-0.004371706	-0.643725	-0.1238454	0.003082294	0.001161568	
0.001157509	-0.003287475	-0.08560301	0.1840793	0.003082294	0.001161568	-0.599708	-0.1984506	

3.464e+10	-0.5089962	-0.005863475	-0.001311821	-0.007985467	-0.02983587	0.1824364	0.0005685505	-0.002989516	
-0.001311821	-0.007985467	-0.5207382	-0.04125734	0.004837841	-0.005018839	-0.08999675	0.1936159	
-0.02983587	0.1824364	0.004837841	-0.005018839	-0.6399633	-0.1183791	0.003106074	0.0009320441	
0.0005685505	-0.002989516	-0.08999675	0.1936159	0.003106074	0.0009320441	-0.6115839	-0.1993059	

3.466e+10	-0.5078847	-0.00984056	-0.002801379	-0.007007493	-0.03728548	0.1791001	0.0001642744	-0.002699005	
-0.002801379	-0.007007493	-0.5255032	-0.04163487	0.00375301	-0.005395251	-0.09214037	0.203689	
-0.03728548	0.1791001	0.00375301	-0.005395251	-0.6353189	-0.1138541	0.003205564	0.0006905496	
0.0001642744	-0.002699005	-0.09214037	0.203689	0.003205564	0.0006905496	-0.6230363	-0.1983571	

3.468e+10	-0.5077969	-0.01400666	-0.003924934	-0.005827725	-0.04556386	0.1778461	-0.0001356937	-0.002445438	
-0.003924934	-0.005827725	-0.5304361	-0.0412805	0.002761949	-0.005596246	-0.09217513	0.2137202	
-0.04556386	0.1778461	0.002761949	-0.005596246	-0.629763	-0.1104776	0.003340286	0.0004029295	
-0.0001356937	-0.002445438	-0.09217513	0.2137202	0.003340286	0.0004029295	-0.6339599	-0.1956373	

3.47e+10	-0.5088373	-0.01812467	-0.004693332	-0.004530715	-0.05425311	0.1789047	-0.000370315	-0.002220533	
-0.004693332	-0.004530715	-0.5353987	-0.04025683	0.001847519	-0.005677985	-0.09043617	0.2233882	
-0.05425311	0.1789047	0.001847519	-0.005677985	-0.6234553	-0.1086982	0.003487351	6.725892e-05	
-0.000370315	-0.002220533	-0.09043617	0.2233882	0.003487351	6.725892e-05	-0.64428	-0.1915785	

3.472e+10	-0.5110609	-0.02213467	-0.005099759	-0.003199073	-0.06269749	0.1825005	-0.0005569164	-0.002023251	
-0.005099759	-0.003199073	-0.5404565	-0.03883522	0.0009911361	-0.005652157	-0.08716293	0.2325091	
-0.06269749	0.1825005	0.0009911361	-0.005652157	-0.6169644	-0.1091206	0.00363544	-0.0003279275	
-0.0005569164	-0.002023251	-0.08716293	0.2325091	0.00363544	-0.0003279275	-0.6540358	-0.1861836	

3.474e+10	-0.5143775	-0.02551723	-0.005165147	-0.00193528	-0.06995927	0.1885175	-0.0007190947	-0.00185682	
-0.005165147	-0.00193528	-0.5457321	-0.03663017	0.0002058404	-0.005521464	-0.08228503	0.2408835	
-0.06995927	0.1885175	0.0002058404	-0.005521464	-0.6112595	-0.1116358	0.003765142	-0.0008014732	
-0.0007190947	-0.00185682	-0.08228503	0.2408835	0.003765142	-0.0008014732	-0.663075	-0.1795323	

3.476e+10	-0.5185752	-0.02835736	-0.00495975	-0.0008353177	-0.07537553	0.19636	-0.0008801949	-0.001706808	
-0.00495975	-0.0008353177	-0.5509821	-0.03350647	-0.0004826809	-0.005317136	-0.07607006	0.2481941	
-0.07537553	0.19636	-0.0004826809	-0.005317136	-0.6070142	-0.1157942	0.003843603	-0.001358449	
-0.0008801949	-0.001706808	-0.07607006	0.2481941	0.003843603	-0.001358449	-0.6711088	-0.1714378	

3.478e+10	-0.5235498	-0.03037106	-0.004586171	6.964345e-05	-0.07860448	0.205307	-0.001046352	-0.001547199	
-0.004586171	6.964345e-05	-0.5559217	-0.02942651	-0.001086968	-0.00508758	-0.06892491	0.2542118	
-0.07860448	0.205307	-0.001086968	-0.00508758	-0.6044773	-0.1210059	0.003833877	-0.001989841	
-0.001046352	-0.001547199	-0.06892491	0.2542118	0.003833877	-0.001989841	-0.6779145	-0.1623775	

3.48e+10	-0.5292613	-0.03153661	-0.004115358	0.0007984539	-0.07967313	0.2146933	-0.001200106	-0.001359339	
-0.004115358	0.0007984539	-0.5603076	-0.02465952	-0.001643847	-0.004856537	-0.06102396	0.2589569	
-0.07967313	0.2146933	-0.001643847	-0.004856537	-0.6037457	-0.126569	0.003716653	-0.002669506	
-0.001200106	-0.001359339	-0.06102396	0.2589569	0.003716653	-0.002669506	-0.6834097	-0.1525097	

3.482e+10	-0.5356067	-0.03163328	-0.003577626	0.001372606	-0.07856879	0.2241064	-0.001318123	-0.001145019	
-0.003577626	0.001372606	-0.5641797	-0.01930725	-0.002188447	-0.004604711	-0.05263607	0.2624641	
-0.07856879	0.2241064	-0.002188447	-0.004604711	-0.6049032	-0.1326646	0.003480027	-0.003380162	
-0.001318123	-0.001145019	-0.05263607	0.2624641	0.003480027	-0.003380162	-0.6876358	-0.1420271	

3.484e+10	-0.5423184	-0.03022536	-0.002993696	0.001789562	-0.07549347	0.2330368	-0.0013863	-0.0009255962	
-0.002993696	0.001789562	-0.5675501	-0.01347417	-0.002709948	-0.004315007	-0.04387771	0.2647284	
-0.07549347	0.2330368	-0.002709948	-0.004315007	-0.6081811	-0.1381754	0.003119235	-0.004107207	
-0.0013863	-0.0009255962	-0.04387771	0.2647284	0.003119235	-0.004107207	-0.6904988	-0.1309704	

3.486e+10	-0.5490357	-0.02762081	-0.002400511	0.002047333	-0.07055391	0.2409633	-0.00140986	-0.0007227042	
-0.002400511	0.002047333	-0.5703762	-0.007068371	-0.003198055	-0.004000404	-0.03482352	0.2656573	
-0.07055391	0.2409633	-0.003198055	-0.004000404	-0.6132889	-0.142604	0.002614571	-0.004844031	
-0.00140986	-0.0007227042	-0.03482352	0.2656573	0.002614571	-0.004844031	-0.6917684	-0.1192405	

3.488e+10	-0.5554659	-0.0236694	-0.001842924	0.00216084	-0.06417991	0.2474525	-0.001403089	-0.0005509949	
-0.001842924	0.00216084	-0.57246	-0.0001998262	-0.003674344	-0.003687192	-0.02562202	0.2651248	
-0.06417991	0.2474525	-0.003674344	-0.003687192	-0.6195797	-0.1454352	0.001939083	-0.005572672	
-0.001403089	-0.0005509949	-0.02562202	0.2651248	0.001939083	-0.005572672	-0.6911711	-0.1074931	

3.49e+10	-0.5614044	-0.01852561	-0.00134831	0.002166151	-0.05701296	0.2523702	-0.001383267	-0.0004126326	
-0.00134831	0.002166151	-0.5736672	0.007009016	-0.004192975	-0.003362813	-0.01656743	0.2630388	
-0.05701296	0.2523702	-0.004192975	-0.003362813	-0.6264458	-0.1468162	0.001052729	-0.006253307	
-0.001383267	-0.0004126326	-0.01656743	0.2630388	0.001052729	-0.006253307	-0.688674	-0.0960515	

3.492e+10	-0.5667151	-0.01236577	-0.0009208666	0.002096798	-0.04945312	0.2558443	-0.001362415	-0.000305285	
-0.0009208666	0.002096798	-0.5740637	0.01423032	-0.004778576	-0.002967463	-0.007982143	0.2594773	
-0.04945312	0.2558443	-0.004778576	-0.002967463	-0.6336633	-0.1466422	-5.844287e-05	-0.00681965	
-0.001362415	-0.000305285	-0.007982143	0.2594773	-5.844287e-05	-0.00681965	-0.6845106	-0.0852603	

3.494e+10	-0.5712565	-0.005184702	-0.0005542006	0.001968993	-0.04168879	0.2579935	-0.00134888	-0.0002291148	
-0.0005542006	0.001968993	-0.5738495	0.02144328	-0.005404134	-0.002432116	-5.329188e-05	0.25445	
-0.04168879	0.2579935	-0.005404134	-0.002432116	-0.6411062	-0.1451851	-0.001388506	-0.00719688	
-0.00134888	-0.0002291148	-5.329188e-05	0.25445	-0.001388506	-0.00719688	-0.6787997	-0.07553983	

3.496e+10	-0.5748121	0.003009737	-0.0002531304	0.00178484	-0.03383766	0.2588376	-0.001359276	-0.0001878897	
-0.0002531304	0.00178484	-0.5730602	0.02892971	-0.006012805	-0.00173096	0.007001224	0.2480112	
-0.03383766	0.2588376	-0.006012805	-0.00173096	-0.6485414	-0.1421165	-0.002905714	-0.007324054	
-0.001359276	-0.0001878897	0.007001224	0.2480112	-0.002905714	-0.007324054	-0.6716759	-0.06680538	

3.498e+10	-0.5772096	0.01178846	-3.941373e-05	0.001556001	-0.02617615	0.2583272	-0.001425341	-0.00017299	
-3.941373e-05	0.001556001	-0.5716145	0.0363636	-0.006564459	-0.0008618964	0.01280157	0.240099	
-0.02617615	0.2583272	-0.006564459	-0.0008618964	-0.6555212	-0.1376621	-0.004588059	-0.007132936	
-0.001425341	-0.00017299	0.01280157	0.240099	-0.004588059	-0.007132936	-0.663182	-0.0597708	

3.5e+10	-0.5784323	0.02090688	6.974877e-05	0.001318557	-0.0189629	0.2565702	-0.001580739	-0.0001463624	
6.974877e-05	0.001318557	-0.5694092	0.04391362	-0.007029294	0.0001914348	0.01689896	0.2308924	
-0.0189629	0.2565702	-0.007029294	0.0001914348	-0.6617193	-0.1318643	-0.006382532	-0.006526736	
-0.001580739	-0.0001463624	0.01689896	0.2308924	-0.006382532	-0.006526736	-0.653858	-0.05467614	

3.502e+10	-0.5784455	0.03051752	8.645742e-05	0.001118764	-0.01243044	0.2537958	-0.001820824	-4.163824e-05	
8.645742e-05	0.001118764	-0.5663694	0.05154365	-0.007337274	0.001463469	0.01877763	0.2208431	
-0.01243044	0.2537958	-0.007337274	0.001463469	-0.6670986	-0.1248441	-0.008168896	-0.00539458	
-0.001820824	-4.163824e-05	0.01877763	0.2208431	-0.008168896	-0.00539458	-0.6444356	-0.05162366	

3.504e+10	-0.5772305	0.04036389	4.858672e-05	0.0009828798	-0.006649759	0.2502717	-0.002100808	0.0001967353	
4.858672e-05	0.0009828798	-0.5624909	0.05931869	-0.007373319	0.002931219	0.01819034	0.210626	
-0.006649759	0.2502717	-0.007373319	0.002931219	-0.6715392	-0.1172023	-0.009739233	-0.00370737	
-0.002100808	0.0001967353	0.01819034	0.210626	-0.009739233	-0.00370737	-0.6355285	-0.05035201	

3.506e+10	-0.5746262	0.05037434	-1.312839e-05	0.0009040247	-0.001537504	0.2460652	-0.002354341	0.0005856941	
-1.312839e-05	0.0009040247	-0.5575596	0.06707721	-0.007039897	0.004500471	0.01523343	0.2008632	
-0.001537504	0.2460652	-0.007039897	0.004500471	-0.6750488	-0.1086087	-0.01090285	-0.001532296	
-0.002354341	0.0005856941	0.01523343	0.2008632	-0.01090285	-0.001532296	-0.627243	-0.05046678	

3.508e+10	-0.5705158	0.06026566	-9.20621e-05	0.0008740048	0.002811806	0.2411636	-0.002528217	0.001115076	
-9.20621e-05	0.0008740048	-0.5512746	0.07482919	-0.006313053	0.006034993	0.01003583	0.1920079	
0.002811806	0.2411636	-0.006313053	0.006034993	-0.6773182	-0.09917225	-0.01152819	0.0009943955	
-0.002528217	0.001115076	0.01003583	0.1920079	-0.01152819	0.0009943955	-0.6195757	-0.05159166	

3.51e+10	-0.5648171	0.0698512	-0.0001862664	0.0009042141	0.006174019	0.2356191	-0.002571264	0.001777773	
-0.0001862664	0.0009042141	-0.5432425	0.08215771	-0.005220638	0.007433731	0.002689881	0.1845604	
0.006174019	0.2356191	-0.005220638	0.007433731	-0.67811	-0.08903408	-0.01152145	0.003739101	
-0.002571264	0.001777773	0.002689881	0.1845604	-0.01152145	0.003739101	-0.6126504	-0.05370771	

3.512e+10	-0.5574721	0.07884376	-0.0002716422	0.00101591	0.008356958	0.229658	-0.002409963	0.002550247	
-0.0002716422	0.00101591	-0.5332607	0.088472	-0.003795902	0.008622762	-0.006563596	0.1791698	
0.008356958	0.229658	-0.003795902	0.008622762	-0.6772381	-0.0784789	-0.01079326	0.006549512	
-0.002409963	0.002550247	-0.006563596	0.1791698	-0.01079326	0.006549512	-0.6066156	-0.05648761	

3.514e+10	-0.5484375	0.08715836	-0.0003068342	0.001204637	0.009306258	0.2236264	-0.001969067	0.003349494	
-0.0003068342	0.001204637	-0.5215214	0.09317886	-0.002079582	0.009521854	-0.01711762	0.1764818	
0.009306258	0.2236264	-0.002079582	0.009521854	-0.6746384	-0.06793252	-0.009303678	0.00919391	
-0.001969067	0.003349494	-0.01711762	0.1764818	-0.009303678	0.00919391	-0.6013235	-0.05970209	

3.516e+10	-0.537653	0.09412559	-0.0002618145	0.001444972	0.00923152	0.2177144	-0.001227986	0.0040494	
-0.0002618145	0.001444972	-0.5083931	0.09541872	-0.0001287954	0.01005318	-0.02801402	0.1767538	
0.00923152	0.2177144	-0.0001287954	0.01005318	-0.6702216	-0.05745826	-0.00711636	0.01142846	
-0.001227986	0.0040494	-0.02801402	0.1767538	-0.00711636	0.01142846	-0.5964284	-0.06331869	

3.518e+10	-0.5251401	0.09932118	-0.0001295604	0.001712305	0.008133889	0.211924	-0.0002402411	0.004526629	
-0.0001295604	0.001712305	-0.4944696	0.09477241	0.001963955	0.01015381	-0.03849446	0.1798669	
0.008133889	0.211924	0.001963955	0.01015381	-0.6637453	-0.04746141	-0.004383749	0.01307888	
-0.0002402411	0.004526629	-0.03849446	0.1798669	-0.004383749	0.01307888	-0.5918273	-0.06763948	

3.52e+10	-0.5111552	0.1021389	0.0001044645	0.001995968	0.005843379	0.2063573	0.000899311	0.004708995	
0.0001044645	0.001995968	-0.4803873	0.09094381	0.004098024	0.009798563	-0.04803525	0.1856049	
0.005843379	0.2063573	0.004098024	0.009798563	-0.655092	-0.03811653	-0.001286041	0.01403621	
0.000899311	0.004708995	-0.04803525	0.1856049	-0.001286041	0.01403621	-0.5878957	-0.0729137	

3.522e+10	-0.4962466	0.1020453	0.0004743291	0.002277633	0.002206996	0.2013479	0.002092578	0.00457164	
0.0004743291	0.002277633	-0.4671626	0.083635	0.006182232	0.008978408	-0.05594269	0.193818	
0.002206996	0.2013479	0.006182232	0.008978408	-0.6441834	-0.03060429	0.002029209	0.01424015	
0.002092578	0.00457164	-0.05594269	0.193818	0.002029209	0.01424015	-0.5850825	-0.07921024	

3.524e+10	-0.4811602	0.09850549	0.00102438	0.00249348	-0.002639407	0.1974124	0.003258733	0.004110466	
0.00102438	0.00249348	-0.4559708	0.07295307	0.008137739	0.007690905	-0.06150605	0.204104	
-0.002639407	0.1974124	0.008137739	0.007690905	-0.631371	-0.02535848	0.005388422	0.01362627	
0.003258733	0.004110466	-0.06150605	0.204104	0.005388422	0.01362627	-0.5836956	-0.08608857	

3.526e+10	-0.4667544	0.09140438	0.001753819	0.002529345	-0.008273285	0.1948745	0.004318625	0.003321828	
0.001753819	0.002529345	-0.4478515	0.0596766	0.009859706	0.005913307	-0.0639908	0.2156147	
-0.008273285	0.1948745	0.009859706	0.005913307	-0.6172352	-0.02317237	0.008576707	0.01216321	
0.004318625	0.003321828	-0.0639908	0.2156147	0.008576707	0.01216321	-0.5837946	-0.09309076	

3.528e+10	-0.4542035	0.08066062	0.002568953	0.002271539	-0.01432119	0.1937214	0.005160134	0.002213875	
0.002568953	0.002271539	-0.4434262	0.0449634	0.01119043	0.003651113	-0.06330579	0.2271951	
-0.01432119	0.1937214	0.01119043	0.003651113	-0.60247	-0.02430302	0.01135868	0.009876388	
0.005160134	0.002213875	-0.06330579	0.2271951	0.01135868	0.009876388	-0.5854115	-0.1001714	

3.53e+10	-0.4445917	0.06692072	0.003318203	0.001678545	-0.02060473	0.1939888	0.005656419	0.0008618461	
0.003318203	0.001678545	-0.4427833	0.02987539	0.01194326	0.0009872666	-0.05984424	0.2378984	
-0.02060473	0.1939888	0.01194326	0.0009872666	-0.5879468	-0.02937259	0.0134842	0.006895462	
0.005656419	0.0008618461	-0.05984424	0.2378984	0.0134842	0.006895462	-0.5886584	-0.1069774	

3.532e+10	-0.4389547	0.05102172	0.003847856	0.0008061721	-0.02691507	0.1958492	0.005733162	-0.0005837081	
0.003847856	0.0008061721	-0.4458263	0.01533488	0.01195418	-0.001885743	-0.05420508	0.2471558	
-0.02691507	0.1958492	0.01195418	-0.001885743	-0.5748234	-0.03817973	0.01476771	0.003430848	
0.005733162	-0.0005837081	-0.05420508	0.2471558	0.01476771	0.003430848	-0.5935179	-0.1128975	

3.534e+10	-0.4377684	0.03429937	0.004061563	-0.0002374885	-0.03275015	0.1994693	0.005410122	-0.001974579	
0.004061563	-0.0002374885	-0.452235	0.002131123	0.0111556	-0.004719884	-0.04697856	0.2547139	
-0.03275015	0.1994693	0.0111556	-0.004719884	-0.5643979	-0.05047046	0.01509568	-0.0002648665	
0.005410122	-0.001974579	-0.04697856	0.2547139	0.01509568	-0.0002648665	-0.5996394	-0.1175359	

3.536e+10	-0.4410088	0.01809823	0.003910634	-0.001324361	-0.03744806	0.2046418	0.004744219	-0.003226831	
0.003910634	-0.001324361	-0.4614649	-0.00886058	0.009577201	-0.007251855	-0.03853555	0.2603334	
-0.03744806	0.2046418	0.009577201	-0.007251855	-0.5578059	-0.06542843	0.01442171	-0.003931539	
0.004744219	-0.003226831	-0.03853555	0.2603334	0.01442171	-0.003931539	-0.606547	-0.1206497	

3.538e+10	-0.4481336	0.003832583	0.003385989	-0.002304486	-0.04066859	0.2107927	0.003758323	-0.004268535	
0.003385989	-0.002304486	-0.4726614	-0.01708389	0.007332266	-0.009228827	-0.02956388	0.2638589	
-0.04066859	0.2107927	0.007332266	-0.009228827	-0.5556863	-0.08156118	0.01275711	-0.007261485	
0.003758323	-0.004268535	-0.02956388	0.2638589	0.01275711	-0.007261485	-0.6138291	-0.1224324	

3.54e+10	-0.4583243	-0.007760032	0.002557602	-0.003018703	-0.04249954	0.2174253	0.002494239	-0.004980664	
0.002557602	-0.003018703	-0.4849747	-0.02236186	0.004632688	-0.01043704	-0.02067585	0.265436	
-0.04249954	0.2174253	0.004632688	-0.01043704	-0.558094	-0.09740299	0.01024176	-0.009916644	
0.002494239	-0.004980664	-0.02067585	0.265436	0.01024176	-0.009916644	-0.6213701	-0.1228092	

3.542e+10	-0.4704846	-0.01610083	0.001592428	-0.003356064	-0.04292663	0.2243909	0.00110566	-0.005240839	
0.001592428	-0.003356064	-0.4976394	-0.02486103	0.001797591	-0.01075582	-0.0123119	0.2655047	
-0.04292663	0.2243909	0.001797591	-0.01075582	-0.5645103	-0.111776	0.007196076	-0.01164144	
0.00110566	-0.005240839	-0.0123119	0.2655047	0.007196076	-0.01164144	-0.6288943	-0.121903	

3.544e+10	-0.483593	-0.02102956	0.0006784308	-0.003338769	-0.04194916	0.2315203	-0.0001978417	-0.005062436	
0.0006784308	-0.003338769	-0.5101446	-0.02486098	-0.0008451889	-0.0102452	-0.004468459	0.2644623	
-0.04194916	0.2315203	-0.0008451889	-0.0102452	-0.5742813	-0.1236395	0.003995184	-0.01238558	
-0.0001978417	-0.005062436	-0.004468459	0.2644623	0.003995184	-0.01238558	-0.6361315	-0.1195085	

3.546e+10	-0.4967123	-0.02290307	-6.663852e-05	-0.003073678	-0.0393304	0.2384279	-0.00127753	-0.0045756	
-6.663852e-05	-0.003073678	-0.5220345	-0.02251867	-0.003051996	-0.00908981	0.002895112	0.262454	
-0.0393304	0.2384279	-0.003051996	-0.00908981	-0.5864123	-0.1324764	0.000954541	-0.0122599	
-0.00127753	-0.0045756	0.002895112	0.262454	0.000954541	-0.0122599	-0.6426196	-0.1158571	

3.548e+10	-0.5092326	-0.02205548	-0.0006193688	-0.002665794	-0.03526212	0.2446115	-0.002118958	-0.003909141	
-0.0006193688	-0.002665794	-0.533048	-0.01824186	-0.004712691	-0.007509761	0.009767766	0.2594562	
-0.03526212	0.2446115	-0.004712691	-0.007509761	-0.5998597	-0.137827	-0.001741741	-0.011425	
-0.002118958	-0.003909141	0.009767766	0.2594562	-0.001741741	-0.011425	-0.6482098	-0.1112663	

3.55e+10	-0.5207134	-0.01900269	-0.0009741412	-0.00217874	-0.03011385	0.2497611	-0.002733614	-0.003114896	
-0.0009741412	-0.00217874	-0.5428824	-0.01222493	-0.00578563	-0.005697445	0.01596985	0.2555415	
-0.03011385	0.2497611	-0.00578563	-0.005697445	-0.6135786	-0.1399648	-0.003955851	-0.01003224	
-0.002733614	-0.003114896	0.01596985	0.2555415	-0.003955851	-0.01003224	-0.6528685	-0.1063264	

3.552e+10	-0.5308407	-0.01417869	-0.001116262	-0.00167503	-0.02421409	0.2538879	-0.003086813	-0.002229557	
-0.001116262	-0.00167503	-0.5513382	-0.004907689	-0.006268548	-0.003833851	0.02138891	0.2508799	
-0.02421409	0.2538879	-0.006268548	-0.003833851	-0.6268356	-0.1388513	-0.005574122	-0.008257756	
-0.003086813	-0.002229557	0.02138891	0.2508799	-0.005574122	-0.008257756	-0.6566631	-0.1008355	

3.554e+10	-0.5395392	-0.008099001	-0.001055089	-0.001243239	-0.01767187	0.2569731	-0.003136521	-0.001352747	
-0.001055089	-0.001243239	-0.5584202	0.003313771	-0.006212513	-0.002097987	0.02607041	0.2456102	
-0.01767187	0.2569731	-0.006212513	-0.002097987	-0.638962	-0.1353494	-0.006541269	-0.00633893	
-0.003136521	-0.001352747	0.02607041	0.2456102	-0.006541269	-0.00633893	-0.6594384	-0.09502653	

3.556e+10	-0.5467788	-0.001145173	-0.0008495909	-0.0009667287	-0.01054726	0.2588852	-0.002917521	-0.0006201382	
-0.0008495909	-0.0009667287	-0.5641679	0.01221167	-0.005730384	-0.0006326403	0.03003164	0.2396758	
-0.01054726	0.2588852	-0.005730384	-0.0006326403	-0.6496149	-0.1299238	-0.006923626	-0.00450657	
-0.002917521	-0.0006201382	0.03003164	0.2396758	-0.006923626	-0.00450657	-0.6611854	-0.08916077	

3.558e+10	-0.5526655	0.00617359	-0.0005942261	-0.0008803134	-0.003069495	0.2593818	-0.002546894	-0.0001174356	
-0.0005942261	-0.0008803134	-0.5686481	0.02164647	-0.004961109	0.000486441	0.03310402	0.2329799	
-0.003069495	0.2593818	-0.004961109	0.000486441	-0.6586097	-0.1230175	-0.006861541	-0.0029069	
-0.002546894	-0.0001174356	0.03310402	0.2329799	-0.006861541	-0.0029069	-0.6620883	-0.08387601	

3.56e+10	-0.5574188	0.01381771	-0.0003705254	-0.0009692947	0.00439646	0.2583326	-0.002144331	0.000160104	
-0.0003705254	-0.0009692947	-0.5719445	0.03147601	-0.00402585	0.001236975	0.03498507	0.2255731	
0.00439646	0.2583326	-0.00402585	0.001236975	-0.6658397	-0.1151302	-0.006492374	-0.001599487	
-0.002144331	0.000160104	0.03498507	0.2255731	-0.006492374	-0.001599487	-0.6625822	-0.07912543	

3.562e+10	-0.5611798	0.02146027	-0.0002344985	-0.001210903	0.01143706	0.2558045	-0.001776386	0.0002493387	
-0.0002344985	-0.001210903	-0.5739611	0.04164553	-0.003031729	0.001602509	0.03536979	0.2177055	
0.01143706	0.2558045	-0.003031729	0.001602509	-0.6713265	-0.1068082	-0.005924497	-0.0006300087	
-0.001776386	0.0002493387	0.03536979	0.2177055	-0.005924497	-0.0006300087	-0.6629899	-0.07483494	

3.564e+10	-0.5641314	0.02907125	-0.0002481107	-0.001581152	0.0177781	0.2519636	-0.001495899	0.0001625066	
-0.0002481107	-0.001581152	-0.5746915	0.05189652	-0.002109385	0.00158032	0.03411226	0.209734	
0.0177781	0.2519636	-0.002109385	0.00158032	-0.6751831	-0.09849857	-0.005297565	-4.992985e-05	
-0.001495899	0.0001625066	0.03411226	0.209734	-0.005297565	-4.992985e-05	-0.6634346	-0.0707836	

3.566e+10	-0.566573	0.03653933	-0.0004928981	-0.002017358	0.02320247	0.2468821	-0.001402906	-6.689558e-05	
-0.0004928981	-0.002017358	-0.5742225	0.06227913	-0.001410004	0.001230458	0.03112567	0.2019454	
0.02320247	0.2468821	-0.001410004	0.001230458	-0.6777576	-0.09055257	-0.004821831	0.0001692247	
-0.001402906	-6.689558e-05	0.03112567	0.2019454	-0.004821831	0.0001692247	-0.6640155	-0.06662872	

3.568e+10	-0.568676	0.04405676	-0.001012876	-0.002391988	0.02737614	0.2406881	-0.001592787	-0.0003032641	
-0.001012876	-0.002391988	-0.5725412	0.07263336	-0.001045312	0.0006974	0.02638266	0.1947208	
0.02737614	0.2406881	-0.001045312	0.0006974	-0.6794911	-0.08306989	-0.004682567	0.000206083	
-0.001592787	-0.0003032641	0.02638266	0.1947208	-0.004682567	0.000206083	-0.6647506	-0.06236923	

3.57e+10	-0.5705422	0.05192341	-0.001763986	-0.002561824	0.02992292	0.233682	-0.002031017	-0.0003413335	
-0.001763986	-0.002561824	-0.569482	0.08307844	-0.001026677	0.0001569203	0.01990339	0.188482	
0.02992292	0.233682	-0.001026677	0.0001569203	-0.6807543	-0.07623852	-0.004897157	0.0003364308	
-0.002031017	-0.0003413335	0.01990339	0.188482	-0.004897157	0.0003364308	-0.6655284	-0.05775804	

3.572e+10	-0.5720678	0.06032865	-0.00263051	-0.002436732	0.03059461	0.2263719	-0.002535796	-5.533127e-05	
-0.00263051	-0.002436732	-0.564822	0.09320185	-0.001287673	-0.0002622141	0.0118605	0.1836574	
0.03059461	0.2263719	-0.001287673	-0.0002622141	-0.6818051	-0.06961594	-0.00530282	0.0007669825	
-0.002535796	-5.533127e-05	0.0118605	0.1836574	-0.00530282	0.0007669825	-0.6659391	-0.05217665	

3.574e+10	-0.5729479	0.06943577	-0.003491116	-0.001992913	0.02937038	0.2193323	-0.002903089	0.0005228713	
-0.003491116	-0.001992913	-0.5584146	0.102589	-0.001746195	-0.0004842627	0.002510074	0.1806626	
0.02937038	0.2193323	-0.001746195	-0.0004842627	-0.6826621	-0.06296815	-0.005683617	0.001542074	
-0.002903089	0.0005228713	0.002510074	0.1806626	-0.005683617	0.001542074	-0.6653557	-0.04594277	

3.576e+10	-0.5729423	0.07919657	-0.00423532	-0.001248129	0.02648768	0.2130195	-0.00302207	0.001265399	
-0.00423532	-0.001248129	-0.550412	0.1107826	-0.002314141	-0.0004552748	-0.007760038	0.1798226	
0.02648768	0.2130195	-0.002314141	-0.0004552748	-0.6833046	-0.05617786	-0.005878207	0.002613459	
-0.00302207	0.001265399	-0.007760038	0.1798226	-0.005878207	0.002613459	-0.6634233	-0.03953081	

3.578e+10	-0.5717167	0.08963069	-0.004760068	-0.0002494646	0.02224739	0.2077623	-0.002869832	0.002043255	
-0.004760068	-0.0002494646	-0.5411036	0.1173862	-0.002876205	-0.0001497288	-0.01847093	0.181402	
0.02224739	0.2077623	-0.002876205	-0.0001497288	-0.6836687	-0.04924586	-0.005757843	0.003904218	
-0.002869832	0.002043255	-0.01847093	0.181402	-0.005757843	0.003904218	-0.6600918	-0.03366982	

3.58e+10	-0.5689496	0.1006284	-0.00498608	0.0009142174	0.01691864	0.2037387	-0.002465841	0.002753054	
-0.00498608	0.0009142174	-0.5308443	0.1221648	-0.003320075	0.0003882569	-0.02910952	0.1855505	
0.01691864	0.2037387	-0.003320075	0.0003882569	-0.68355	-0.04168796	-0.005215302	0.005275726	
-0.002465841	0.002753054	-0.02910952	0.1855505	-0.005215302	0.005275726	-0.6555904	-0.02873834	

3.582e+10	-0.5643729	0.1117488	-0.004878698	0.002134493	0.01073405	0.2011238	-0.001863679	0.003303451	
-0.004878698	0.002134493	-0.5200841	0.1247651	-0.003588736	0.001071213	-0.03913792	0.192369	
0.01073405	0.2011238	-0.003588736	0.001071213	-0.6825924	-0.03362318	-0.00421542	0.006533535	
-0.001863679	0.003303451	-0.03913792	0.192369	-0.00421542	0.006533535	-0.6502204	-0.02497895	

3.584e+10	-0.5577617	0.1224278	-0.004446184	0.003312876	0.003953539	0.2000809	-0.001155083	0.003641284	
-0.004446184	0.003312876	-0.5094109	0.125029	-0.003684049	0.001835996	-0.04786244	0.2018429	
0.003953539	0.2000809	-0.003684049	0.001835996	-0.6804107	-0.02554411	-0.002849634	0.007485966	
-0.001155083	0.003641284	-0.04786244	0.2018429	-0.002849634	0.007485966	-0.6444473	-0.02306768	

3.586e+10	-0.5491181	0.1323385	-0.003716498	0.004365327	-0.003083485	0.2007463	-0.000449897	0.003770151	
-0.003716498	0.004365327	-0.4996543	0.1229118	-0.003608945	0.0026588	-0.05449539	0.2137939	
-0.003083485	0.2007463	-0.003608945	0.0026588	-0.676911	-0.01760732	-0.001282406	0.008040474	
-0.000449897	0.003770151	-0.05449539	0.2137939	-0.001282406	0.008040474	-0.6389548	-0.02275942	

3.588e+10	-0.5387171	0.1408274	-0.002734806	0.005220102	-0.009991194	0.2031945	0.0001792977	0.003756023	
-0.002734806	0.005220102	-0.491518	0.1190924	-0.003341182	0.003515952	-0.05830804	0.2275895	
-0.009991194	0.2031945	-0.003341182	0.003515952	-0.6722725	-0.01020882	0.0003355934	0.00820554	
0.0001792977	0.003756023	-0.05830804	0.2275895	0.0003355934	0.00820554	-0.6344647	-0.02404099	

3.59e+10	-0.5268176	0.1475858	-0.001565374	0.005817681	-0.01642931	0.20732	0.0007220189	0.00368595	
-0.001565374	0.005817681	-0.4853756	0.1142908	-0.002856944	0.004359222	-0.05876665	0.2423569	
-0.01642931	0.20732	-0.002856944	0.004359222	-0.6666802	-0.003607122	0.001914924	0.008029928	
0.0007220189	0.00368595	-0.05876665	0.2423569	0.001914924	0.008029928	-0.6315094	-0.02613685	

3.592e+10	-0.513757	0.1522793	-0.0002900109	0.00612694	-0.0221291	0.213084	0.001223686	0.003615639	
-0.0002900109	0.00612694	-0.4811285	0.1092214	-0.002160416	0.005129399	-0.05588368	0.2571682	
-0.0221291	0.213084	-0.002160416	0.005129399	-0.6602567	0.002074265	0.003398179	0.00755318	
0.001223686	0.003615639	-0.05588368	0.2571682	0.003398179	0.00755318	-0.6302056	-0.02850725	

3.594e+10	-0.499886	0.154645	0.001018412	0.0061464	-0.02677739	0.2204698	0.001745409	0.003551364	
0.001018412	0.0061464	-0.4785107	0.1045072	-0.001271598	0.00578356	-0.04983633	0.2712702	
-0.02677739	0.2204698	-0.001271598	0.00578356	-0.6531154	0.006725656	0.004730859	0.006813663	
0.001745409	0.003551364	-0.04983633	0.2712702	0.004730859	0.006813663	-0.630308	-0.03038613	

3.596e+10	-0.4858289	0.1544874	0.002294593	0.005892924	-0.02986635	0.2293939	0.002329547	0.003460075	
0.002294593	0.005892924	-0.4771993	0.1005617	-0.0002065106	0.00628811	-0.0408537	0.2839966	
-0.02986635	0.2293939	-0.0002065106	0.00628811	-0.6455738	0.009916082	0.005866271	0.005876929	
0.002329547	0.003460075	-0.0408537	0.2839966	0.005866271	0.005876929	-0.6314635	-0.03132563	

3.598e+10	-0.4721461	0.1517713	0.003497494	0.005389992	-0.03085333	0.239521	0.002993779	0.003294276	
0.003497494	0.005389992	-0.4767346	0.09768615	0.001025194	0.006601773	-0.02936372	0.2948113	
-0.03085333	0.239521	0.001025194	0.006601773	-0.6380766	0.01202889	0.006804688	0.004819593	
0.002993779	0.003294276	-0.02936372	0.2948113	0.006804688	0.004819593	-0.6332231	-0.03096978	

3.6e+10	-0.4593918	0.1468757	0.004589289	0.004665857	-0.02936346	0.250223	0.003734267	0.00300436	
0.004589289	0.004665857	-0.4765168	0.09599609	0.00239919	0.006668755	-0.01590664	0.3032131	
-0.02936346	0.250223	0.00239919	0.006668755	-0.6308616	0.01321467	0.007588307	0.003689268	
0.003734267	0.00300436	-0.01590664	0.3032131	0.007588307	0.003689268	-0.6350153	-0.02928013	

3.602e+10	-0.4478274	0.1399973	0.005548849	0.003742887	-0.02533062	0.2608731	0.004535412	0.002539537	
0.005548849	0.003742887	-0.4759081	0.09526859	0.003866695	0.006436788	-0.00106786	0.3090082	
-0.02533062	0.2608731	0.003866695	0.006436788	-0.6238691	0.01372181	0.008265733	0.002477009	
0.004535412	0.002539537	-0.00106786	0.3090082	0.008265733	0.002477009	-0.6362353	-0.02633245	

3.604e+10	-0.4376158	0.1313743	0.006360861	0.002633064	-0.01874586	0.2709323	0.005360806	0.001834787	
0.006360861	0.002633064	-0.4745059	0.0949879	0.005366583	0.005863991	0.01467079	0.3121354	
-0.01874586	0.2709323	0.005366583	0.005863991	-0.616886	0.01378366	0.008849873	0.001136113	
0.005360806	0.001834787	0.01467079	0.3121354	0.008849873	0.001136113	-0.6363243	-0.02244333	

3.606e+10	-0.4290087	0.1212355	0.00700116	0.001331237	-0.009620112	0.2798247	0.006132046	0.0008302731	
0.00700116	0.001331237	-0.4721355	0.09485626	0.006825469	0.004917977	0.03097865	0.3125184	
-0.009620112	0.2798247	0.006825469	0.004917977	-0.6098072	0.01319956	0.009310884	-0.0003815815	
0.006132046	0.0008302731	0.03097865	0.3125184	0.009310884	-0.0003815815	-0.634993	-0.0180697	

3.608e+10	-0.4222017	0.1098966	0.007423925	-0.0001755379	0.001942295	0.2868134	0.006731484	-0.000507667	
0.007423925	-0.0001755379	-0.4688904	0.09420428	0.008160613	0.003564436	0.04754901	0.3099743	
0.001942295	0.2868134	0.008160613	0.003564436	-0.6025349	0.01177966	0.009591435	-0.002117063	
0.006731484	-0.000507667	0.04754901	0.3099743	0.009591435	-0.002117063	-0.6320847	-0.01401288	

3.61e+10	-0.4172955	0.09756846	0.007541647	-0.001890553	0.01545968	0.2910998	0.007015546	-0.002159872	
0.007541647	-0.001890553	-0.4649153	0.09256176	0.009251493	0.001781724	0.06389408	0.3043045	
0.01545968	0.2910998	0.009251493	0.001781724	-0.5950216	0.009658978	0.009604142	-0.004095721	
0.007015546	-0.002159872	0.06389408	0.3043045	0.009604142	-0.004095721	-0.62771	-0.01062795	

3.612e+10	-0.4143808	0.08430672	0.007232108	-0.003774428	0.0301595	0.2920469	0.006834606	-0.004055189	
0.007232108	-0.003774428	-0.4604911	0.08951041	0.009934731	-0.0004269326	0.0793865	0.2952847	
0.0301595	0.2920469	0.009934731	-0.0004269326	-0.5870756	0.006353018	0.009212032	-0.006329597	
0.006834606	-0.004055189	0.0793865	0.2952847	0.009212032	-0.006329597	-0.6220809	-0.008577857	

3.614e+10	-0.4137413	0.07005338	0.006357252	-0.005710448	0.0450832	0.2893489	0.006040207	-0.006053716	
0.006357252	-0.005710448	-0.4562254	0.08447401	0.009999866	-0.002978429	0.09320491	0.2829018	
0.0450832	0.2893489	0.009999866	-0.002978429	-0.5787285	0.001313096	0.008213218	-0.00876671	
0.006040207	-0.006053716	0.09320491	0.2829018	0.008213218	-0.00876671	-0.6156615	-0.008489341	

3.616e+10	-0.4158243	0.05533509	0.004816582	-0.007482473	0.05924459	0.2828725	0.004514624	-0.007925903	
0.004816582	-0.007482473	-0.4530625	0.07736202	0.009240284	-0.005665781	0.1044621	0.2673246	
0.05924459	0.2828725	0.009240284	-0.005665781	-0.5705155	-0.006273398	0.006382878	-0.01120446	
0.004514624	-0.007925903	0.1044621	0.2673246	0.006382878	-0.01120446	-0.6092053	-0.01074008	

3.618e+10	-0.4212388	0.04048649	0.002610522	-0.008786499	0.07152864	0.2727673	0.002239259	-0.009332925	
0.002610522	-0.008786499	-0.4521167	0.06845694	0.007541354	-0.008139361	0.1121709	0.2490335	
0.07152864	0.2727673	0.007541354	-0.008139361	-0.5634377	-0.01652559	0.003582429	-0.01326787	
0.002239259	-0.009332925	0.1121709	0.2490335	0.003582429	-0.01326787	-0.6037093	-0.01517606	

3.62e+10	-0.4302821	0.02654332	-7.557643e-05	-0.009292093	0.08070263	0.259553	-0.0006006144	-0.009890781	
-7.557643e-05	-0.009292093	-0.4542361	0.05875313	0.0049781	-0.009963612	0.1153578	0.2289053	
0.08070263	0.259553	0.0049781	-0.009963612	-0.5587326	-0.02967309	-0.0001032346	-0.01446163	
-0.0006006144	-0.009890781	0.1153578	0.2289053	-0.0001032346	-0.01446163	-0.6001719	-0.02158775	

3.622e+10	-0.4429115	0.01453811	-0.002857225	-0.008777993	0.08567862	0.2443862	-0.003572904	-0.009327191	
-0.002857225	-0.008777993	-0.4598157	0.04938365	0.001884285	-0.01075214	0.1133482	0.2083537	
0.08567862	0.2443862	0.001884285	-0.01075214	-0.5575981	-0.04486328	-0.004280332	-0.0143398	
-0.003572904	-0.009327191	0.1133482	0.2083537	-0.004280332	-0.0143398	-0.5993238	-0.02910213	

3.624e+10	-0.4586148	0.005683371	-0.005247484	-0.007267792	0.08595785	0.2288812	-0.006119678	-0.007655021	
-0.005247484	-0.007267792	-0.4685603	0.04190032	-0.001209542	-0.01034151	0.1060539	0.1890321	
0.08595785	0.2288812	-0.001209542	-0.01034151	-0.5608417	-0.06072883	-0.008329671	-0.01270486	
-0.006119678	-0.007655021	0.1060539	0.1890321	-0.008329671	-0.01270486	-0.6013382	-0.03625272	

3.626e+10	-0.476369	0.0009977063	-0.00683375	-0.005067792	0.08187179	0.2148172	-0.007762526	-0.005218168	
-0.00683375	-0.005067792	-0.4796397	0.03732734	-0.003747093	-0.008892252	0.09417269	0.1726461	
0.08187179	0.2148172	-0.003747093	-0.008892252	-0.5687924	-0.0760952	-0.01158489	-0.009720877	
-0.007762526	-0.005218168	0.09417269	0.1726461	-0.01158489	-0.009720877	-0.6057881	-0.04225459	

3.628e+10	-0.4948195	0.0006908988	-0.007460138	-0.002638843	0.07446086	0.2034629	-0.008314626	-0.002543623	
-0.007460138	-0.002638843	-0.4917468	0.03637051	-0.005366651	-0.006839425	0.0789971	0.1603243	
0.07446086	0.2034629	-0.005366651	-0.006839425	-0.5811257	-0.08892472	-0.01355972	-0.005870624	
-0.008314626	-0.002543623	0.0789971	0.1603243	-0.01355972	-0.005870624	-0.6118509	-0.04589791	

3.63e+10	-0.5125455	0.005009699	-0.007237808	-0.0004008549	0.06509143	0.195467	-0.007888593	-0.000132187	
-0.007237808	-0.0004008549	-0.5035044	0.03909617	-0.006014257	-0.004710697	0.06202896	0.1525297	
0.06509143	0.195467	-0.006014257	-0.004710697	-0.5968386	-0.09805697	-0.014092	-0.001780233	
-0.007888593	-0.000132187	0.06202896	0.1525297	-0.014092	-0.001780233	-0.6184984	-0.04737369	

3.632e+10	-0.5282877	0.01309559	-0.006434381	0.001394689	0.05508911	0.1908482	-0.006799842	0.00169287	
-0.006434381	0.001394689	-0.5136437	0.04475734	-0.005918884	-0.002913735	0.04464832	0.149161	
0.05508911	0.1908482	-0.005918884	-0.002913735	-0.6142353	-0.1025673	-0.01334167	0.001967747	
-0.006799842	0.00169287	0.04464832	0.149161	-0.01334167	0.001967747	-0.6247074	-0.04642378	

3.634e+10	-0.5413276	0.02401353	-0.00532318	0.002690098	0.0454809	0.1891797	-0.005410766	0.002827478	
-0.00532318	0.002690098	-0.5215028	0.05251257	-0.005419264	-0.001625857	0.02783653	0.1497548	
0.0454809	0.1891797	-0.005419264	-0.001625857	-0.6317333	-0.1026579	-0.01166072	0.005029139	
-0.005410766	0.002827478	0.02783653	0.1497548	-0.01166072	0.005029139	-0.6296624	-0.04403029	

3.636e+10	-0.5514314	0.03652937	-0.004104585	0.003534241	0.03692745	0.1897807	-0.004029896	0.003335005	
-0.004104585	0.003534241	-0.5269239	0.06106038	-0.004819141	-0.000821154	0.01231861	0.1537774	
0.03692745	0.1897807	-0.004819141	-0.000821154	-0.6481875	-0.09883932	-0.009432992	0.007277504	
-0.004029896	0.003335005	0.01231861	0.1537774	-0.009432992	0.007277504	-0.633052	-0.04071574	

3.638e+10	-0.5587118	0.05006029	-0.002889115	0.00401619	0.02979092	0.1919722	-0.002861158	0.003370183	
-0.002889115	0.00401619	-0.5301652	0.06979758	-0.004310566	-0.0003756095	-0.001337348	0.1606344	
0.02979092	0.1919722	-0.004310566	-0.0003756095	-0.6628824	-0.09210046	-0.006962016	0.008733665	
-0.002861158	0.003370183	-0.001337348	0.1606344	-0.006962016	0.008733665	-0.6349869	-0.03761396	

3.64e+10	-0.56338	0.06379066	-0.001730376	0.004210718	0.02411562	0.1950549	-0.002004253	0.003117156	
-0.001730376	0.004210718	-0.5316303	0.07812513	-0.003983248	-0.0001397941	-0.01280647	0.1696473	
0.02411562	0.1950549	-0.003983248	-0.0001397941	-0.6755621	-0.08306828	-0.004448498	0.009487903	
-0.002004253	0.003117156	-0.01280647	0.1696473	-0.004448498	0.009487903	-0.6358778	-0.03499447	

3.642e+10	-0.5658134	0.07730559	-0.0006453353	0.004171984	0.01968956	0.198526	-0.001473805	0.002746332	
-0.0006453353	0.004171984	-0.5317809	0.08574877	-0.003858486	2.963163e-05	-0.02197804	0.180245	
0.01968956	0.198526	-0.003858486	2.963163e-05	-0.6859987	-0.07222242	-0.002030936	0.009629153	
-0.001473805	0.002746332	-0.02197804	0.180245	-0.002030936	0.009629153	-0.6362127	-0.03323115	

3.644e+10	-0.5662186	0.09059218	0.0003568133	0.003924513	0.01622426	0.2020898	-0.001233992	0.00239184	
0.0003568133	0.003924513	-0.5309704	0.09257368	-0.003900641	0.0002508759	-0.02887742	0.1919398	
0.01622426	0.2020898	-0.003900641	0.0002508759	-0.694121	-0.06023945	0.0001944613	0.009244955	
-0.001233992	0.00239184	-0.02887742	0.1919398	0.0001944613	0.009244955	-0.6364126	-0.032462	

3.646e+10	-0.5650208	0.1029873	0.001254837	0.003474975	0.01347175	0.2056492	-0.001221139	0.002154845	
0.001254837	0.003474975	-0.5296943	0.09836429	-0.004035257	0.0006059536	-0.0334769	0.2043865	
0.01347175	0.2056492	-0.004035257	0.0006059536	-0.6999354	-0.04771681	0.002138404	0.008417524	
-0.001221139	0.002154845	-0.0334769	0.2043865	0.002138404	0.008417524	-0.6369063	-0.03259863	

3.648e+10	-0.5624653	0.1148439	0.002007899	0.00282957	0.01128719	0.2091557	-0.001346918	0.002110172	
0.002007899	0.00282957	-0.5282495	0.1036384	-0.004161818	0.001132301	-0.03573795	0.21724	
0.01128719	0.2091557	-0.004161818	0.001132301	-0.7037185	-0.03503318	0.003738926	0.007239386	
-0.001346918	0.002110172	-0.03573795	0.21724	0.003738926	0.007239386	-0.6381883	-0.03355772	

3.65e+10	-0.5588227	0.1260386	0.002557596	0.002015812	0.0095624	0.212545	-0.001506052	0.002297111	
0.002557596	0.002015812	-0.5269534	0.1082639	-0.004188204	0.001809795	-0.03565716	0.2300126	
0.0095624	0.212545	-0.004188204	0.001809795	-0.7056977	-0.02230073	0.004942537	0.005808694	
-0.001506052	0.002297111	-0.03565716	0.2300126	0.004942537	0.005808694	-0.640609	-0.03491842	

3.652e+10	-0.5542477	0.1365466	0.002851135	0.001088914	0.008080828	0.2157487	-0.001575427	0.002711207	
0.002851135	0.001088914	-0.5258323	0.1127287	-0.00404345	0.002590869	-0.03343001	0.2423149	
0.008080828	0.2157487	-0.00404345	0.002590869	-0.7059529	-0.009734367	0.005723595	0.00422705	
-0.001575427	0.002711207	-0.03343001	0.2423149	0.005723595	0.00422705	-0.6443411	-0.03624989	

3.654e+10	-0.5485585	0.146678	0.002853897	0.0001287562	0.006598857	0.2188605	-0.001439844	0.003292539	
0.002853897	0.0001287562	-0.5248197	0.1172149	-0.003682378	0.003408726	-0.02927128	0.2538379	
0.006598857	0.2188605	-0.003682378	0.003408726	-0.7045057	0.002459199	0.006069401	0.002597588	
-0.001439844	0.003292539	-0.02927128	0.2538379	0.006069401	0.002597588	-0.6494174	-0.0369903	

3.656e+10	-0.5417306	0.1560553	0.002562169	-0.0007676641	0.004973647	0.2220743	-0.001025206	0.003927395	
0.002562169	-0.0007676641	-0.5238858	0.1217193	-0.003089251	0.004182512	-0.02341172	0.2643553	
0.004973647	0.2220743	-0.003089251	0.004182512	-0.7013687	0.01407926	0.005986539	0.001039393	
-0.001025206	0.003927395	-0.02341172	0.2643553	0.005986539	0.001039393	-0.6556796	-0.03677298	

3.658e+10	-0.5337147	0.164702	0.002011247	-0.001504167	0.003202185	0.2256573	-0.0003184585	0.004474482	
0.002011247	-0.001504167	-0.5229707	0.1266165	-0.002274155	0.004828449	-0.01605413	0.2736094	
0.003202185	0.2256573	-0.002274155	0.004828449	-0.6967581	0.02481836	0.005528483	-0.0003279295	
-0.0003184585	0.004474482	-0.01605413	0.2736094	0.005528483	-0.0003279295	-0.6629419	-0.03509139	

3.66e+10	-0.5245382	0.1723579	0.001273384	-0.002005603	0.001379876	0.2298259	0.0006190998	0.004809517	
0.001273384	-0.002005603	-0.5219239	0.1319701	-0.001283619	0.005269615	-0.007476862	0.2814007	
0.001379876	0.2298259	-0.001283619	0.005269615	-0.6909044	0.03439526	0.004790555	-0.001412663	
0.0006190998	0.004809517	-0.007476862	0.2814007	0.004790555	-0.001412663	-0.6707945	-0.03163387	

3.662e+10	-0.5143189	0.1787023	0.0004425065	-0.002230734	-0.0003604578	0.2346897	0.001680016	0.004859276	
0.0004425065	-0.002230734	-0.5205043	0.1378148	-0.0001971441	0.00545704	0.001922146	0.2875436	
-0.0003604578	0.2346897	-0.0001971441	0.00545704	-0.6840151	0.04291473	0.003897076	-0.00216855	
0.001680016	0.004859276	0.001922146	0.2875436	0.003897076	-0.00216855	-0.678584	-0.02594996	

3.664e+10	-0.5031205	0.1836183	-0.0003867401	-0.002179961	-0.001901376	0.2404825	0.002752934	0.004611133	
-0.0003867401	-0.002179961	-0.5184098	0.1441576	0.0009032949	0.00538172	0.01172703	0.2921047	
-0.001901376	0.2404825	0.0009032949	0.00538172	-0.676193	0.05001249	0.002962499	-0.002607386	
0.002752934	0.004611133	0.01172703	0.2921047	0.002962499	-0.002607386	-0.6856255	-0.01831298	

3.666e+10	-0.4913302	0.1865407	-0.001134705	-0.001879538	-0.002936252	0.2473926	0.003746154	0.004090502	
-0.001134705	-0.001879538	-0.5154275	0.1508192	0.001948106	0.005059938	0.02165348	0.2952169	
-0.002936252	0.2473926	0.001948106	0.005059938	-0.6677094	0.05571706	0.002073619	-0.002768035	
0.003746154	0.004090502	0.02165348	0.2952169	0.002073619	-0.002768035	-0.6913939	-0.008809459	

3.668e+10	-0.4794106	0.187493	-0.001737067	-0.001375795	-0.002952579	0.2555329	0.00459055	0.003345033	
-0.001737067	-0.001375795	-0.5114304	0.1577275	0.00288185	0.004522554	0.03155974	0.2970783	
-0.002952579	0.2555329	0.00288185	0.004522554	-0.6589582	0.05962203	0.001293117	-0.002703786	
0.00459055	0.003345033	0.03155974	0.2970783	0.001293117	-0.002703786	-0.6955473	0.001942339	

3.67e+10	-0.4679297	0.1864011	-0.002150834	-0.0007255075	-0.001404439	0.2646963	0.00524304	0.002437632	
-0.002150834	-0.0007255075	-0.506352	0.1645237	0.003660254	0.003809683	0.04135664	0.2978122	
-0.001404439	0.2646963	0.003660254	0.003809683	-0.650477	0.06194639	0.0006649	-0.002477117	
0.00524304	0.002437632	0.04135664	0.2978122	0.0006649	-0.002477117	-0.6979366	0.01364479	

3.672e+10	-0.4572048	0.1837025	-0.002350781	9.436691e-06	0.0021749	0.2744714	0.005689823	0.001429713	
-0.002350781	9.436691e-06	-0.4999762	0.1712776	0.004254624	0.002967184	0.05103507	0.2975044	
0.0021749	0.2744714	0.004254624	0.002967184	-0.6425476	0.06311557	0.0002073021	-0.002156861	
0.005689823	0.001429713	0.05103507	0.2975044	0.0002073021	-0.002156861	-0.6984616	0.02585556	

3.674e+10	-0.4474875	0.1796167	-0.00233374	0.0007668434	0.007962161	0.2843385	0.005941191	0.0003763595	
-0.00233374	0.0007668434	-0.492223	0.1775024	0.004649415	0.002049764	0.06048772	0.2962479	
0.007962161	0.2843385	0.004649415	0.002049764	-0.6352932	0.06341069	-8.672457e-05	-0.00180682	
0.005941191	0.0003763595	0.06048772	0.2962479	-8.672457e-05	-0.00180682	-0.6970418	0.03860459	

3.676e+10	-0.4388598	0.1745548	-0.002105687	0.001494775	0.01615371	0.2938063	0.006016204	-0.0006992165	
-0.002105687	0.001494775	-0.482928	0.1830614	0.004847442	0.001099622	0.06975891	0.2940692	
0.01615371	0.2938063	0.004847442	0.001099622	-0.6286531	0.06308038	-0.000243107	-0.001473277	
0.006016204	-0.0006992165	0.06975891	0.2940692	-0.000243107	-0.001473277	-0.6935945	0.05117781	

3.678e+10	-0.4314977	0.168581	-0.001682529	0.00214658	0.02680616	0.3022637	0.005926093	-0.001784003	
-0.001682529	0.00214658	-0.4722051	0.1873407	0.004857459	0.0001571496	0.07885228	0.2910476	
0.02680616	0.3022637	0.004857459	0.0001571496	-0.6226144	0.06236468	-0.0002898668	-0.001182799	
0.005926093	-0.001784003	0.07885228	0.2910476	-0.0002898668	-0.001182799	-0.6881189	0.06347148	

3.68e+10	-0.4252035	0.1622844	-0.001079433	0.00267707	0.03989823	0.3090149	0.005665294	-0.002875784	
-0.001079433	0.00267707	-0.4600456	0.1900869	0.004686796	-0.0007504682	0.08785809	0.2870662	
0.03989823	0.3090149	0.004686796	-0.0007504682	-0.6169743	0.06158222	-0.0002496401	-0.0009536054	
0.005665294	-0.002875784	0.08785809	0.2870662	-0.0002496401	-0.0009536054	-0.6805686	0.07537594	

3.682e+10	-0.4197759	0.1556964	-0.0003263127	0.003038327	0.05501129	0.3133275	0.005220757	-0.003958176	
-0.0003263127	0.003038327	-0.4466632	0.1907023	0.004345591	-0.001586392	0.09671885	0.2819947	
0.05501129	0.3133275	0.004345591	-0.001586392	-0.6114133	0.06081161	-0.0001436467	-0.0008056136	
0.005220757	-0.003958176	0.09671885	0.2819947	-0.0001436467	-0.0008056136	-0.6709517	0.08630799	

3.684e+10	-0.4148753	0.148792	0.0005355958	0.003183865	0.07166395	0.314642	0.004572126	-0.005011682	
0.0005355958	0.003183865	-0.4322538	0.1887572	0.003850188	-0.002315256	0.105366	0.2756376	
0.07166395	0.314642	0.003850188	-0.002315256	-0.6054548	0.05979214	-5.446532e-07	-0.0007611298	
0.004572126	-0.005011682	0.105366	0.2756376	-5.446532e-07	-0.0007611298	-0.6591468	0.09592414	

3.686e+10	-0.4104233	0.1411598	0.001443109	0.003077771	0.08917038	0.3125174	0.00370128	-0.006003189	
0.001443109	0.003077771	-0.4174644	0.183341	0.003235745	-0.002898175	0.1135609	0.2678185	
0.08917038	0.3125174	0.003235745	-0.002898175	-0.5988298	0.05808271	0.0001347581	-0.0008360897	
0.00370128	-0.006003189	0.1135609	0.2678185	0.0001347581	-0.0008360897	-0.6451154	0.1039082	

3.688e+10	-0.4066229	0.1325122	0.002322933	0.002702185	0.1068769	0.3065639	0.002584517	-0.006888406	
0.002322933	0.002702185	-0.403114	0.1741925	0.002550839	-0.003314845	0.1210501	0.2583908	
0.1068769	0.3065639	0.002550839	-0.003314845	-0.5916009	0.0551936	0.000204354	-0.001024926	
0.002584517	-0.006888406	0.1210501	0.2583908	0.000204354	-0.001024926	-0.6290398	0.1094457	

3.69e+10	-0.403933	0.1225702	0.003090218	0.002064505	0.1238934	0.2964092	0.001200923	-0.007597775	
0.003090218	0.002064505	-0.3907327	0.1608091	0.001848893	-0.0035652	0.1274723	0.2471423	
0.1238934	0.2964092	0.001848893	-0.0035652	-0.5841895	0.05028814	0.0001506356	-0.001295371	
0.001200923	-0.007597775	0.1274723	0.2471423	0.0001506356	-0.001295371	-0.6111909	0.1118438	

3.692e+10	-0.4029915	0.1112294	0.003661657	0.001190734	0.1389199	0.2818876	-0.000448379	-0.008027387	
0.003661657	0.001190734	-0.3817622	0.1437232	0.001182076	-0.003671606	0.1321918	0.2339912	
0.1389199	0.2818876	0.001182076	-0.003671606	-0.577368	0.04290585	-6.905078e-05	-0.001584696	
-0.000448379	-0.008027387	0.1321918	0.2339912	-6.905078e-05	-0.001584696	-0.5923245	0.1102086	

3.694e+10	-0.4046643	0.09879619	0.003953027	0.0001481013	0.1504795	0.2633378	-0.002308077	-0.008049221	
0.003953027	0.0001481013	-0.3777981	0.1238485	0.0005835733	-0.003682041	0.1344184	0.2190332	
0.1504795	0.2633378	0.0005835733	-0.003682041	-0.5722495	0.0329957	-0.0004718751	-0.001808968	
-0.002308077	-0.008049221	0.1344184	0.2190332	-0.0004718751	-0.001808968	-0.5733658	0.1039915	

3.696e+10	-0.4098702	0.08592502	0.003902166	-0.0009690862	0.1570992	0.2418561	-0.004253133	-0.007545015	
0.003902166	-0.0009690862	-0.379981	0.1030249	5.250452e-05	-0.003663924	0.1332243	0.20283	
0.1570992	0.2418561	5.250452e-05	-0.003663924	-0.5701395	0.02110535	-0.001030636	-0.001869306	
-0.004253133	-0.007545015	0.1332243	0.20283	-0.001030636	-0.001869306	-0.5557522	0.09300102	

3.698e+10	-0.4190301	0.07426342	0.003486124	-0.002025227	0.1578292	0.2192386	-0.006082973	-0.006457352	
0.003486124	-0.002025227	-0.3884446	0.08384277	-0.0004715103	-0.003669027	0.1279374	0.1864707	
0.1578292	0.2192386	-0.0004715103	-0.003669027	-0.5721414	0.008188875	-0.001661182	-0.001676327	
-0.006082973	-0.006457352	0.1279374	0.1864707	-0.001661182	-0.001676327	-0.5412919	0.07713363	

3.7e+10	-0.4319298	0.06524614	0.00273742	-0.002883731	0.1526077	0.1974869	-0.007574158	-0.004821555	
0.00273742	-0.002883731	-0.4023254	0.06840945	-0.001093163	-0.003676314	0.118284	0.1712513	
0.1526077	0.1974869	-0.001093163	-0.003676314	-0.5785786	-0.003635364	-0.002226545	-0.001189364	
-0.007574158	-0.004821555	0.118284	0.1712513	-0.002226545	-0.001189364	-0.5315826	0.05765448	

3.702e+10	-0.4472406	0.06046931	0.001760445	-0.0034146	0.1422853	0.1784995	-0.008523876	-0.002781093	
0.001760445	-0.0034146	-0.419549	0.0585158	-0.001868612	-0.003563714	0.1046021	0.1587098	
0.1422853	0.1784995	-0.001868612	-0.003563714	-0.5886965	-0.01253702	-0.002569572	-0.0004581732	
-0.008523876	-0.002781093	0.1046021	0.1587098	-0.002569572	-0.0004581732	-0.5278132	0.03644547	

3.704e+10	-0.4632276	0.06040942	0.0007226511	-0.003551626	0.1283413	0.1634681	-0.008811196	-0.0005697945	
0.0007226511	-0.003551626	-0.437718	0.05459824	-0.002728961	-0.003181685	0.08785693	0.1501325	
0.1283413	0.1634681	-0.002728961	-0.003181685	-0.6008177	-0.01741204	-0.002584839	0.0003798521	
-0.008811196	-0.0005697945	0.08785693	0.1501325	-0.002584839	0.0003798521	-0.5300738	0.01582482	

3.706e+10	-0.4782259	0.06482867	-0.0001957707	-0.00332955	0.1122718	0.1526607	-0.00843641	0.001555982	
-0.0001957707	-0.00332955	-0.4547449	0.05583566	-0.003506877	-0.002462846	0.06941579	0.1463079	
0.1122718	0.1526607	-0.003506877	-0.002462846	-0.6131463	-0.01798354	-0.002260931	0.001159468	
-0.00843641	0.001555982	0.06941579	0.1463079	-0.002260931	0.001159468	-0.5373353	-0.002250798	

3.708e+10	-0.4909449	0.07284669	-0.0008626284	-0.002878941	0.09533843	0.1459146	-0.007515315	0.003374364	
-0.0008626284	-0.002878941	-0.4690689	0.06108792	-0.004021675	-0.001474909	0.05084835	0.1474486	
0.09533843	0.1459146	-0.004021675	-0.001474909	-0.6242662	-0.01514772	-0.00166461	0.001738875	
-0.007515315	0.003374364	0.05084835	0.1474486	-0.00166461	0.001738875	-0.5479714	-0.01683777	

3.71e+10	-0.5007068	0.08343028	-0.001247976	-0.002370004	0.07839278	0.1428084	-0.006238069	0.004753856	
-0.001247976	-0.002370004	-0.4802246	0.06860264	-0.004179457	-0.0003744772	0.03361921	0.1532149	
0.07839278	0.1428084	-0.004179457	-0.0003744772	-0.633357	-0.009617862	-0.0009110231	0.002025227	
-0.006238069	0.004753856	0.03361921	0.1532149	-0.0009110231	0.002025227	-0.5603409	-0.02779738	

3.712e+10	-0.5071834	0.09546663	-0.001426742	-0.001932359	0.06185346	0.1428323	-0.004794649	0.005679731	
-0.001426742	-0.001932359	-0.4883409	0.07690881	-0.003992205	0.000688856	0.0188018	0.1627979	
0.06185346	0.1428323	-0.003992205	0.000688856	-0.6400248	-0.002569238	-0.0001389754	0.001986444	
-0.004794649	0.005679731	0.0188018	0.1627979	-0.0001389754	0.001986444	-0.5733639	-0.03547024	

3.714e+10	-0.5102767	0.1079973	-0.001509613	-0.001618295	0.04604674	0.1456338	-0.003326517	0.006201328	
-0.001509613	-0.001618295	-0.4939456	0.08531921	-0.003523636	0.001606556	0.007142301	0.1752345	
0.04604674	0.1456338	-0.003523636	0.001606556	-0.6439774	0.005395099	0.0005083968	0.001652775	
-0.003326517	0.006201328	0.007142301	0.1752345	0.0005083968	0.001652775	-0.5863567	-0.04059072	

3.716e+10	-0.5102192	0.1199527	-0.001593386	-0.001404759	0.03112299	0.1510571	-0.001915436	0.006388532	
-0.001593386	-0.001404759	-0.4978465	0.09289966	-0.002853261	0.002316303	-0.001018781	0.1895173	
0.03112299	0.1510571	-0.002853261	0.002316303	-0.6451931	0.01328956	0.000920921	0.001118837	
-0.001915436	0.006388532	-0.001018781	0.1895173	0.000920921	0.001118837	-0.599132	-0.04378725	

3.718e+10	-0.5075114	0.1304956	-0.001723874	-0.001231898	0.01738816	0.1590524	-0.0006066511	0.006301466	
-0.001723874	-0.001231898	-0.5007421	0.09969466	-0.002061671	0.002790261	-0.005542188	0.204685	
0.01738816	0.1590524	-0.002061671	0.002790261	-0.6440091	0.02001378	0.001051606	0.0005169528	
-0.0006066511	0.006301466	-0.005542188	0.204685	0.001051606	0.0005169528	-0.6117112	-0.04535064	

3.72e+10	-0.5029003	0.1390886	-0.001902935	-0.001037945	0.005197697	0.1695403	0.0005748975	0.005988066	
-0.001902935	-0.001037945	-0.5032559	0.1059609	-0.001219631	0.00302477	-0.006567598	0.2198619	
0.005197697	0.1695403	-0.001219631	0.00302477	-0.6411684	0.02485535	0.0009232837	-2.565257e-05	
0.0005748975	0.005988066	-0.006567598	0.2198619	0.0009232837	-2.565257e-05	-0.6243407	-0.04541052	

3.722e+10	-0.4972717	0.1453182	-0.002105057	-0.0007845369	-0.004902239	0.1823441	0.001604617	0.005491986	
-0.002105057	-0.0007845369	-0.5057995	0.1118552	-0.0003903849	0.00302814	-0.004407072	0.2342085	
-0.004902239	0.1823441	-0.0003903849	0.00302814	-0.6376318	0.02739362	0.000604728	-0.0004198744	
0.001604617	0.005491986	-0.004407072	0.2342085	0.000604728	-0.0004198744	-0.6370731	-0.04398985	

3.724e+10	-0.4914482	0.1493134	-0.002292612	-0.0004522864	-0.01240268	0.1970801	0.002467641	0.004853065	
-0.002292612	-0.0004522864	-0.5083323	0.1179186	0.0003694064	0.002821521	0.0003622527	0.2470897	
-0.01240268	0.1970801	0.0003694064	0.002821521	-0.6343705	0.02758628	0.0001837552	-0.0006207848	
0.002467641	0.004853065	0.0003622527	0.2470897	0.0001837552	-0.0006207848	-0.6496926	-0.04076135	

3.726e+10	-0.4862361	0.1512595	-0.002424394	-3.850867e-05	-0.01684646	0.2132456	0.003153246	0.004106273	
-0.002424394	-3.850867e-05	-0.5107457	0.1244119	0.001008111	0.002433556	0.007103454	0.2581823	
-0.01684646	0.2132456	0.001008111	0.002433556	-0.6322723	0.02583681	-0.000254135	-0.0006193373	
0.003153246	0.004106273	0.007103454	0.2581823	-0.000254135	-0.0006193373	-0.6618763	-0.03573008	

3.728e+10	-0.4822958	0.1516972	-0.002457911	0.0004378206	-0.01785119	0.2301588	0.003649811	0.003287343	
-0.002457911	0.0004378206	-0.512872	0.1314923	0.001480386	0.001912359	0.0152249	0.2673769	
-0.01785119	0.2301588	0.001480386	0.001912359	-0.6321012	0.02273623	-0.0006294174	-0.0004385979	
0.003649811	0.003287343	0.0152249	0.2673769	-0.0006294174	-0.0004385979	-0.6733289	-0.02892722	

3.73e+10	-0.4800534	0.1513603	-0.002366285	0.0009330586	-0.01527271	0.246878	0.003949205	0.002444605	
-0.002366285	0.0009330586	-0.5145724	0.1391314	0.001758579	0.001324222	0.02424718	0.2746618	
-0.01527271	0.246878	0.001758579	0.001324222	-0.6342708	0.01915712	-0.0008830626	-0.0001319746	
0.003949205	0.002444605	0.02424718	0.2746618	-0.0008830626	-0.0001319746	-0.6837982	-0.02065301	

3.732e+10	-0.4795076	0.1510962	-0.002150702	0.00139775	-0.009322471	0.2624945	0.004064652	0.001628379	
-0.002150702	0.00139775	-0.5156792	0.1472844	0.001848569	0.0007387012	0.03379145	0.2801393	
-0.009322471	0.2624945	0.001848569	0.0007387012	-0.6388125	0.01628162	-0.0009892519	0.0002342139	
0.004064652	0.001628379	0.03379145	0.2801393	-0.0009892519	0.0002342139	-0.6931726	-0.01101024	

3.734e+10	-0.480258	0.1516091	-0.001834579	0.001795926	-0.000588134	0.2762094	0.004028109	0.0008804058	
-0.001834579	0.001795926	-0.5159327	0.1560641	0.001782774	0.0002099988	0.04350762	0.2839259	
-0.000588134	0.2762094	0.001782774	0.0002099988	-0.6452187	0.0148674	-0.0009567608	0.0005969222	
0.004028109	0.0008804058	0.04350762	0.2839259	-0.0009567608	0.0005969222	-0.70124	-8.587713e-17	

3.736e+10	-0.4818091	0.1533018	-0.001448017	0.002110033	0.01019538	0.2876394	0.003879646	0.0002203702	
-0.001448017	0.002110033	-0.5151975	0.1653126	0.001602307	-0.0002332857	0.05311322	0.286183	
0.01019538	0.2876394	0.001602307	-0.0002332857	-0.6527488	0.01538288	-0.000813548	0.0009166433	
0.003879646	0.0002203702	0.05311322	0.286183	-0.000813548	0.0009166433	-0.7078706	0.0118616	

3.738e+10	-0.4836314	0.1563951	-0.001015056	0.002334468	0.02234759	0.2966595	0.003653019	-0.0003473962	
-0.001015056	0.002334468	-0.5133258	0.1749503	0.001344587	-0.0005796271	0.06245289	0.2871571	
0.02234759	0.2966595	0.001344587	-0.0005796271	-0.6607219	0.01810941	-0.000589257	0.001172117	
0.003653019	-0.0003473962	0.06245289	0.2871571	-0.000589257	0.001172117	-0.7129983	0.02452468	

3.74e+10	-0.4853658	0.1606134	-0.0005583424	0.002467519	0.03531493	0.3032708	0.003376087	-0.0008253113	
-0.0005583424	0.002467519	-0.5103682	0.1845492	0.001041611	-0.0008260448	0.07144304	0.2870118	
0.03531493	0.3032708	0.001041611	-0.0008260448	-0.6685286	0.02287826	-0.0003104552	0.001353348	
0.003376087	-0.0008253113	0.07144304	0.2870118	-0.0003104552	0.001353348	-0.7166034	0.03780643	

3.742e+10	-0.4865182	0.1660982	-9.775405e-05	0.002512599	0.04860564	0.3076136	0.003070334	-0.001219352	
-9.775405e-05	0.002512599	-0.50615	0.1942928	0.0007219185	-0.0009764007	0.08004381	0.2858755	
0.04860564	0.3076136	0.0007219185	-0.0009764007	-0.6756963	0.02950154	-2.289907e-07	0.0014578	
0.003070334	-0.001219352	0.08004381	0.2858755	-2.289907e-07	0.0014578	-0.7187259	0.05151891	

3.744e+10	-0.4867746	0.1726628	0.0003517209	0.002479074	0.06185949	0.3098861	0.00275521	-0.001541665	
0.0003517209	0.002479074	-0.5006496	0.2039037	0.0004088262	-0.001043255	0.08819457	0.283823	
0.06185949	0.3098861	0.0004088262	-0.001043255	-0.6817985	0.03787972	0.0003207682	0.001487508	
0.00275521	-0.001541665	0.08819457	0.283823	0.0003207682	0.001487508	-0.7193273	0.06546391	

3.746e+10	-0.4858762	0.1799239	0.0007812766	0.002378365	0.07480372	0.3103626	0.002442324	-0.001806961	
0.0007812766	0.002378365	-0.4937169	0.2133435	0.0001160172	-0.001042363	0.09583299	0.2809449	
0.07480372	0.3103626	0.0001160172	-0.001042363	-0.686547	0.04752642	0.0006374537	0.001450509	
0.002442324	-0.001806961	0.09583299	0.2809449	0.0006374537	0.001450509	-0.7183536	0.07968771	

3.748e+10	-0.4836896	0.1876108	0.001189372	0.002218262	0.08729756	0.3092652	0.002135012	-0.002030517	
0.001189372	0.002218262	-0.4852454	0.2223676	-0.0001510593	-0.0009869466	0.1029127	0.2773311	
0.08729756	0.3092652	-0.0001510593	-0.0009869466	-0.6897521	0.05816258	0.0009419334	0.001354962	
0.002135012	-0.002030517	0.1029127	0.2773311	0.0009419334	0.001354962	-0.7157207	0.09409933	

3.75e+10	-0.4800645	0.1956176	0.001576486	0.002000984	0.09929764	0.3067905	0.001831225	-0.002223746	
0.001576486	0.002000984	-0.4752317	0.2306576	-0.0003905684	-0.0008851187	0.1094121	0.2730659	
0.09929764	0.3067905	-0.0003905684	-0.0008851187	-0.6913561	0.06949401	0.001229998	0.001205723	
0.001831225	-0.002223746	0.1094121	0.2730659	0.001229998	0.001205723	-0.7114158	0.1083537	

3.752e+10	-0.4749908	0.2035813	0.001939414	0.001722195	0.1107988	0.3030504	0.001527064	-0.002392493	
0.001939414	0.001722195	-0.4635253	0.2381174	-0.0005983155	-0.0007407066	0.1153164	0.2681997	
0.1107988	0.3030504	-0.0005983155	-0.0007407066	-0.6913021	0.08133166	0.001497573	0.001004393	
0.001527064	-0.002392493	0.1153164	0.2681997	0.001497573	0.001004393	-0.7053666	0.122472	

3.754e+10	-0.4683345	0.2112644	0.002271498	0.001377999	0.1217702	0.2980765	0.001217789	-0.002541836	
0.002271498	0.001377999	-0.4501025	0.244284	-0.0007698287	-0.000559108	0.1206078	0.2627515	
0.1217702	0.2980765	-0.0007698287	-0.000559108	-0.6894935	0.09346827	0.0017398	0.0007493122	
0.001217789	-0.002541836	0.1206078	0.2627515	0.0017398	0.0007493122	-0.6974313	0.136325	

3.756e+10	-0.4600054	0.2184266	0.002561865	0.0009644728	0.1321479	0.2919005	0.0008987301	-0.002674537	
0.002561865	0.0009644728	-0.4349503	0.2486953	-0.0008974691	-0.0003468445	0.1251716	0.2567422	
0.1321479	0.2919005	-0.0008974691	-0.0003468445	-0.685913	0.1055721	0.001947419	0.0004395128	
0.0008987301	-0.002674537	0.1251716	0.2567422	0.001947419	0.0004395128	-0.6874656	0.1497661	

3.758e+10	-0.4500076	0.2246598	0.002796501	0.0004764626	0.1419143	0.2844992	0.0005616797	-0.002791656	
0.002796501	0.0004764626	-0.4181214	0.2508356	-0.0009772565	-0.0001109988	0.1289398	0.2502447	
0.1419143	0.2844992	-0.0009772565	-0.0001109988	-0.6804447	0.1174109	0.002110621	7.349059e-05	
0.0005616797	-0.002791656	0.1289398	0.2502447	0.002110621	7.349059e-05	-0.6752834	0.1623705	

3.76e+10	-0.4384089	0.229487	0.002954457	-8.909522e-05	0.1509918	0.2758607	0.0001984963	-0.002890091	
0.002954457	-8.909522e-05	-0.3998268	0.2500336	-0.001004378	0.0001400837	0.1318084	0.2433684	
0.1509918	0.2758607	-0.001004378	0.0001400837	-0.6731039	0.1287667	0.002215043	-0.0003472705	
0.0001984963	-0.002890091	0.1318084	0.2433684	0.002215043	-0.0003472705	-0.6608045	0.1737287	

3.762e+10	-0.4252164	0.2326063	0.00300527	-0.0007335505	0.1592666	0.2658307	-0.000201184	-0.002960973	
0.00300527	-0.0007335505	-0.3805473	0.2455281	-0.0009732752	0.0003971862	0.1337632	0.2362044	
0.1592666	0.2658307	-0.0009732752	0.0003971862	-0.6638299	0.139407	0.00224256	-0.0008218145	
-0.000201184	-0.002960973	0.1337632	0.2362044	0.00224256	-0.0008218145	-0.6438346	0.1835226	

3.764e+10	-0.4106679	0.2334815	0.002909069	-0.001440532	0.1665117	0.2542822	-0.0006428102	-0.002990801	
0.002909069	-0.001440532	-0.3611743	0.236616	-0.0008806701	0.0006466799	0.134751	0.228844	
0.1665117	0.2542822	-0.0008806701	0.0006466799	-0.6526548	0.1488786	0.002169175	-0.001341541	
-0.0006428102	-0.002990801	0.134751	0.228844	0.002169175	-0.001341541	-0.624405	0.1910189	

3.766e+10	-0.3951153	0.2314421	0.002620198	-0.002176567	0.1723439	0.2410828	-0.001129522	-0.002959477	
0.002620198	-0.002176567	-0.3428767	0.2227519	-0.0007250841	0.0008715094	0.1346771	0.221383	
0.1723439	0.2410828	-0.0007250841	0.0008715094	-0.6395856	0.1568606	0.001967888	-0.001888852	
-0.001129522	-0.002959477	0.1346771	0.221383	0.001967888	-0.001888852	-0.6025436	0.1955458	

3.768e+10	-0.37915	0.2259291	0.002101796	-0.002878165	0.1762432	0.226207	-0.00165733	-0.002844152	
0.002101796	-0.002878165	-0.3273141	0.2036559	-0.0005148093	0.001051321	0.1335044	0.2139424	
0.1762432	0.226207	-0.0005148093	0.001051321	-0.624715	0.1628425	0.001610942	-0.002431101	
-0.00165733	-0.002844152	0.1335044	0.2139424	0.001610942	-0.002431101	-0.5785765	0.1961751	

3.77e+10	-0.3636802	0.2164529	0.001342713	-0.003454745	0.1775596	0.2097716	-0.002213487	-0.002615602	
0.001342713	-0.003454745	-0.3164561	0.1798451	-0.0002682051	0.001172926	0.1311741	0.2066654	
0.1775596	0.2097716	-0.0002682051	0.001172926	-0.6082306	0.1663931	0.001079193	-0.002919631	
-0.002213487	-0.002615602	0.1311741	0.2066654	0.001079193	-0.002919631	-0.5531629	0.1917661	

3.772e+10	-0.3500678	0.202764	0.0003750497	-0.003801142	0.1755074	0.1922052	-0.002770453	-0.002241868	
0.0003750497	-0.003801142	-0.3122254	0.152755	-5.439221e-06	0.001231788	0.1276326	0.1996733	
0.1755074	0.1922052	-5.439221e-06	0.001231788	-0.5905327	0.1669926	0.0003687582	-0.00328859	
-0.002770453	-0.002241868	0.1276326	0.1996733	0.0003687582	-0.00328859	-0.5274958	0.1813225	

3.774e+10	-0.3397766	0.1851753	-0.0007126813	-0.003822937	0.1693002	0.1742473	-0.003276809	-0.001697086	
-0.0007126813	-0.003822937	-0.3159479	0.1247101	0.0002570318	0.001236161	0.1227676	0.1931451	
0.1693002	0.1742473	0.0002570318	0.001236161	-0.5722677	0.163987	-0.0004960621	-0.003460829	
-0.003276809	-0.001697086	0.1227676	0.1931451	-0.0004960621	-0.003460829	-0.5032794	0.1643026	

3.776e+10	-0.334331	0.1647287	-0.001780317	-0.003468589	0.1583256	0.1571692	-0.003658548	-0.0009775679	
-0.001780317	-0.003468589	-0.327769	0.09870967	0.000513643	0.001195421	0.116362	0.187344	
0.1583256	0.1571692	0.000513643	0.001195421	-0.5540895	0.1572094	-0.001450392	-0.003359698	
-0.003658548	-0.0009775679	0.116362	0.187344	-0.001450392	-0.003359698	-0.4827771	0.1404425	

3.778e+10	-0.334752	0.1430601	-0.002667916	-0.002765604	0.1424507	0.1426547	-0.003829724	-0.0001230303	
-0.002667916	-0.002765604	-0.3465052	0.0775166	0.0007690528	0.001111233	0.1083092	0.1828493	
0.1424507	0.1426547	0.0007690528	0.001111233	-0.5369297	0.1462832	-0.002388078	-0.002935387	
-0.003829724	-0.0001230303	0.1083092	0.1828493	-0.002388078	-0.002935387	-0.4684202	0.1107298	

3.78e+10	-0.3412542	0.1224555	-0.003243788	-0.001825544	0.1224262	0.1326488	-0.003726713	0.0007738004	
-0.003243788	-0.001825544	-0.369858	0.06308811	0.001022963	0.000972998	0.09888505	0.1804751	
0.1224262	0.1326488	0.001022963	0.000972998	-0.5217842	0.1312568	-0.003172291	-0.002190869	
-0.003726713	0.0007738004	0.09888505	0.1804751	-0.003172291	-0.002190869	-0.462352	0.07712234	

3.782e+10	-0.3530602	0.1048494	-0.003455732	-0.0008060817	0.0998462	0.1286375	-0.003344038	0.001590012	
-0.003455732	-0.0008060817	-0.3950688	0.05615628	0.001260525	0.0007644236	0.08876846	0.1808154	
0.0998462	0.1286375	0.001260525	0.0007644236	-0.5099107	0.1122978	-0.003669789	-0.001198054	
-0.003344038	0.001590012	0.08876846	0.1808154	-0.003669789	-0.001198054	-0.4659544	0.04240517	

3.784e+10	-0.3685824	0.09162464	-0.003338121	0.0001434107	0.07700744	0.1313505	-0.002745711	0.002213137	
-0.003338121	0.0001434107	-0.4196215	0.05621311	0.001449988	0.0004804081	0.07904312	0.1841639	
0.07700744	0.1313505	0.001449988	0.0004804081	-0.5026425	0.09007743	-0.003792434	-9.798369e-05	
-0.002745711	0.002213137	0.07904312	0.1841639	-0.003792434	-9.798369e-05	-0.4790514	0.01020199	

3.786e+10	-0.3858936	0.08343314	-0.002979198	0.0009290578	0.05620378	0.1404413	-0.002041721	0.002586195	
-0.002979198	0.0009290578	-0.4416506	0.06199134	0.001555928	0.0001352997	0.07073241	0.1902039	
0.05620378	0.1404413	0.001555928	0.0001352997	-0.5010647	0.06605539	-0.003534761	0.0009438311	
-0.002041721	0.002586195	0.07073241	0.1902039	-0.003534761	0.0009438311	-0.4999836	-0.01632409	

3.788e+10	-0.4034219	0.07980653	-0.002477625	0.001510569	0.03941788	0.1546764	-0.001346667	0.002716414	
-0.002477625	0.001510569	-0.4601082	0.07188648	0.001550915	-0.0002321926	0.06468848	0.1982427	
0.03941788	0.1546764	0.001550915	-0.0002321926	-0.5057843	0.04193855	-0.002970085	0.001784607	
-0.001346667	0.002716414	0.06468848	0.1982427	-0.002970085	0.001784607	-0.5261276	-0.03559103	

3.79e+10	-0.4201424	0.07999446	-0.001916643	0.00189403	0.02784779	0.1722231	-0.0007402114	0.002661898	
-0.001916643	0.00189403	-0.4747618	0.08431151	0.00143367	-0.0005739788	0.06127748	0.2073343	
0.02784779	0.1722231	0.00143367	-0.0005739788	-0.5166858	0.01966844	-0.002225085	0.002340656	
-0.0007402114	0.002661898	0.06127748	0.2073343	-0.002225085	0.002340656	-0.5546569	-0.04706332	

3.792e+10	-0.4355026	0.08331291	-0.001356167	0.002104358	0.021819	0.1910582	-0.0002561892	0.002496992	
-0.001356167	0.002104358	-0.4858568	0.09814242	0.001230505	-0.0008460507	0.0604704	0.216566	
0.021819	0.1910582	0.001230505	-0.0008460507	-0.5328688	0.00111604	-0.001432645	0.002600593	
-0.0002561892	0.002496992	0.0604704	0.216566	-0.001432645	0.002600593	-0.5832243	-0.05123066	

3.794e+10	-0.4492815	0.08904163	-0.0008334337	0.002177984	0.02086628	0.209423	0.0001110291	0.002282401	
-0.0008334337	0.002177984	-0.4938054	0.1125524	0.0009815304	-0.00102837	0.06193545	0.2251776	
0.02086628	0.209423	0.0009815304	-0.00102837	-0.5527399	-0.0124469	-0.0007028685	0.002608566	
0.0001110291	0.002282401	0.06193545	0.2251776	-0.0007028685	0.002608566	-0.6100699	-0.04919223	

3.796e+10	-0.4612603	0.09661438	-0.0003719669	0.002149656	0.02406232	0.2260529	0.0003837335	0.002057014	
-0.0003719669	0.002149656	-0.4990418	0.1269259	0.0007291039	-0.00112285	0.06519702	0.2327096	
0.02406232	0.2260529	0.0007291039	-0.00112285	-0.5745121	-0.02056439	-9.708763e-05	0.002439569	
0.0003837335	0.002057014	0.06519702	0.2327096	-9.708763e-05	0.002439569	-0.6341705	-0.04245509	

3.798e+10	-0.4713711	0.1056231	2.316364e-05	0.002054369	0.03027308	0.2403107	0.0005867264	0.001838235	
2.316364e-05	0.002054369	-0.5019186	0.141083	0.0005018163	-0.00114987	0.06970646	0.2389502	
0.03027308	0.2403107	0.0005018163	-0.00114987	-0.5965756	-0.0235438	0.000363533	0.002170061	
0.0005867264	0.001838235	0.06970646	0.2389502	0.000363533	0.002170061	-0.6551313	-0.03215588	

3.8e+10	-0.4797137	0.1157891	0.000355995	0.001918348	0.03850072	0.2519857	0.0007391721	0.001632449	
0.000355995	0.001918348	-0.5028539	0.1547941	0.0003139274	-0.001134985	0.07500969	0.2438228	
0.03850072	0.2519857	0.0003139274	-0.001134985	-0.6177159	-0.021787	0.0006898511	0.001860418	
0.0007391721	0.001632449	0.07500969	0.2438228	0.0006898511	0.001860418	-0.6728409	-0.01938179	

3.802e+10	-0.4862517	0.1267497	0.0006352661	0.001760277	0.04794701	0.2611144	0.0008513562	0.001441459	
0.0006352661	0.001760277	-0.5020615	0.1679874	0.0001665482	-0.001101379	0.08078324	0.2474052	
0.04794701	0.2611144	0.0001665482	-0.001101379	-0.6370631	-0.01623703	0.0009048593	0.001551401	
0.0008513562	0.001441459	0.08078324	0.2474052	0.0009048593	0.001551401	-0.6874324	-0.004919247	

3.804e+10	-0.4911942	0.1380685	0.0008735222	0.001590969	0.05798447	0.2679171	0.0009332339	0.001266131	
0.0008735222	0.001590969	-0.4997953	0.1805288	5.147304e-05	-0.001066559	0.08673005	0.2497704	
0.05798447	0.2679171	5.147304e-05	-0.001066559	-0.6542439	-0.007765088	0.001037271	0.001265134	
0.0009332339	0.001266131	0.08673005	0.2497704	0.001037271	0.001265134	-0.6991694	0.01061726	

3.806e+10	-0.4944782	0.1497627	0.001080402	0.001415871	0.06814678	0.2726527	0.000990192	0.001107353	
0.001080402	0.001415871	-0.4961734	0.192453	-4.223736e-05	-0.001041644	0.09263683	0.2510222	
0.06814678	0.2726527	-4.223736e-05	-0.001041644	-0.6690836	0.002919447	0.001112967	0.0010107	
0.000990192	0.001107353	0.09263683	0.2510222	0.001112967	0.0010107	-0.7083716	0.02684145	

3.808e+10	-0.4962437	0.1616225	0.001265414	0.001235729	0.07814236	0.2756167	0.001027659	0.000966286	
0.001265414	0.001235729	-0.4913035	0.2037055	-0.0001276301	-0.001031131	0.09833556	0.2512842	
0.07814236	0.2756167	-0.0001276301	-0.001031131	-0.6815252	0.01498994	0.001152161	0.0007891373	
0.001027659	0.000966286	0.09833556	0.2512842	0.001152161	0.0007891373	-0.7152414	0.04311957	

3.81e+10	-0.4965889	0.1735138	0.001436541	0.001047851	0.08778648	0.2771072	0.001051143	0.0008436013	
0.001436541	0.001047851	-0.4852191	0.2143107	-0.0002163865	-0.001033081	0.1036908	0.2507028	
0.08778648	0.2771072	-0.0002163865	-0.001033081	-0.6916478	0.02838402	0.001169872	0.0005950255	
0.001051143	0.0008436013	0.1036908	0.2507028	0.001169872	0.0005950255	-0.7199389	0.05982231	

3.812e+10	-0.495635	0.1852117	0.001597372	0.0008486226	0.09697929	0.2773328	0.001065497	0.0007405951	
0.001597372	0.0008486226	-0.4780469	0.2240353	-0.0003166834	-0.001042982	0.1085943	0.2493927	
0.09697929	0.2773328	-0.0003166834	-0.001042982	-0.6996549	0.04242503	0.00117536	0.0004210481	
0.001065497	0.0007405951	0.1085943	0.2493927	0.00117536	0.0004210481	-0.7226857	0.07646747	

3.814e+10	-0.4934087	0.1967503	0.001751096	0.0006309513	0.1056704	0.2765062	0.001077066	0.0006577021	
0.001751096	0.0006309513	-0.4697389	0.2329761	-0.0004347185	-0.001054184	0.1130027	0.2474924	
0.1056704	0.2765062	-0.0004347185	-0.001054184	-0.7056497	0.05702315	0.001172352	0.0002612139	
0.001077066	0.0006577021	0.1130027	0.2474924	0.001172352	0.0002612139	-0.7236042	0.09295258	

3.816e+10	-0.4899576	0.2080756	0.001896271	0.000389697	0.113813	0.2747281	0.00109151	0.0005942706	
0.001896271	0.000389697	-0.4603962	0.240894	-0.000573909	-0.001059212	0.1168282	0.2450784	
0.113813	0.2747281	-0.000573909	-0.001059212	-0.7098154	0.07172495	0.001162906	0.0001100355	
0.00109151	0.0005942706	0.1168282	0.2450784	0.001162906	0.0001100355	-0.7227223	0.1094305	

3.818e+10	-0.4852767	0.2191108	0.002030887	0.0001160547	0.1213799	0.2721378	0.001116002	0.0005480284	
0.002030887	0.0001160547	-0.4499683	0.2477814	-0.0007358747	-0.001049768	0.1200175	0.2422832	
0.1213799	0.2721378	-0.0007358747	-0.001049768	-0.7122681	0.08657234	0.00114717	-3.802949e-05	
0.001116002	0.0005480284	0.1200175	0.2422832	0.00114717	-3.802949e-05	-0.7201467	0.1255562	

3.82e+10	-0.4793831	0.2297848	0.002150228	-0.0001955272	0.128338	0.2688489	0.001156306	0.0005174345	
0.002150228	-0.0001955272	-0.4385361	0.2533931	-0.0009211355	-0.00101694	0.122512	0.239224	
0.128338	0.2688489	-0.0009211355	-0.00101694	-0.7130249	0.1014785	0.00112344	-0.000185795	
0.001156306	0.0005174345	0.122512	0.239224	0.00112344	-0.000185795	-0.7157394	0.1415904	

3.822e+10	-0.4722534	0.2400025	0.002247228	-0.0005548008	0.1346719	0.264914	0.001220268	0.0004983301	
0.002247228	-0.0005548008	-0.4262007	0.2574051	-0.001128489	-0.0009502756	0.1242697	0.2360578	
0.1346719	0.264914	-0.001128489	-0.0009502756	-0.7121854	0.1163696	0.001088504	-0.0003370733	
0.001220268	0.0004983301	0.1242697	0.2360578	0.001088504	-0.0003370733	-0.7095487	0.1570433	

3.824e+10	-0.4638967	0.2496782	0.002310963	-0.0009708223	0.1403632	0.2604104	0.001316239	0.0004854298	
0.002310963	-0.0009708223	-0.4130814	0.2597287	-0.001353361	-0.0008355265	0.1252778	0.2329387	
0.1403632	0.2604104	-0.001353361	-0.0008355265	-0.7097952	0.1310403	0.001037304	-0.0004932362	
0.001316239	0.0004854298	0.1252778	0.2329387	0.001037304	-0.0004932362	-0.7014327	0.1720288	

3.826e+10	-0.4541779	0.2587434	0.002322054	-0.001456227	0.1453638	0.2553881	0.001454225	0.000470683	
0.002322054	-0.001456227	-0.3994955	0.2598321	-0.001583997	-0.0006587057	0.1255743	0.2300712	
0.1453638	0.2553881	-0.001583997	-0.0006587057	-0.7058492	0.1454036	0.0009649015	-0.0006531892	
0.001454225	0.000470683	0.1255743	0.2300712	0.0009649015	-0.0006531892	-0.6913856	0.1861619	

3.828e+10	-0.4430022	0.2671305	0.00225162	-0.002017711	0.1496141	0.2499077	0.001645347	0.0004413003	
0.00225162	-0.002017711	-0.3857637	0.2576617	-0.001800189	-0.0004073413	0.125196	0.2275988	
0.1496141	0.2499077	-0.001800189	-0.0004073413	-0.7002703	0.1596117	0.000864735	-0.0008157688	
0.001645347	0.0004413003	0.125196	0.2275988	0.000864735	-0.0008157688	-0.6792665	0.1994038	

3.83e+10	-0.430436	0.2743236	0.002059821	-0.002652923	0.1530374	0.2440571	0.001902141	0.0003788425	
0.002059821	-0.002652923	-0.3725007	0.2528662	-0.001974263	-7.791412e-05	0.1242858	0.2257484	
0.1530374	0.2440571	-0.001974263	-7.791412e-05	-0.6930487	0.1733105	0.0007291778	-0.0009762387	
0.001902141	0.0003788425	0.1242858	0.2257484	0.0007291778	-0.0009762387	-0.6650354	0.211345	

3.832e+10	-0.4162317	0.2803293	0.001696523	-0.003346201	0.1555577	0.2379073	0.002236908	0.0002496879	
0.001696523	-0.003346201	-0.3601969	0.2456176	-0.002073898	0.0003236513	0.1230241	0.2246615	
0.1555577	0.2379073	-0.002073898	0.0003236513	-0.6840439	0.1864918	0.0005470415	-0.001125388	
0.002236908	0.0002496879	0.1230241	0.2246615	0.0005470415	-0.001125388	-0.6486404	0.221447	

3.834e+10	-0.4005464	0.2845483	0.001109707	-0.004057797	0.1571073	0.231637	0.002653089	7.524606e-06	
0.001109707	-0.004057797	-0.3498699	0.2358126	-0.002067569	0.0007734437	0.1217045	0.2244694	
0.1571073	0.231637	-0.002067569	0.0007734437	-0.6732268	0.19878	0.000310988	-0.001243605	
0.002653089	7.524606e-06	0.1217045	0.2244694	0.000310988	-0.001243605	-0.6302473	0.2291421	

3.836e+10	-0.3832961	0.2866378	0.0002439624	-0.004719699	0.1576267	0.2253904	0.003134195	-0.000418408	
0.0002439624	-0.004719699	-0.3420802	0.2241922	-0.001931828	0.001235455	0.120647	0.225119	
0.1576267	0.2253904	-0.001931828	0.001235455	-0.6604528	0.2100156	2.149445e-05	-0.001301723	
0.003134195	-0.000418408	0.120647	0.225119	2.149445e-05	-0.001301723	-0.6099081	0.2341218	

3.838e+10	-0.3647864	0.2859263	-0.0009333188	-0.005223778	0.1570857	0.2193908	0.003625579	-0.001109004	
-0.0009333188	-0.005223778	-0.3374232	0.2115011	-0.001660661	0.001658922	0.1201231	0.2264523	
0.1570857	0.2193908	-0.001660661	0.001658922	-0.6456995	0.2199398	-0.0003007359	-0.001266278	
0.003625579	-0.001109004	0.1201231	0.2264523	-0.0003007359	-0.001266278	-0.5881189	0.2355881	

3.84e+10	-0.3453227	0.2819395	-0.002414418	-0.00542542	0.1555219	0.2138848	0.004010096	-0.002143441	
-0.002414418	-0.00542542	-0.335964	0.1989261	-0.00126923	0.001989993	0.1202885	0.2281861	
0.1555219	0.2138848	-0.00126923	0.001989993	-0.6290151	0.2277003	-0.0006135759	-0.001111033	
0.004010096	-0.002143441	0.1202885	0.2281861	-0.0006135759	-0.001111033	-0.5654263	0.2327056	

3.842e+10	-0.3256901	0.2737712	-0.004117488	-0.005161583	0.1530535	0.2091747	0.004097546	-0.003552787	
-0.004117488	-0.005161583	-0.3374592	0.1872107	-0.0008029219	0.002182278	0.121152	0.2301161	
0.1530535	0.2091747	-0.0008029219	0.002182278	-0.6104432	0.2332277	-0.0008539521	-0.0008347931	
0.004097546	-0.003552787	0.121152	0.2301161	-0.0008539521	-0.0008347931	-0.5426891	0.2251222	

3.844e+10	-0.3069376	0.2609474	-0.005873346	-0.004295492	0.1499502	0.2054974	0.0036381	-0.005261733	
-0.005873346	-0.004295492	-0.3412325	0.1771805	-0.0003285689	0.002215165	0.1226898	0.2320635	
0.1499502	0.2054974	-0.0003285689	0.002215165	-0.5902598	0.2357287	-0.0009544013	-0.000474392	
0.0036381	-0.005261733	0.1226898	0.2320635	-0.0009544013	-0.000474392	-0.5211912	0.2121638	

3.846e+10	-0.2903546	0.2434637	-0.00743176	-0.002768277	0.1466315	0.2030256	0.002396244	-0.007024852	
-0.00743176	-0.002768277	-0.3464864	0.1692174	7.804294e-05	0.002107255	0.1248486	0.2339287	
0.1466315	0.2030256	7.804294e-05	0.002107255	-0.5691122	0.2343387	-0.0008695166	-0.0001147828	
0.002396244	-0.007024852	0.1248486	0.2339287	-0.0008695166	-0.0001147828	-0.5027057	0.1937764	

3.848e+10	-0.2777512	0.2214878	-0.008515338	-0.0006432608	0.1435723	0.2016753	0.0002680589	-0.00843134	
-0.008515338	-0.0006432608	-0.3525111	0.1632564	0.000361513	0.001918944	0.1276394	0.2356413	
0.1435723	0.2016753	0.000361513	0.001918944	-0.5477293	0.2287832	-0.0006124957	0.0001318669	
0.0002680589	-0.00843134	0.1276394	0.2356413	-0.0006124957	0.0001318669	-0.4890287	0.1707765	

3.85e+10	-0.2706493	0.1959894	-0.008877251	0.001896636	0.1411617	0.2011138	-0.002596747	-0.00899664	
-0.008877251	0.001896636	-0.3586151	0.159141	0.0005095116	0.001735869	0.1311171	0.2370779	
0.1411617	0.2011138	0.0005095116	0.001735869	-0.5271529	0.2186773	-0.0002751385	0.00016755	
-0.002596747	-0.00899664	0.1311171	0.2370779	-0.0002751385	0.00016755	-0.4817185	0.1447975	

3.852e+10	-0.270239	0.1688641	-0.008363773	0.004552505	0.1395873	0.2008473	-0.005755664	-0.00834331	
-0.008363773	0.004552505	-0.3644656	0.1564361	0.0005630728	0.00163686	0.1353267	0.2380537	
0.1395873	0.2008473	0.0005630728	0.00163686	-0.5086061	0.204046	-6.414442e-06	-2.80294e-05	
-0.005755664	-0.00834331	0.1353267	0.2380537	-6.414442e-06	-2.80294e-05	-0.4816594	0.1178613	

3.854e+10	-0.2771347	0.1421834	-0.006961589	0.006976185	0.1387072	0.200326	-0.008586936	-0.006377221	
-0.006961589	0.006976185	-0.369974	0.1546876	0.0006042402	0.001667286	0.1402544	0.2382759	
0.1387072	0.200326	0.0006042402	0.001667286	-0.4932745	0.1852132	5.364181e-05	-0.0003685568	
-0.008586936	-0.006377221	0.1402544	0.2382759	5.364181e-05	-0.0003685568	-0.48868	0.09251373	

3.856e+10	-0.2909493	0.118379	-0.004820533	0.008837813	0.1381059	0.1991976	-0.01048272	-0.00336967	
-0.004820533	0.008837813	-0.3751873	0.1535696	0.0007350554	0.00181522	0.1457276	0.2374243	
0.1381059	0.1991976	0.0007350554	0.00181522	-0.4824428	0.1629226	-0.0001481015	-0.0006896571	
-0.01048272	-0.00336967	0.1457276	0.2374243	-0.0001481015	-0.0006896571	-0.5016823	0.07077474	

3.858e+10	-0.3104351	0.0994308	-0.002200758	0.009918783	0.1371241	0.1973471	-0.01107808	0.0001430861	
-0.002200758	0.009918783	-0.3802574	0.1530167	0.001042354	0.002004479	0.1513708	0.2351879	
0.1371241	0.1973471	0.001042354	0.002004479	-0.4771609	0.1382669	-0.0005423789	-0.0008269505	
-0.01107808	0.0001430861	0.1513708	0.2351879	-0.0005423789	-0.0008269505	-0.5189879	0.05390684	

3.86e+10	-0.3335555	0.08682253	0.0005697887	0.01012798	0.1352174	0.1951768	-0.01034091	0.003524363	
0.0005697887	0.01012798	-0.3852962	0.1529386	0.001552276	0.002110773	0.1566806	0.2315033	
0.1352174	0.1951768	0.001552276	0.002110773	-0.4779473	0.11307	-0.0009730814	-0.0007075041	
-0.01034091	0.003524363	0.1566806	0.2315033	-0.0009730814	-0.0007075041	-0.538627	0.04248546	

3.862e+10	-0.3581208	0.08096877	0.003189647	0.009513533	0.132159	0.1933606	-0.008539905	0.006270889	
0.003189647	0.009513533	-0.3903895	0.1534638	0.00220593	0.002006538	0.1611801	0.2265428	
0.132159	0.1933606	0.00220593	0.002006538	-0.4847713	0.08914711	-0.001285037	-0.0003777196	
-0.008539905	0.006270889	0.1611801	0.2265428	-0.001285037	-0.0003777196	-0.5589698	0.03634289	

3.864e+10	-0.3820183	0.08161872	0.005415588	0.008221285	0.1281729	0.1925874	-0.006093532	0.008101089	
0.005415588	0.008221285	-0.3955834	0.1547089	0.002882331	0.001619606	0.1645088	0.2206171	
0.1281729	0.1925874	0.002882331	0.001619606	-0.497074	0.06782553	-0.001402712	4.702293e-05	
-0.006093532	0.008101089	0.1645088	0.2206171	-0.001402712	4.702293e-05	-0.5789671	0.0345998	

3.866e+10	-0.4037333	0.08765908	0.007090587	0.006456464	0.1238321	0.1932368	-0.003431938	0.008963877	
0.007090587	0.006456464	-0.4009192	0.1567151	0.003434759	0.0009581619	0.1664992	0.2141242	
0.1238321	0.1932368	0.003434759	0.0009581619	-0.5137	0.0506403	-0.001336275	0.0004499659	
-0.003431938	0.008963877	0.1664992	0.2141242	-0.001336275	0.0004499659	-0.5978136	0.03687804	

3.868e+10	-0.4221654	0.09777504	0.008155608	0.004448613	0.1197749	0.1953553	-0.0009042601	0.008977072	
0.008155608	0.004448613	-0.4061831	0.1597541	0.003754091	0.0001028548	0.1670869	0.2074358	
0.1197749	0.1953553	0.003754091	0.0001028548	-0.5331254	0.03830843	-0.001146696	0.000759845	
-0.0009042601	0.008977072	0.1670869	0.2074358	-0.001146696	0.000759845	-0.615003	0.04235807	

3.87e+10	-0.4368807	0.1107101	0.008637547	0.00240531	0.1165198	0.1987065	0.001272017	0.008347742	
0.008637547	0.00240531	-0.4111948	0.1638837	0.003784121	-0.0008347629	0.1663371	0.2008956	
0.1165198	0.1987065	0.003784121	-0.0008347629	-0.5538742	0.03116032	-0.0009073698	0.0009571715	
0.001272017	0.008347742	0.1663371	0.2008956	-0.0009073698	0.0009571715	-0.6302234	0.05070657	

3.872e+10	-0.4478339	0.1252903	0.008629936	0.0004804637	0.1143704	0.2028837	0.002997547	0.00730079	
0.008629936	0.0004804637	-0.4155564	0.1692471	0.003526418	-0.001738348	0.1643824	0.1947615	
0.1143704	0.2028837	0.003526418	-0.001738348	-0.5745085	0.02880177	-0.0006755577	0.001062049	
0.002997547	0.00730079	0.1643824	0.1947615	-0.0006755577	0.001062049	-0.6431999	0.06125338	

3.874e+10	-0.4553512	0.1405194	0.008248051	-0.001236359	0.113445	0.2074694	0.004265508	0.006025508	
0.008248051	-0.001236359	-0.4190356	0.1755443	0.003024624	-0.002514928	0.1613986	0.1892409	
0.113445	0.2074694	0.003024624	-0.002514928	-0.5940171	0.03050739	-0.0004803008	0.00111364	
0.004265508	0.006025508	0.1613986	0.1892409	-0.0004803008	0.00111364	-0.6538397	0.07333987	

3.876e+10	-0.459815	0.1557282	0.007605841	-0.002709365	0.11375	0.2120806	0.005118164	0.004665506	
0.007605841	-0.002709365	-0.4213011	0.1827499	0.002350287	-0.003100095	0.1576044	0.1844332	
0.11375	0.2120806	0.002350287	-0.003100095	-0.6117154	0.03559266	-0.0003197915	0.00115235	
0.005118164	0.004665506	0.1576044	0.1844332	-0.0003197915	0.00115235	-0.6619487	0.08691214	

3.878e+10	-0.4616885	0.1706006	0.006790534	-0.003949171	0.1150788	0.2164044	0.005622109	0.003308768	
0.006790534	-0.003949171	-0.422265	0.1904825	0.001581834	-0.003469734	0.153077	0.1803554	
0.1150788	0.2164044	0.001581834	-0.003469734	-0.6274311	0.04310402	-0.0001691945	0.001200536	
0.005622109	0.003308768	0.153077	0.1803554	-0.0001691945	0.001200536	-0.6675829	0.1012008	

3.88e+10	-0.4613236	0.1847965	0.00586543	-0.004973366	0.1172323	0.2202314	0.005837483	0.002011716	
0.00586543	-0.004973366	-0.4217143	0.1985336	0.0007903694	-0.003627699	0.1478924	0.1770342	
0.1172323	0.2202314	0.0007903694	-0.003627699	-0.6408976	0.05269138	-3.311963e-06	0.001256696	
0.005837483	0.002011716	0.1478924	0.1770342	-3.311963e-06	0.001256696	-0.670569	0.1160685	

3.882e+10	-0.4590872	0.1981893	0.004869728	-0.005814018	0.1199968	0.2234933	0.0058199	0.0008056626	
0.004869728	-0.005814018	-0.4196298	0.2064835	2.983069e-05	-0.003598176	0.1420618	0.1745579	
0.1199968	0.2234933	2.983069e-05	-0.003598176	-0.6521462	0.06359877	0.0001929482	0.001306327	
0.0058199	0.0008056626	0.1420618	0.1745579	0.0001929482	0.001306327	-0.6708772	0.131013	

3.884e+10	-0.4552405	0.2105435	0.003828463	-0.006499441	0.1231955	0.2261631	0.005615853	-0.0002893119	
0.003828463	-0.006499441	-0.4159943	0.2139756	-0.0006621609	-0.003409699	0.1356225	0.1730715	
0.1231955	0.2261631	-0.0006621609	-0.003409699	-0.661189	0.07544988	0.0004221386	0.001332848	
0.005615853	-0.0002893119	0.1356225	0.1730715	0.0004221386	0.001332848	-0.6684966	0.1455114	

3.886e+10	-0.4499761	0.2220013	0.002740845	-0.007058645	0.126687	0.2282488	0.005263473	-0.001269479	
0.002740845	-0.007058645	-0.4108948	0.2206893	-0.001260558	-0.003093531	0.1286109	0.1727901	
0.126687	0.2282488	-0.001260558	-0.003093531	-0.6683339	0.0877505	0.0006848931	0.001319657	
0.005263473	-0.001269479	0.1286109	0.1727901	0.0006848931	0.001319657	-0.663523	0.1590528	

3.888e+10	-0.4434384	0.2325143	0.001593121	-0.007505995	0.1303693	0.2297715	0.004793705	-0.002133894	
0.001593121	-0.007505995	-0.4045466	0.2262788	-0.00174729	-0.002677272	0.1211887	0.1739463	
0.1303693	0.2297715	-0.00174729	-0.002677272	-0.6736538	0.1004378	0.0009729405	0.001249977	
0.004793705	-0.002133894	0.1211887	0.1739463	0.0009729405	0.001249977	-0.6561052	0.1711472	

3.89e+10	-0.4358451	0.2418913	0.0003641117	-0.007837246	0.1341322	0.2307585	0.004229409	-0.002882728	
0.0003641117	-0.007837246	-0.3973381	0.2303288	-0.00210502	-0.002193561	0.1135925	0.1768162	
0.1341322	0.2307585	-0.00210502	-0.002193561	-0.677381	0.1132332	0.001272388	0.001105719	
0.004229409	-0.002882728	0.1135925	0.1768162	0.001272388	0.001105719	-0.6465838	0.1812595	

3.892e+10	-0.4272926	0.25009	-0.000964716	-0.008029554	0.1378856	0.2312409	0.003591778	-0.003522367	
-0.000964716	-0.008029554	-0.3895931	0.2327051	-0.002323887	-0.001679742	0.1061806	0.1816189	
0.1378856	0.2312409	-0.002323887	-0.001679742	-0.6795865	0.1259539	0.001556451	0.0008757272	
0.003591778	-0.003522367	0.1061806	0.1816189	0.001556451	0.0008757272	-0.635455	0.1885923	

3.894e+10	-0.4178743	0.257078	-0.002401965	-0.008041849	0.1415834	0.2312967	0.002895019	-0.004060915	
-0.002401965	-0.008041849	-0.3818891	0.2331976	-0.002409295	-0.001177175	0.09950137	0.1885456	
0.1415834	0.2312967	-0.002409295	-0.001177175	-0.6803722	0.1386706	0.001792973	0.0005627085	
0.002895019	-0.004060915	0.09950137	0.1885456	0.001792973	0.0005627085	-0.6233619	0.193082	

3.896e+10	-0.4076167	0.2628925	-0.003939412	-0.007822442	0.145182	0.2309471	0.002144915	-0.004510473	
-0.003939412	-0.007822442	-0.3747523	0.2319942	-0.002375068	-0.0007220537	0.09425785	0.1975447	
0.145182	0.2309471	-0.002375068	-0.0007220537	-0.6798692	0.1509724	0.001956541	0.0001863982	
0.002144915	-0.004510473	0.09425785	0.1975447	0.001956541	0.0001863982	-0.6114337	0.1939582	

3.898e+10	-0.3967734	0.2672242	-0.005549077	-0.00730799	0.1486844	0.2302451	0.001329581	-0.004881883	
-0.005549077	-0.00730799	-0.368837	0.229313	-0.002251153	-0.0003460833	0.09118333	0.2082743	
0.1486844	0.2302451	-0.002251153	-0.0003460833	-0.678085	0.1632946	0.002035421	-0.0002320005	
0.001329581	-0.004881883	0.09118333	0.2082743	0.002035421	-0.0002320005	-0.6006052	0.1919086	

3.9e+10	-0.3855257	0.269948	-0.007173519	-0.00643869	0.1520433	0.2291819	0.0004295013	-0.005168886	
-0.007173519	-0.00643869	-0.3645576	0.2256831	-0.002070261	-6.867764e-05	0.09083668	0.2200483	
0.1520433	0.2291819	-0.002070261	-6.867764e-05	-0.6751303	0.1752293	0.002024844	-0.0006705941	
0.0004295013	-0.005168886	0.09083668	0.2200483	0.002024844	-0.0006705941	-0.5919098	0.1873101	

3.902e+10	-0.3738813	0.2711424	-0.008721778	-0.005164211	0.1552054	0.2277788	-0.0005851533	-0.005343858	
-0.008721778	-0.005164211	-0.3618768	0.2219322	-0.001874007	0.0001005085	0.09346211	0.231991	
0.1552054	0.2277788	-0.001874007	0.0001005085	-0.6709311	0.1869487	0.001924644	-0.001114017	
-0.0005851533	-0.005343858	0.09346211	0.231991	0.001924644	-0.001114017	-0.5859355	0.1811532	

3.904e+10	-0.3623021	0.2704453	-0.01007511	-0.00346717	0.1581314	0.2260869	-0.001727363	-0.005351212	
-0.01007511	-0.00346717	-0.3608051	0.2184253	-0.001708366	0.0001669047	0.09898331	0.2432305	
0.1581314	0.2260869	-0.001708366	0.0001669047	-0.6654901	0.1981383	0.001732858	-0.001548755	
-0.001727363	-0.005351212	0.09898331	0.2432305	0.001732858	-0.001548755	-0.5828803	0.174429	

3.906e+10	-0.3510395	0.2679049	-0.01110536	-0.001365534	0.160788	0.2241315	-0.002984313	-0.005111135	
-0.01110536	-0.001365534	-0.3608831	0.215813	-0.001616949	0.0001554096	0.1070116	0.2529992	
0.160788	0.2241315	-0.001616949	0.0001554096	-0.6587579	0.2088438	0.001450057	-0.001960141	
-0.002984313	-0.005111135	0.1070116	0.2529992	0.001450057	-0.001960141	-0.5825588	0.168147	

3.908e+10	-0.3405629	0.2635019	-0.01168042	0.001077391	0.1631632	0.2219493	-0.004301184	-0.004535672	
-0.01168042	0.001077391	-0.3617869	0.2142159	-0.001628539	0.0001107371	0.1169872	0.2607707	
0.1631632	0.2219493	-0.001628539	0.0001107371	-0.6507381	0.2188711	0.001075242	-0.002336348	
-0.004301184	-0.004535672	0.1169872	0.2607707	0.001075242	-0.002336348	-0.5844278	0.1631752	

3.91e+10	-0.3313378	0.2573827	-0.01168184	0.003766379	0.1652206	0.2195341	-0.005570006	-0.003552587	
-0.01168184	0.003766379	-0.3629125	0.2139425	-0.001750293	8.590982e-05	0.1282033	0.2661964	
0.1652206	0.2195341	-0.001750293	8.590982e-05	-0.6413759	0.2281314	0.0006008895	-0.002663972	
-0.005570006	-0.003552587	0.1282033	0.2661964	0.0006008895	-0.002663972	-0.587784	0.1599177	

3.912e+10	-0.3238008	0.2499008	-0.01101186	0.006548765	0.1668657	0.2169379	-0.006637847	-0.002128624	
-0.01101186	0.006548765	-0.3639777	0.214656	-0.001968365	0.0001245288	0.1399903	0.269286	
0.1668657	0.2169379	-0.001968365	0.0001245288	-0.6306707	0.2364256	1.722324e-05	-0.002919549	
-0.006637847	-0.002128624	0.1399903	0.269286	1.722324e-05	-0.002919549	-0.5918807	0.158594	

3.914e+10	-0.3183116	0.2415241	-0.009606559	0.00924137	0.1680204	0.2142304	-0.007319491	-0.0002990995	
-0.009606559	0.00924137	-0.3645463	0.2163657	-0.00226589	0.0002689878	0.1517775	0.2701881	
0.1680204	0.2142304	-0.00226589	0.0002689878	-0.6186412	0.2433151	-0.0006829635	-0.003060421	
-0.007319491	-0.0002990995	0.1517775	0.2701881	-0.0006829635	-0.003060421	-0.5961335	0.1590646	

3.916e+10	-0.3151298	0.2328435	-0.007462747	0.01161996	0.168628	0.2115317	-0.007437403	0.001813043	
-0.007462747	0.01161996	-0.3645346	0.2186882	-0.002612831	0.0005625279	0.163206	0.2691775	
0.168628	0.2115317	-0.002612831	0.0005625279	-0.6053086	0.2486255	-0.001486513	-0.003031671	
-0.007437403	0.001813043	0.163206	0.2691775	-0.001486513	-0.003031671	-0.6001122	0.1610241	

3.918e+10	-0.3141372	0.2246514	-0.004654559	0.01345675	0.1686567	0.2089961	-0.006863526	0.004001085	
-0.004654559	0.01345675	-0.3638067	0.2214589	-0.00295456	0.001050329	0.1740189	0.266507	
0.1686567	0.2089961	-0.00295456	0.001050329	-0.5909353	0.2518115	-0.002349402	-0.002772281	
-0.006863526	0.004001085	0.1740189	0.266507	-0.002349402	-0.002772281	-0.6035222	0.1643127	

3.92e+10	-0.3148935	0.2177175	-0.001358785	0.01453965	0.1681112	0.206787	-0.005567906	0.005995976	
-0.001358785	0.01453965	-0.3621766	0.2246465	-0.003207679	0.001755425	0.1840638	0.2624607	
0.1681112	0.206787	-0.003207679	0.001755425	-0.5758219	0.2526483	-0.003197667	-0.002236536	
-0.005567906	0.005995976	0.1840638	0.2624607	-0.003197667	-0.002236536	-0.606111	0.1687732	

3.922e+10	-0.3167561	0.2123701	0.002199788	0.01473672	0.1670126	0.2051283	-0.003636547	0.007532621	
0.002199788	0.01473672	-0.3597536	0.2277784	-0.003273599	0.002662279	0.1932481	0.2572513	
0.1670126	0.2051283	-0.003273599	0.002662279	-0.5604528	0.2507027	-0.003931618	-0.001408497	
-0.003636547	0.007532621	0.1932481	0.2572513	-0.003931618	-0.001408497	-0.6077912	0.173937	

3.924e+10	-0.3189411	0.2087092	0.005759002	0.0139911	0.1655127	0.204311	-0.00125886	0.008397163	
0.005759002	0.0139911	-0.356407	0.2308348	-0.003064307	0.003717301	0.2015361	0.2510549	
0.1655127	0.204311	-0.003064307	0.003717301	-0.5453732	0.2457872	-0.004442821	-0.0003067765	
-0.00125886	0.008397163	0.2015361	0.2510549	-0.004442821	-0.0003067765	-0.6083024	0.179841	

3.926e+10	-0.3207843	0.2064937	0.009039615	0.0123366	0.1639332	0.2045563	0.001301853	0.008464168	
0.009039615	0.0123366	-0.3522122	0.233478	-0.002501459	0.004838197	0.2089422	0.2440442	
0.1639332	0.2045563	-0.002501459	0.004838197	-0.5313325	0.2378991	-0.004617439	0.001007609	
0.001301853	0.008464168	0.2089422	0.2440442	-0.004617439	0.001007609	-0.6076056	0.1861116	

3.928e+10	-0.3218509	0.2051996	0.01180994	0.009885151	0.1627619	0.205974	0.003760109	0.0077251	
0.01180994	0.009885151	-0.3471416	0.2356516	-0.001523944	0.00590967	0.2154991	0.2362748	
0.1627619	0.205974	-0.001523944	0.00590967	-0.5192906	0.2269804	-0.00435915	0.002419301	
0.003760109	0.0077251	0.2154991	0.2362748	-0.00435915	0.002419301	-0.6056424	0.1924702	

3.93e+10	-0.3219085	0.2042893	0.01387292	0.006818503	0.1624849	0.2083908	0.005857286	0.006275678	
0.01387292	0.006818503	-0.341402	0.2370155	-0.0001103799	0.0067706	0.221174	0.2277482	
0.1624849	0.2083908	-0.0001103799	0.0067706	-0.5100698	0.2137853	-0.00361572	0.003763857	
0.005857286	0.006275678	0.221174	0.2277482	-0.00361572	0.003763857	-0.602369	0.1987481	

3.932e+10	-0.3210948	0.2031446	0.01511642	0.003344586	0.163546	0.2114664	0.007408731	0.004287093	
0.01511642	0.003344586	-0.3350144	0.2374669	0.001695164	0.007235888	0.2258823	0.2184294	
0.163546	0.2114664	0.001695164	0.007235888	-0.5042684	0.1990434	-0.00241389	0.004854238	
0.007408731	0.004287093	0.2258823	0.2184294	-0.00241389	0.004854238	-0.5978008	0.2045564	

3.934e+10	-0.3197172	0.2013366	0.01548684	-0.0003130187	0.1662381	0.2146685	0.008301544	0.001967451	
0.01548684	-0.0003130187	-0.3281638	0.2367663	0.003752984	0.007139598	0.2294562	0.2083868	
0.1662381	0.2146685	0.003752984	0.007139598	-0.502111	0.1838459	-0.0008623827	0.005524091	
0.008301544	0.001967451	0.2294562	0.2083868	-0.0008623827	0.005524091	-0.5920909	0.2095541	

3.936e+10	-0.3181545	0.1987278	0.0149783	-0.003952405	0.1706659	0.2173534	0.008499081	-0.0004848599	
0.0149783	-0.003952405	-0.3210511	0.2347158	0.005864493	0.006373568	0.2317764	0.1976691	
0.1706659	0.2173534	0.005864493	0.006373568	-0.5033894	0.1693114	0.0008830156	0.005664691	
0.008499081	-0.0004848599	0.2317764	0.1976691	0.0008830156	0.005664691	-0.5852053	0.2138074	

3.938e+10	-0.3168936	0.195183	0.0136183	-0.007391674	0.1766214	0.2188112	0.00800739	-0.002883943	
0.0136183	-0.007391674	-0.3140218	0.2310941	0.007797702	0.004904585	0.2325969	0.1863186	
0.1766214	0.2188112	0.007797702	0.004904585	-0.5077335	0.1560052	0.002636234	0.005219309	
0.00800739	-0.002883943	0.2325969	0.1863186	0.002636234	0.005219309	-0.5775503	0.2166268	

3.94e+10	-0.3162213	0.1909075	0.01145917	-0.01043582	0.1836511	0.2184484	0.006867474	-0.005056481	
0.01145917	-0.01043582	-0.3075333	0.225823	0.009298339	0.002780263	0.2317249	0.1745158	
0.1836511	0.2184484	0.009298339	0.002780263	-0.5144565	0.1447041	0.004188961	0.004193789	
0.006867474	-0.005056481	0.2317249	0.1745158	0.004188961	0.004193789	-0.5692443	0.2180566	

3.942e+10	-0.316499	0.185986	0.008576829	-0.01290477	0.1910237	0.2158523	0.005151201	-0.006842582	
0.008576829	-0.01290477	-0.3020472	0.2188868	0.01012209	0.0001358361	0.2288269	0.1624026	
0.1910237	0.2158523	0.01012209	0.0001358361	-0.522802	0.1355953	0.005333019	0.002675003	
0.005151201	-0.006842582	0.2288269	0.1624026	0.005333019	0.002675003	-0.5604808	0.2180717	

3.944e+10	-0.3179482	0.1806197	0.005098561	-0.01460249	0.1979511	0.2109736	0.002961879	-0.008088029	
0.005098561	-0.01460249	-0.2980946	0.2104385	0.01006494	-0.002788227	0.2235563	0.1503652	
0.1979511	0.2109736	0.01006494	-0.002788227	-0.5321322	0.128638	0.005896567	0.0008321824	
0.002961879	-0.008088029	0.2235563	0.1503652	0.005896567	0.0008321824	-0.5516035	0.2162821	

3.946e+10	-0.3208592	0.1750835	0.001216857	-0.01534182	0.2036738	0.2040296	0.0004544381	-0.008650972	
0.001216857	-0.01534182	-0.2962557	0.200882	0.009029308	-0.005649372	0.2157038	0.1390169	
0.2036738	0.2040296	0.009029308	-0.005649372	-0.5420482	0.1235483	0.00578635	-0.001093133	
0.0004544381	-0.008650972	0.2157038	0.1390169	0.00578635	-0.001093133	-0.5429916	0.2126868	

3.948e+10	-0.3253404	0.1699393	-0.00279915	-0.01497158	0.2075412	0.1954266	-0.002168587	-0.008421675	
-0.00279915	-0.01497158	-0.2969618	0.1908658	0.00706717	-0.008069921	0.2051487	0.1290441	
0.2075412	0.1954266	0.00706717	-0.008069921	-0.5524455	0.1201496	0.005012526	-0.002846354	
-0.002168587	-0.008421675	0.2051487	0.1290441	0.005012526	-0.002846354	-0.5351483	0.2070333	

3.95e+10	-0.3315114	0.1655745	-0.006570645	-0.01342421	0.2090898	0.1858083	-0.004636094	-0.007350607	
-0.006570645	-0.01342421	-0.3004384	0.181236	0.004390621	-0.009690757	0.1921155	0.1213284	
0.2090898	0.1858083	0.004390621	-0.009690757	-0.563232	0.1184863	0.003692622	-0.00418448	
-0.004636094	-0.007350607	0.1921155	0.1213284	0.003692622	-0.00418448	-0.5285514	0.1996175	

3.952e+10	-0.3393145	0.1625723	-0.009681139	-0.01079739	0.2080104	0.1758945	-0.006640256	-0.005499156	
-0.009681139	-0.01079739	-0.3064809	0.1729046	0.001358649	-0.01028666	0.1770639	0.116659	
0.2080104	0.1758945	0.001358649	-0.01028666	-0.5743067	0.1187241	0.002041807	-0.004927411	
-0.006640256	-0.005499156	0.1770639	0.116659	0.002041807	-0.004927411	-0.5236856	0.1907095	

3.954e+10	-0.3483522	0.161552	-0.01174734	-0.007389107	0.2043025	0.1665538	-0.007893268	-0.003069524	
-0.01174734	-0.007389107	-0.3145094	0.1666647	-0.001589244	-0.00981446	0.1608195	0.1157777	
0.2043025	0.1665538	-0.001589244	-0.00981446	-0.5854315	0.1210239	0.000335679	-0.005012873	
-0.007893268	-0.003069524	0.1608195	0.1157777	0.000335679	-0.005012873	-0.5208494	0.1808695	

3.956e+10	-0.358063	0.1630278	-0.01255553	-0.003666738	0.1983265	0.1585942	-0.008208528	-0.0003985919	
-0.01255553	-0.003666738	-0.3237294	0.1628897	-0.004038687	-0.008444515	0.1445823	0.1190997	
0.1983265	0.1585942	-0.004038687	-0.008444515	-0.59622	0.1254259	-0.001150524	-0.004520279	
-0.008208528	-0.0003985919	0.1445823	0.1190997	-0.001150524	-0.004520279	-0.5204442	0.1702079	

3.958e+10	-0.3676574	0.1673187	-0.01214024	-0.0001356135	0.1906401	0.1525786	-0.007580217	0.002119287	
-0.01214024	-0.0001356135	-0.3333054	0.1617725	-0.005732373	-0.006504389	0.1296245	0.1265704	
0.1906401	0.1525786	-0.005732373	-0.006504389	-0.6062114	0.1320646	-0.002237542	-0.003644194	
-0.007580217	0.002119287	0.1296245	0.1265704	-0.002237542	-0.003644194	-0.5225615	0.1595637	

3.96e+10	-0.3762762	0.1742626	-0.01075563	0.002783599	0.1819225	0.1487905	-0.006183854	0.004139729	
-0.01075563	0.002783599	-0.3425652	0.1630284	-0.006600252	-0.004373583	0.1171755	0.1375981	
0.1819225	0.1487905	-0.006600252	-0.004373583	-0.6147619	0.1410251	-0.002880263	-0.002616246	
-0.006183854	0.004139729	0.1171755	0.1375981	-0.002880263	-0.002616246	-0.527242	0.1496915	

3.962e+10	-0.3829352	0.1836362	-0.008788129	0.00486733	0.1729118	0.1472583	-0.004315902	0.005447266	
-0.008788129	0.00486733	-0.3508161	0.1663547	-0.006750263	-0.002370524	0.1081322	0.1511544	
0.1729118	0.1472583	-0.006750263	-0.002370524	-0.6212916	0.1516843	-0.003142917	-0.00162357	
-0.004315902	0.005447266	0.1081322	0.1511544	-0.003142917	-0.00162357	-0.5342772	0.1409626	

3.964e+10	-0.3871836	0.1945638	-0.006617502	0.006104317	0.1640535	0.1477507	-0.002303465	0.005991354	
-0.006617502	0.006104317	-0.3578765	0.1711586	-0.006386792	-0.0006848061	0.1028151	0.1661279	
0.1640535	0.1477507	-0.006386792	-0.0006848061	-0.6252116	0.1636713	-0.003146662	-0.0007606764	
-0.002303465	0.005991354	0.1028151	0.1661279	-0.003146662	-0.0007606764	-0.5432193	0.1340308	

3.966e+10	-0.3886234	0.2062868	-0.004538223	0.006615515	0.1557151	0.1500418	-0.0004272367	0.005855635	
-0.004538223	0.006615515	-0.363596	0.1770235	-0.005717362	0.0006211043	0.1012438	0.1814219	
0.1557151	0.1500418	-0.005717362	0.0006211043	-0.6262887	0.1760418	-0.0030042	-4.24737e-05	
-0.0004272367	0.005855635	0.1012438	0.1814219	-0.0030042	-4.24737e-05	-0.5535568	0.1292242	

3.968e+10	-0.3872816	0.2179549	-0.002722168	0.006591409	0.1481194	0.1538597	0.001118742	0.005204722	
-0.002722168	0.006591409	-0.3679687	0.1836228	-0.004905965	0.00156192	0.1031457	0.1960975	
0.1481194	0.1538597	-0.004905965	0.00156192	-0.6244761	0.1880648	-0.002784459	0.0005594228	
0.001118742	0.005204722	0.1031457	0.1960975	-0.002784459	0.0005594228	-0.5646793	0.1268418	

3.97e+10	-0.3833573	0.2288897	-0.001238348	0.006219924	0.1413491	0.1589929	0.002240696	0.00423462	
-0.001238348	0.006219924	-0.3711245	0.1906502	-0.00406481	0.002191421	0.10796	0.2093749	
0.1413491	0.1589929	-0.00406481	0.002191421	-0.6200424	0.1989545	-0.002511423	0.001087831	
0.002240696	0.00423462	0.10796	0.2093749	-0.002511423	0.001087831	-0.5761364	0.1267772	

3.972e+10	-0.3772404	0.2384815	-7.618745e-05	0.005654087	0.1354077	0.165377	0.002927099	0.003123811	
-7.618745e-05	0.005654087	-0.3731035	0.1979652	-0.003260867	0.002577126	0.1149893	0.2208359	
0.1354077	0.165377	-0.003260867	0.002577126	-0.613475	0.2080079	-0.00217436	0.001567045	
0.002927099	0.003123811	0.1149893	0.2208359	-0.00217436	0.001567045	-0.5874451	0.1289432	

3.974e+10	-0.3694986	0.2462386	0.0008006282	0.004997372	0.1304586	0.1730302	0.003216409	0.002017336	
0.0008006282	0.004997372	-0.3739655	0.2054193	-0.002532185	0.002779909	0.1235856	0.2302834	
0.1304586	0.1730302	-0.002532185	0.002779909	-0.6053366	0.2145988	-0.001754872	0.001992614	
0.003216409	0.002017336	0.1235856	0.2302834	-0.001754872	0.001992614	-0.5979886	0.133228	

3.976e+10	-0.36065	0.2519674	0.00143942	0.004314733	0.1267343	0.1820144	0.00317729	0.001019015	
0.00143942	0.004314733	-0.3737534	0.2129259	-0.00189055	0.002856309	0.1332137	0.2377534	
0.1267343	0.1820144	-0.00189055	0.002856309	-0.5963513	0.2185877	-0.001236556	0.002339396	
0.00317729	0.001019015	0.1332137	0.2377534	-0.001236556	0.002339396	-0.6074957	0.1394699	

3.978e+10	-0.351526	0.2553986	0.001883627	0.003646649	0.1247097	0.1922784	0.0028915	0.0002013161	
0.001883627	0.003646649	-0.3726491	0.2202085	-0.001332392	0.00284694	0.143457	0.2433182	
0.1247097	0.1922784	-0.001332392	0.00284694	-0.5876792	0.2194905	-0.000628243	0.002563541	
0.0028915	0.0002013161	0.143457	0.2433182	-0.000628243	0.002563541	-0.6158423	0.1469415	

3.98e+10	-0.3426972	0.256837	0.00217015	0.003019305	0.1248638	0.203496	0.002449185	-0.0003954225	
0.00217015	0.003019305	-0.3706345	0.2273921	-0.0008466341	0.002779623	0.1539799	0.2471002	
0.1248638	0.203496	-0.0008466341	0.002779623	-0.5802932	0.2177712	3.73723e-05	0.002623934	
0.002449185	-0.0003954225	0.1539799	0.2471002	3.73723e-05	0.002623934	-0.6229144	0.155541	

3.982e+10	-0.334734	0.2566648	0.002334426	0.002448222	0.1275922	0.2151633	0.001941664	-0.0007630024	
0.002334426	0.002448222	-0.3677621	0.2343805	-0.0004214605	0.002670952	0.164511	0.2492668	
0.1275922	0.2151633	-0.0004214605	0.002670952	-0.5750135	0.2141884	0.0007039529	0.002496863	
0.001941664	-0.0007630024	0.164511	0.2492668	0.0007039529	0.002496863	-0.6285794	0.1651393	

3.984e+10	-0.328038	0.2553706	0.002406282	0.001943151	0.1330807	0.2265316	0.001449695	-0.0009215315	
0.002406282	0.001943151	-0.3640321	0.2411304	-5.049983e-05	0.002531096	0.1748414	0.2499964	
0.1330807	0.2265316	-5.049983e-05	0.002531096	-0.5723508	0.2095639	0.001303293	0.002187597	
0.001449695	-0.0009215315	0.1748414	0.2499964	0.001303293	0.002187597	-0.6328195	0.1752585	

3.986e+10	-0.3226849	0.2535634	0.002412398	0.001506966	0.1412679	0.2368851	0.001034678	-0.0009160178	
0.002412398	0.001506966	-0.3595851	0.2474133	0.0002743178	0.002367964	0.1848596	0.2494863	
0.1412679	0.2368851	0.0002743178	0.002367964	-0.5722596	0.2052367	0.001780535	0.001729742	
0.001034678	-0.0009160178	0.1848596	0.2494863	0.001780535	0.001729742	-0.6356178	0.1859881	

3.988e+10	-0.3185345	0.2518343	0.002376306	0.001137668	0.1518063	0.2454599	0.0007357979	-0.0008037708	
0.002376306	0.001137668	-0.3543636	0.2533254	0.0005581504	0.002187	0.1945127	0.2478841	
0.1518063	0.2454599	0.0005581504	0.002187	-0.5745259	0.2018718	0.002093864	0.0011768	
0.0007357979	-0.0008037708	0.1945127	0.2478841	0.002093864	0.0011768	-0.6370637	0.1968387	

3.99e+10	-0.3152079	0.2506379	0.002319653	0.0008309671	0.1641288	0.2517539	0.0005580545	-0.0006466036	
0.002319653	0.0008309671	-0.3484549	0.2587854	0.0008053781	0.00198968	0.2037737	0.2452898	
0.1641288	0.2517539	0.0008053781	0.00198968	-0.5785232	0.2002186	0.002237853	0.0005903054	
0.0005580545	-0.0006466036	0.2037737	0.2452898	0.002237853	0.0005903054	-0.6372759	0.2078016	

3.992e+10	-0.3121909	0.2502016	0.002259795	0.0005758045	0.1775128	0.255436	0.000492514	-0.0004917925	
0.002259795	0.0005758045	-0.3418029	0.2637944	0.001017809	0.001778563	0.2125883	0.2417543	
0.1775128	0.255436	0.001017809	0.001778563	-0.5833093	0.2008495	0.002220987	2.238166e-05	
0.000492514	-0.0004917925	0.2125883	0.2417543	0.002220987	2.238166e-05	-0.6362595	0.2187091	

3.994e+10	-0.3091487	0.2503437	0.002209792	0.0003598518	0.1912953	0.2565395	0.0005146438	-0.000377684	
0.002209792	0.0003598518	-0.3344301	0.2682167	0.001197749	0.001555365	0.220928	0.2373644	
0.1912953	0.2565395	0.001197749	0.001555365	-0.5881434	0.203548	0.002070785	-0.0004866516	
0.0005146438	-0.000377684	0.220928	0.2373644	0.002070785	-0.0004866516	-0.6340363	0.2295179	

3.996e+10	-0.3055723	0.2510893	0.002178699	0.0001684374	0.2049352	0.2552253	0.0005932864	-0.0003270525	
0.002178699	0.0001684374	-0.3263976	0.2719442	0.00134488	0.001321517	0.2287444	0.2321634	
0.2049352	0.2552253	0.00134488	0.001321517	-0.5922926	0.2082306	0.001820574	-0.0009110396	
0.0005932864	-0.0003270525	0.2287444	0.2321634	0.001820574	-0.0009110396	-0.6305923	0.2401695	

3.998e+10	-0.3014325	0.2519473	0.002171648	-1.496866e-05	0.2180789	0.2517483	0.0006947244	-0.0003497139	
0.002171648	-1.496866e-05	-0.3176931	0.2749034	0.001457802	0.001080214	0.236048	0.2261959	
0.2180789	0.2517483	0.001457802	0.001080214	-0.5953799	0.21435	0.001506617	-0.001240503	
0.0006947244	-0.0003497139	0.236048	0.2261959	0.001506617	-0.001240503	-0.6259971	0.2505077	

4e+10	-0.2964155	0.2528051	0.002188617	-0.0002082227	0.2304622	0.2463031	0.0007891555	-0.0004425818	
0.002188617	-0.0002082227	-0.3082941	0.2770052	0.001536423	0.0008348694	0.2428109	0.2194427	
0.2304622	0.2463031	0.001536423	0.0008348694	-0.5970711	0.2216929	0.001157098	-0.001478303	
0.0007891555	-0.0004425818	0.2428109	0.2194427	0.001157098	-0.001478303	-0.6202013	0.2605812	

4.002e+10	-0.2905494	0.2532839	0.00222246	-0.0004280185	0.2418418	0.2391387	0.0008534571	-0.0005911601	
0.00222246	-0.0004280185	-0.2982534	0.2781258	0.001584685	0.0005935614	0.2489397	0.2118943	
0.2418418	0.2391387	0.001584685	0.0005935614	-0.597278	0.2296324	0.0007855043	-0.001630336	
0.0008534571	-0.0005911601	0.2489397	0.2118943	0.0007855043	-0.001630336	-0.6132454	0.2702178	

4.004e+10	-0.2838283	0.2530596	0.002262438	-0.0006916535	0.2521223	0.2304292	0.0008716561	-0.0007846499	
0.002262438	-0.0006916535	-0.2876048	0.2780279	0.001602745	0.0003545863	0.2543574	0.2035237	
0.2521223	0.2304292	0.001602745	0.0003545863	-0.5958783	0.2379725	0.0004118079	-0.00170312	
0.0008716561	-0.0007846499	0.2543574	0.2035237	0.0004118079	-0.00170312	-0.6051164	0.2792187	

4.006e+10	-0.2763575	0.2518189	0.00228961	-0.001012274	0.2611853	0.2203205	0.0008316519	-0.00100762	
0.00228961	-0.001012274	-0.2764093	0.2765058	0.001592359	0.0001203394	0.2589238	0.1943349	
0.2611853	0.2203205	0.001592359	0.0001203394	-0.5928823	0.2463076	4.725899e-05	-0.001702544	
0.0008316519	-0.00100762	0.2589238	0.1943349	4.725899e-05	-0.001702544	-0.5956665	0.2875718	

4.008e+10	-0.2683373	0.2492672	0.002280054	-0.001400067	0.2689117	0.2089353	0.0007239995	-0.001242908	
0.002280054	-0.001400067	-0.2648366	0.2732901	0.001553335	-0.000108222	0.2625005	0.1843379	
0.2689117	0.2089353	0.001553335	-0.000108222	-0.5883787	0.2543704	-0.0002977385	-0.001633487	
0.0007239995	-0.001242908	0.2625005	0.1843379	-0.0002977385	-0.001633487	-0.5849322	0.2950862	

4.01e+10	-0.2600478	0.2450566	0.002200683	-0.001860117	0.2751676	0.1962824	0.0005423699	-0.001471423	
0.002200683	-0.001860117	-0.2530747	0.2680872	0.00148606	-0.0003292612	0.2648767	0.1735154	
0.2751676	0.1962824	0.00148606	-0.0003292612	-0.5824524	0.2618867	-0.0006132333	-0.001501933	
0.0005423699	-0.001471423	0.2648767	0.1735154	-0.0006132333	-0.001501933	-0.5728707	0.3015295	

4.012e+10	-0.2518844	0.2389459	0.0020116	-0.002382177	0.2797263	0.1824348	0.0002864444	-0.001671027	
0.0020116	-0.002382177	-0.2415169	0.2606319	0.001389378	-0.0005410257	0.2658433	0.1619532	
0.2797263	0.1824348	0.001389378	-0.0005410257	-0.575173	0.2686966	-0.0008885196	-0.001315798	
0.0002864444	-0.001671027	0.2658433	0.1619532	-0.0008885196	-0.001315798	-0.5594675	0.3066804	

4.014e+10	-0.2443998	0.2306331	0.001666585	-0.002941365	0.282279	0.1674918	-3.863173e-05	-0.00181849	
0.001666585	-0.002941365	-0.2306887	0.2506086	0.001260508	-0.0007404529	0.2650487	0.1497559	
0.282279	0.1674918	0.001260508	-0.0007404529	-0.5666464	0.2745379	-0.001114279	-0.001085483	
-3.863173e-05	-0.00181849	0.2650487	0.1497559	-0.001114279	-0.001085483	-0.5447444	0.3102129	

4.016e+10	-0.2381555	0.2201487	0.001122621	-0.0034861	0.2824295	0.1515897	-0.0004234192	-0.001892717	
0.001122621	-0.0034861	-0.2212084	0.237882	0.001094715	-0.0009222279	0.2621668	0.1371624	
0.2824295	0.1515897	0.001094715	-0.0009222279	-0.556903	0.2792411	-0.001286028	-0.0008227658	
-0.0004234192	-0.001892717	0.2621668	0.1371624	-0.001286028	-0.0008227658	-0.5288308	0.3116295	

4.018e+10	-0.2341148	0.2074918	0.0003529618	-0.00393701	0.2797188	0.1350407	-0.0008519976	-0.001871269	
0.0003529618	-0.00393701	-0.214092	0.2223968	0.0008883141	-0.001073787	0.2568508	0.1245595	
0.2797188	0.1350407	0.0008883141	-0.001073787	-0.5460796	0.2825773	-0.001400741	-0.000539097	
-0.0008519976	-0.001871269	0.2568508	0.1245595	-0.001400741	-0.000539097	-0.5117217	0.3106426	

4.02e+10	-0.2331092	0.1932562	-0.0006362715	-0.004188852	0.2736471	0.1183667	-0.001299731	-0.001730451	
-0.0006362715	-0.004188852	-0.2103559	0.2045622	0.0006446699	-0.001175419	0.2487835	0.1124817	
0.2736471	0.1183667	0.0006446699	-0.001175419	-0.5344305	0.2841617	-0.001456895	-0.0002458923	
-0.001299731	-0.001730451	0.2487835	0.1124817	-0.001456895	-0.0002458923	-0.4938482	0.3065569	

4.022e+10	-0.2361288	0.1782591	-0.001780264	-0.004125797	0.2638093	0.1023832	-0.0017266	-0.001451873	
-0.001780264	-0.004125797	-0.2111046	0.1852642	0.0003830859	-0.001206544	0.2378324	0.1016895	
0.2638093	0.1023832	0.0003830859	-0.001206544	-0.5220917	0.2839448	-0.001456573	4.602912e-05	
-0.0017266	-0.001451873	0.2378324	0.1016895	-0.001456573	4.602912e-05	-0.475713	0.2988772	

4.024e+10	-0.2435366	0.1640202	-0.002950045	-0.003656031	0.2499818	0.08818454	-0.002076434	-0.00103301	
-0.002950045	-0.003656031	-0.2170817	0.1659715	0.0001352388	-0.001160144	0.2240261	0.09309712	
0.2499818	0.08818454	0.0001352388	-0.001160144	-0.5092801	0.2816018	-0.00140216	0.0003270668	
-0.002076434	-0.00103301	0.2240261	0.09309712	-0.00140216	0.0003270668	-0.4581376	0.2869437	

4.026e+10	-0.2550993	0.1523112	-0.003957561	-0.002760833	0.2323631	0.07709878	-0.002287757	-0.000502996	
-0.003957561	-0.002760833	-0.2284081	0.1486135	-6.297753e-05	-0.001049512	0.2077565	0.08772985	
0.2323631	0.07709878	-6.297753e-05	-0.001049512	-0.4962401	0.2768848	-0.001298191	0.0005886125	
-0.002287757	-0.000502996	0.2077565	0.08772985	-0.001298191	0.0005886125	-0.4423649	0.2703387	

4.028e+10	-0.2699397	0.1445584	-0.004611436	-0.001524194	0.2117649	0.07049406	-0.002314906	7.436659e-05	
-0.004611436	-0.001524194	-0.2444674	0.1350089	-0.0001906671	-0.0009110828	0.1898999	0.08661444	
0.2117649	0.07049406	-0.0001906671	-0.0009110828	-0.4834166	0.2692873	-0.001150481	0.0008227525	
-0.002314906	7.436659e-05	0.1898999	0.08661444	-0.001150481	0.0008227525	-0.4300415	0.2489856	

4.03e+10	-0.2861536	0.141799	-0.004785039	-0.0001370015	0.1895947	0.06940806	-0.00215119	0.0006140006	
-0.004785039	-0.0001370015	-0.2635151	0.1267646	-0.0002524537	-0.0007848891	0.1718668	0.09039669	
0.1895947	0.06940806	-0.0002524537	-0.0007848891	-0.4714523	0.2585406	-0.000965771	0.001023061	
-0.00215119	0.0006140006	0.1718668	0.09039669	-0.000965771	0.001023061	-0.4230307	0.2237942	

4.032e+10	-0.3017149	0.1441693	-0.004473059	0.001178493	0.1675529	0.07430519	-0.001834373	0.001042069	
-0.004473059	0.001178493	-0.2834091	0.1245259	-0.0002787008	-0.000695745	0.1552626	0.09913047	
0.1675529	0.07430519	-0.0002787008	-0.000695745	-0.4613522	0.2442734	-0.0007498164	0.001187009	
-0.001834373	0.001042069	0.1552626	0.09913047	-0.0007498164	0.001187009	-0.4230796	0.1962973	

4.034e+10	-0.3149612	0.1505663	-0.003781218	0.002241554	0.1475044	0.08503476	-0.001432332	0.001311111	
-0.003781218	0.002241554	-0.3021227	0.1277459	-0.0003020724	-0.0006448555	0.1417172	0.1122231	
0.1475044	0.08503476	-0.0003020724	-0.0006448555	-0.4544439	0.2266764	-0.0005111416	0.001310335	
-0.001432332	0.001311111	0.1417172	0.1122231	-0.0005111416	0.001310335	-0.4309515	0.1692352	

4.036e+10	-0.3249568	0.1594761	-0.00287211	0.002958617	0.1312216	0.1007372	-0.001023596	0.001413003	
-0.00287211	0.002958617	-0.3181437	0.1351751	-0.0003438826	-0.0006122906	0.1325539	0.1283775	
0.1312216	0.1007372	-0.0003438826	-0.0006122906	-0.4521711	0.2066384	-0.0002553992	0.001394302	
-0.001023596	0.001413003	0.1325539	0.1283775	-0.0002553992	0.001394302	-0.4464228	0.1452239	

4.038e+10	-0.3315477	0.1695155	-0.001904103	0.003328791	0.120012	0.1199659	-0.0006764853	0.001377226	
-0.001904103	0.003328791	-0.3307112	0.1455164	-0.0004039214	-0.0005749352	0.1283702	0.1458946	
0.120012	0.1199659	-0.0004039214	-0.0005749352	-0.4557413	0.1856136	1.609356e-05	0.00144071	
-0.0006764853	0.001377226	0.1283702	0.1458946	1.609356e-05	0.00144071	-0.4677396	0.1269067	

4.04e+10	-0.3354046	0.1794657	-0.000990409	0.003411232	0.1145992	0.1409388	-0.0004333142	0.00125701	
-0.000990409	0.003411232	-0.339953	0.1572964	-0.0004705151	-0.0005209121	0.1290345	0.1630873	
0.1145992	0.1409388	-0.0004705151	-0.0005209121	-0.4654888	0.1658446	0.0003070738	0.001446158	
-0.0004333142	0.00125701	0.1290345	0.1630873	0.0003070738	0.001446158	-0.4924835	0.1156923	

4.042e+10	-0.3371499	0.188813	-0.0001964662	0.00328463	0.114915	0.1617071	-0.0003073269	0.001113466	
-0.0001964662	0.00328463	-0.3459841	0.1697205	-0.0005316784	-0.0004523338	0.1337755	0.1785808	
0.114915	0.1617071	-0.0005316784	-0.0004523338	-0.4806406	0.1495189	0.0006210225	0.00139753	
-0.0003073269	0.001113466	0.1337755	0.1785808	0.0006210225	0.00139753	-0.5180303	0.1116236	

4.044e+10	-0.3376137	0.1973645	0.0004636422	0.003024267	0.1202193	0.1806913	-0.0002854275	0.001002665	
0.0004636422	0.003024267	-0.3494187	0.1820509	-0.0005849713	-0.0003758333	0.1415085	0.1915732	
0.1202193	0.1806913	-0.0005849713	-0.0003758333	-0.4995992	0.1382695	0.00095129	0.001273654	
-0.0002854275	0.001002665	0.1415085	0.1915732	0.00095129	0.001273654	-0.5421733	0.1139574	

4.046e+10	-0.3370673	0.2053432	0.0009959432	0.002681735	0.1293636	0.1967875	-0.0003333365	0.0009691784	
0.0009959432	0.002681735	-0.350518	0.1940555	-0.0006362645	-0.0002906333	0.1511382	0.2017588	
0.1293636	0.1967875	-0.0006362645	-0.0002906333	-0.5203189	0.1327243	0.001275256	0.001050156	
-0.0003333365	0.0009691784	0.1511382	0.2017588	0.001275256	0.001050156	-0.5633306	0.1213848	

4.048e+10	-0.3358534	0.2128103	0.001415877	0.002286871	0.1410582	0.2095215	-0.0004007439	0.001040173	
0.001415877	0.002286871	-0.349817	0.2053185	-0.0006846236	-0.0001872918	0.1617562	0.209273	
0.1410582	0.2095215	-0.0006846236	-0.0001872918	-0.5409913	0.1325799	0.001552068	0.0007129856	
-0.0004007439	0.001040173	0.1617562	0.209273	0.001552068	0.0007129856	-0.5809381	0.1321992	

4.05e+10	-0.3339575	0.2200372	0.001732764	0.001855952	0.1541792	0.2188548	-0.0004268878	0.001217637	
0.001732764	0.001855952	-0.347583	0.2158467	-0.0007190359	-5.595803e-05	0.1726987	0.2143951	
0.1541792	0.2188548	-0.0007190359	-5.595803e-05	-0.5601685	0.137176	0.001727283	0.0002702722	
-0.0004268878	0.001217637	0.1726987	0.2143951	0.001727283	0.0002702722	-0.5948445	0.1451175	

4.052e+10	-0.3314151	0.2269246	0.001945712	0.001404893	0.1678005	0.2250233	-0.0003533429	0.001471779	
0.001945712	0.001404893	-0.3440708	0.2254968	-0.0007182719	0.0001015858	0.1835671	0.2174994	
0.1678005	0.2250233	-0.0007182719	0.0001015858	-0.5769822	0.1453562	0.001746826	-0.0002375214	
-0.0003533429	0.001471779	0.1835671	0.2174994	0.001746826	-0.0002375214	-0.6054129	0.1588271	

4.054e+10	-0.328146	0.2336325	0.002056393	0.0009544585	0.1812938	0.2284818	-0.0001407761	0.00174473	
0.002056393	0.0009544585	-0.3394702	0.2343597	-0.0006641691	0.0002684766	0.1941235	0.2189311	
0.1812938	0.2284818	-0.0006641691	0.0002684766	-0.5909435	0.1562444	0.001580993	-0.0007390438	
-0.0001407761	0.00174473	0.1941235	0.2189311	0.001580993	-0.0007390438	-0.6130757	0.1727897	

4.056e+10	-0.3241519	0.2400349	0.00207265	0.0005302386	0.1942564	0.2296761	0.0002131978	0.001963157	
0.00207265	0.0005302386	-0.3340182	0.2423223	-0.0005517048	0.000417251	0.2042771	0.2189684	
0.1942564	0.2296761	-0.0005517048	0.000417251	-0.6020314	0.16877	0.001241616	-0.001150635	
0.0002131978	0.001963157	0.2042771	0.2189684	0.001241616	-0.001150635	-0.6184227	0.186595	

4.058e+10	-0.319467	0.2460227	0.0020139	0.0001542682	0.2064811	0.2290228	0.0006736935	0.002062143	
0.0020139	0.0001542682	-0.32781	0.2494532	-0.0003932824	0.0005226622	0.2139966	0.2178026	
0.2064811	0.2290228	-0.0003932824	0.0005226622	-0.6103465	0.1823002	0.0007824956	-0.001403964	
0.0006736935	0.002062143	0.2139966	0.2178026	0.0007824956	-0.001403964	-0.6219691	0.2000517	

4.06e+10	-0.3140764	0.2516227	0.001907033	-0.0001631552	0.2178493	0.2268856	0.001179744	0.002003687	
0.001907033	-0.0001631552	-0.3209828	0.2557789	-0.0002104002	0.0005700083	0.2232368	0.2155547	
0.2178493	0.2268856	-0.0002104002	0.0005700083	-0.6162042	0.196182	0.000283598	-0.001466225	
0.001179744	0.002003687	0.2232368	0.2155547	0.000283598	-0.001466225	-0.6241011	0.2130693	

4.062e+10	-0.307969	0.2567723	0.001779183	-0.0004231064	0.2283709	0.2235436	0.001662546	0.001785109	
0.001779183	-0.0004231064	-0.31356	0.2613411	-2.758692e-05	0.0005572776	0.2319813	0.2123112	
0.2283709	0.2235436	-2.758692e-05	0.0005572776	-0.6198581	0.2101722	-0.0001720635	-0.001346148	
0.001662546	0.001785109	0.2319813	0.2123112	-0.0001720635	-0.001346148	-0.6250733	0.2257799	

4.064e+10	-0.3012596	0.2613276	0.001651455	-0.0006401924	0.2380631	0.2192018	0.002065674	0.001433596	
0.001651455	-0.0006401924	-0.3056139	0.2661347	0.000135693	0.0004933701	0.2401742	0.2081335	
0.2380631	0.2192018	0.000135693	0.0004933701	-0.6216573	0.223933	-0.0005191964	-0.001088518	
0.002065674	0.001433596	0.2401742	0.2081335	-0.0005191964	-0.001088518	-0.6249769	0.2382806	

4.066e+10	-0.293902	0.2652815	0.001534487	-0.0008327769	0.2469379	0.2139948	0.002354602	0.0009944775	
0.001534487	-0.0008327769	-0.2971477	0.2700994	0.0002678263	0.000392148	0.2477474	0.2030896	
0.2469379	0.2139948	0.0002678263	0.000392148	-0.6218106	0.237322	-0.0007230382	-0.0007579393	
0.002354602	0.0009944775	0.2477474	0.2030896	-0.0007230382	-0.0007579393	-0.6238281	0.2506508	

4.068e+10	-0.2859275	0.2685977	0.00142902	-0.001020853	0.2550388	0.2080268	0.002520466	0.0005167815	
0.00142902	-0.001020853	-0.2881084	0.2733091	0.0003656473	0.0002674664	0.2546126	0.1972346	
0.2550388	0.2080268	0.0003656473	0.0002674664	-0.6204476	0.2504252	-0.0007830091	-0.0004205499	
0.002520466	0.0005167815	0.2546126	0.1972346	-0.0007830091	-0.0004205499	-0.6215796	0.2629491	

4.07e+10	-0.2773664	0.2711435	0.001326554	-0.001222567	0.2623612	0.2013677	0.0025743	3.929165e-05	
0.001326554	-0.001222567	-0.2785607	0.2755625	0.0004324488	0.0001291076	0.2607181	0.1906701	
0.2623612	0.2013677	0.0004324488	0.0001291076	-0.617752	0.2631113	-0.0007250764	-0.000128242	
0.0025743	3.929165e-05	0.2607181	0.1906701	-0.0007250764	-0.000128242	-0.6181597	0.2752224	

4.072e+10	-0.2682771	0.2728103	0.001212304	-0.001450363	0.2689223	0.1940599	0.002537221	-0.0004116627	
0.001212304	-0.001450363	-0.2685098	0.2767905	0.000472005	-1.881988e-05	0.2660089	0.1834456	
0.2689223	0.1940599	0.000472005	-1.881988e-05	-0.6138029	0.2753391	-0.0005892545	8.827498e-05	
0.002537221	-0.0004116627	0.2660089	0.1834456	-0.0005892545	8.827498e-05	-0.613564	0.2872838	

4.074e+10	-0.2586816	0.2735481	0.001065846	-0.001711089	0.2746955	0.1861367	0.00243342	-0.0008238567	
0.001065846	-0.001711089	-0.2581296	0.2768101	0.0004875227	-0.0001762979	0.2704087	0.1756323	
0.2746955	0.1861367	0.0004875227	-0.0001762979	-0.6087032	0.2869532	-0.0004164223	0.0002199262	
0.00243342	-0.0008238567	0.2704087	0.1756323	-0.0004164223	0.0002199262	-0.607749	0.2990496	

4.076e+10	-0.2486181	0.273132	0.0008613891	-0.002006192	0.2796177	0.1776151	0.002283383	-0.001198701	
0.0008613891	-0.002006192	-0.2473812	0.2755173	0.0004792981	-0.0003482049	0.2738144	0.1673011	
0.2796177	0.1776151	0.0004792981	-0.0003482049	-0.6023384	0.2982176	-0.0002409796	0.0002753657	
0.002283383	-0.001198701	0.2738144	0.1673011	-0.0002409796	0.0002753657	-0.6006041	0.3105261	

4.078e+10	-0.238049	0.2715384	0.0005678798	-0.002324951	0.2836065	0.1685271	0.002098797	-0.001542904	
0.0005678798	-0.002324951	-0.2364912	0.2727242	0.000440444	-0.0005407695	0.2761196	0.158545	
0.2836065	0.1685271	0.000440444	-0.0005407695	-0.5948073	0.3088458	-8.486368e-05	0.0002714643	
0.002098797	-0.001542904	0.2761196	0.158545	-8.486368e-05	0.0002714643	-0.5919732	0.3216828	

4.08e+10	-0.2273016	0.2684045	0.0001533002	-0.002642657	0.2866169	0.1589267	0.001883613	-0.00186386	
0.0001533002	-0.002642657	-0.2257232	0.268245	0.0003568627	-0.0007589906	0.2772275	0.1495026	
0.2866169	0.1589267	0.0003568627	-0.0007589906	-0.5861332	0.3187744	4.155789e-05	0.0002271904	
0.001883613	-0.00186386	0.2772275	0.1495026	4.155789e-05	0.0002271904	-0.5818933	0.3321753	

4.082e+10	-0.2163892	0.2636241	-0.0004127747	-0.002915626	0.2885359	0.1488544	0.001637549	-0.002166564	
-0.0004127747	-0.002915626	-0.2153413	0.2619743	0.0002035197	-0.00100051	0.2770083	0.1403399	
0.2885359	0.1488544	0.0002035197	-0.00100051	-0.5763818	0.3278298	0.0001353838	0.0001597747	
0.001637549	-0.002166564	0.2770083	0.1403399	0.0001353838	0.0001597747	-0.5702717	0.3418415	

4.084e+10	-0.2056328	0.2569474	-0.001144606	-0.003077753	0.2892097	0.1383551	0.00135807	-0.00245386	
-0.001144606	-0.003077753	-0.2058455	0.2538354	-4.938392e-05	-0.001249124	0.2753746	0.131288	
0.2892097	0.1383551	-4.938392e-05	-0.001249124	-0.5654521	0.3361415	0.0002011035	8.229411e-05	
0.00135807	-0.00245386	0.2753746	0.131288	0.0002011035	8.229411e-05	-0.5568797	0.3506859	

4.086e+10	-0.1953985	0.248129	-0.002029423	-0.003044142	0.2884785	0.127529	0.001041889	-0.002728009	
-0.002029423	-0.003044142	-0.1976366	0.2439738	-0.0004323832	-0.001466277	0.2722945	0.1226197	
0.2884785	0.127529	-0.0004323832	-0.001466277	-0.5533808	0.3435119	0.0002463889	3.914847e-06	
0.001041889	-0.002728009	0.2722945	0.1226197	0.0002463889	3.914847e-06	-0.5417631	0.3581774	

4.088e+10	-0.1861402	0.2370523	-0.003011323	-0.002722849	0.2861106	0.1165266	0.0006833921	-0.002993689	
-0.003011323	-0.002722849	-0.1912049	0.2326111	-0.0009601758	-0.001588566	0.2677822	0.1146665	
0.2861106	0.1165266	-0.0009601758	-0.001588566	-0.5400703	0.3497884	0.0002832514	-7.349119e-05	
0.0006833921	-0.002993689	0.2677822	0.1146665	0.0002832514	-7.349119e-05	-0.5248143	0.3638054	

4.09e+10	-0.1785809	0.2236244	-0.003981655	-0.002041902	0.2819041	0.1056465	0.0002700415	-0.003257426	
-0.003981655	-0.002041902	-0.1869984	0.2201891	-0.001612412	-0.001536553	0.2620233	0.1077682	
0.2819041	0.1056465	-0.001612412	-0.001536553	-0.5254573	0.3548258	0.0003239889	-0.00015795	
0.0002700415	-0.003257426	0.2620233	0.1077682	0.0003239889	-0.00015795	-0.5059338	0.3673126	

4.092e+10	-0.1734677	0.2079071	-0.004789669	-0.0009709874	0.2756732	0.09526645	-0.000228485	-0.003521796	
-0.004789669	-0.0009709874	-0.1851799	0.2071852	-0.002327105	-0.001233699	0.255248	0.1022056	
0.2756732	0.09526645	-0.002327105	-0.001233699	-0.5093859	0.3582681	0.00037298	-0.0002704094	
-0.000228485	-0.003521796	0.255248	0.1022056	0.00037298	-0.0002704094	-0.4853038	0.3678319	

4.094e+10	-0.1717514	0.1904148	-0.005259489	0.0004416517	0.267337	0.08590457	-0.0008569206	-0.003768705	
-0.005259489	0.0004416517	-0.1857086	0.194265	-0.002998653	-0.0006313688	0.2478209	0.09812424	
0.267337	0.08590457	-0.002998653	-0.0006313688	-0.491932	0.3595127	0.0004147723	-0.0004379659	
-0.0008569206	-0.003768705	0.2478209	0.09812424	0.0004147723	-0.0004379659	-0.4634292	0.3644209	

4.096e+10	-0.1743609	0.1719432	-0.005236762	0.002062816	0.256981	0.0781454	-0.001667099	-0.003942737	
-0.005236762	0.002062816	-0.1885466	0.1817596	-0.003497702	0.0002672913	0.2400457	0.09554034	
0.256981	0.0781454	-0.003497702	0.0002672913	-0.4729566	0.3582136	0.0004084398	-0.0006793282	
-0.001667099	-0.003942737	0.2400457	0.09554034	0.0004084398	-0.0006793282	-0.4409296	0.3564211	

4.098e+10	-0.181863	0.1539584	-0.00463337	0.003684229	0.2449486	0.07263149	-0.002685167	-0.003940739	
-0.00463337	0.003684229	-0.1934513	0.1700708	-0.003694662	0.00140052	0.2321943	0.09442596	
0.2449486	0.07263149	-0.003694662	0.00140052	-0.4530601	0.3533331	0.0002964136	-0.0009838167	
-0.002685167	-0.003940739	0.2321943	0.09442596	0.0002964136	-0.0009838167	-0.4191196	0.3430454	

4.1e+10	-0.1942782	0.1381685	-0.003460864	0.005063938	0.2317748	0.06987983	-0.003878003	-0.003616296	
-0.003460864	0.005063938	-0.2003912	0.1593412	-0.003489419	0.002652455	0.2244239	0.09473576	
0.2317748	0.06987983	-0.003489419	0.002652455	-0.4328033	0.3441439	2.422888e-05	-0.001299674	
-0.003878003	-0.003616296	0.2244239	0.09473576	2.422888e-05	-0.001299674	-0.3996431	0.3238556	

4.102e+10	-0.2108462	0.1263389	-0.001852184	0.005976053	0.2181969	0.07022763	-0.005109961	-0.002829001	
-0.001852184	0.005976053	-0.2093292	0.1499756	-0.002828967	0.003863878	0.2168776	0.09650572	
0.2181969	0.07022763	-0.002828967	0.003863878	-0.4133071	0.3299387	-0.0004335796	-0.001540444	
-0.005109961	-0.002829001	0.2168776	0.09650572	-0.0004335796	-0.001540444	-0.3844703	0.2991942	

4.104e+10	-0.2300431	0.1198039	-3.026096e-05	0.006281927	0.2050651	0.07373903	-0.006146091	-0.001521004	
-3.026096e-05	0.006281927	-0.2203576	0.1424466	-0.001731029	0.004850577	0.2098092	0.09978635	
0.2050651	0.07373903	-0.001731029	0.004850577	-0.3964061	0.3102639	-0.001048912	-0.001602906	
-0.006146091	-0.001521004	0.2098092	0.09978635	-0.001048912	-0.001602906	-0.3758647	0.2700862	

4.106e+10	-0.2496857	0.119201	0.001739479	0.005964006	0.1931376	0.08023334	-0.00672324	0.0002218581	
0.001739479	0.005964006	-0.2330714	0.1375636	-0.0002957796	0.005438563	0.2035142	0.104619	
0.1931376	0.08023334	-0.0002957796	0.005438563	-0.3840131	0.2856095	-0.001738293	-0.001398623	
-0.00672324	0.0002218581	0.2035142	0.104619	-0.001738293	-0.001398623	-0.3753753	0.2388642	

4.108e+10	-0.2678713	0.1240009	0.003230515	0.005128185	0.1831199	0.0893373	-0.00665083	0.002159702	
0.003230515	0.005128185	-0.2467334	0.1360356	0.001293812	0.005510141	0.1984191	0.1109245	
0.1831199	0.0893373	0.001293812	0.005510141	-0.378172	0.257295	-0.002366331	-0.000893218	
-0.00665083	0.002159702	0.1984191	0.1109245	-0.002366331	-0.000893218	-0.3837355	0.2083514	

4.11e+10	-0.2829717	0.1330961	0.004302602	0.003957693	0.1755993	0.1005707	-0.0058997	0.003982395	
0.004302602	0.003957693	-0.2602522	0.1380292	0.002815164	0.005046033	0.1950165	0.1185066	
0.1755993	0.1005707	0.002815164	0.005046033	-0.3803083	0.2275197	-0.002791346	-0.0001262661	
-0.0058997	0.003982395	0.1950165	0.1185066	-0.002791346	-0.0001262661	-0.4003274	0.1815966	

4.112e+10	-0.2942233	0.1449034	0.004923213	0.002653982	0.1710523	0.1132772	-0.00460178	0.005426233	
0.004923213	0.002653982	-0.272445	0.143401	0.00406859	0.004138782	0.1936952	0.1268762	
0.1710523	0.1132772	0.00406859	0.004138782	-0.3907518	0.1991839	-0.002909358	0.0007926366	
-0.00460178	0.005426233	0.1936952	0.1268762	-0.002909358	0.0007926366	-0.4232233	0.1611902	

4.114e+10	-0.3014807	0.1580125	0.005144909	0.001383195	0.1698269	0.1266127	-0.002986672	0.006344126	
0.005144909	0.001383195	-0.2824313	0.1514383	0.00493349	0.002958366	0.1947095	0.1353821	
0.1698269	0.1266127	0.00493349	0.002958366	-0.4086046	0.1750437	-0.00268982	0.001714925	
-0.002986672	0.006344126	0.1947095	0.1353821	-0.00268982	0.001714925	-0.4497991	0.1484085	

4.116e+10	-0.3051669	0.1711817	0.005069518	0.0002483931	0.1718909	0.1396671	-0.001283836	0.006723729	
0.005069518	0.0002483931	-0.2897448	0.1612037	0.005394311	0.001681793	0.1979511	0.1433243	
0.1718909	0.1396671	0.005394311	0.001681793	-0.4318271	0.1572576	-0.002171074	0.002516101	
-0.001283836	0.006723729	0.1979511	0.1433243	-0.002171074	0.002516101	-0.477202	0.1435307	

4.118e+10	-0.3059335	0.1836054	0.004806433	-0.0007134814	0.1769684	0.1515625	0.0003302398	0.006640594	
0.004806433	-0.0007134814	-0.2942834	0.1717587	0.005505502	0.0004467728	0.2031164	0.1501009	
0.1769684	0.1515625	0.005505502	0.0004467728	-0.4578512	0.1467355	-0.001432777	0.003106508	
0.0003302398	0.006640594	0.2031164	0.1501009	-0.001432777	0.003106508	-0.5031224	0.1455042	

4.12e+10	-0.3044193	0.1949089	0.004442802	-0.001516521	0.1844677	0.16166	0.001761955	0.006208003	
0.004442802	-0.001516521	-0.2961459	0.1824753	0.00535587	-0.0006706879	0.2097094	0.1553128	
0.1844677	0.16166	0.00535587	-0.0006706879	-0.4841693	0.1435094	-0.0005673145	0.003443278	
0.001761955	0.006208003	0.2097094	0.1553128	-0.0005673145	0.003443278	-0.5260072	0.1531179	

4.122e+10	-0.301223	0.2049416	0.004029613	-0.002197381	0.1937359	0.1695492	0.002976331	0.005526953	
0.004029613	-0.002197381	-0.2958241	0.1925511	0.005027228	-0.001644608	0.2172369	0.1587664	
0.1937359	0.1695492	0.005027228	-0.001644608	-0.5088797	0.1463996	0.000330394	0.003524749	
0.002976331	0.005526953	0.2172369	0.1587664	0.000330394	0.003524749	-0.5451264	0.1644796	

4.124e+10	-0.2968542	0.2136258	0.00358806	-0.002800678	0.2040764	0.1751001	0.00396875	0.004667885	
0.00358806	-0.002800678	-0.2936444	0.2018162	0.004584397	-0.002481877	0.2252122	0.1604111	
0.2040764	0.1751001	0.004584397	-0.002481877	-0.5307197	0.1543892	0.001199991	0.00337332	
0.00396875	0.004667885	0.2252122	0.1604111	0.001199991	0.00337332	-0.5602871	0.1784872	

4.126e+10	-0.2915912	0.2211694	0.003108364	-0.003357433	0.2149045	0.1783474	0.004747435	0.003687002	
0.003108364	-0.003357433	-0.2900678	0.2099741	0.004068421	-0.003204522	0.2332111	0.1602995	
0.2149045	0.1783474	0.004068421	-0.003204522	-0.549157	0.1656957	0.001981962	0.003019545	
0.004747435	0.003687002	0.2332111	0.1602995	0.001981962	0.003019545	-0.5716726	0.1938342	

4.128e+10	-0.2857364	0.2275293	0.002573214	-0.003886081	0.2257105	0.1794611	0.005321067	0.002609758	
0.002573214	-0.003886081	-0.2855679	0.216915	0.003489711	-0.003837968	0.240853	0.1585601	
0.2257105	0.1794611	0.003489711	-0.003837968	-0.56398	0.1794468	0.00264582	0.002503777	
0.005321067	0.002609758	0.240853	0.1585601	0.00264582	0.002503777	-0.5796584	0.209719	

4.13e+10	-0.2793818	0.2329374	0.001951835	-0.004388634	0.2361307	0.1786879	0.005682244	0.001458741	
0.001951835	-0.004388634	-0.2803065	0.222886	0.00284927	-0.004398239	0.2478238	0.1553692	
0.2361307	0.1786879	0.00284927	-0.004398239	-0.5752124	0.1946987	0.003166956	0.001863619	
0.005682244	0.001458741	0.2478238	0.1553692	0.003166956	0.001863619	-0.5845379	0.2257889	

4.132e+10	-0.2727184	0.2373213	0.00121338	-0.004847135	0.2459162	0.176312	0.005813996	0.0002598533	
0.00121338	-0.004847135	-0.2747513	0.2276982	0.00213503	-0.004888286	0.2538692	0.1509763	
0.2459162	0.176312	0.00213503	-0.004888286	-0.5833498	0.210479	0.003531621	0.001131976	
0.005813996	0.0002598533	0.2538692	0.1509763	0.003531621	0.001131976	-0.5869277	0.2413152	

4.134e+10	-0.2658107	0.2408534	0.000328165	-0.005220396	0.2548883	0.1725658	0.005696943	-0.0009438481	
0.000328165	-0.005220396	-0.2689684	0.2316762	0.001336446	-0.005297522	0.2587771	0.145629	
0.2548883	0.1725658	0.001336446	-0.005297522	-0.5885837	0.2265256	0.003728362	0.0003440255	
0.005696943	-0.0009438481	0.2587771	0.145629	0.003728362	0.0003440255	-0.5871115	0.2562587	

4.136e+10	-0.2587064	0.2436221	-0.0007108626	-0.005441363	0.2629268	0.16769	0.005323885	-0.002091018	
-0.0007108626	-0.005441363	-0.2631046	0.2349949	0.0004471298	-0.00560379	0.2623858	0.1396188	
0.2629268	0.16769	0.0004471298	-0.00560379	-0.5914007	0.2421894	0.003750541	-0.00046209	
0.005323885	-0.002091018	0.2623858	0.1396188	0.003750541	-0.00046209	-0.5855092	0.2704192	

4.138e+10	-0.2515661	0.2455788	-0.001872673	-0.005435554	0.2699948	0.1619087	0.004711752	-0.003115094	
-0.001872673	-0.005435554	-0.257177	0.2378152	-0.0005304159	-0.005776901	0.2646176	0.1333087	
0.2699948	0.1619087	-0.0005304159	-0.005776901	-0.5920723	0.2574404	0.003600431	-0.001249858	
0.004711752	-0.003115094	0.2646176	0.1333087	0.003600431	-0.001249858	-0.5822927	0.2840031	

4.14e+10	-0.2442389	0.2468962	-0.003087352	-0.005142282	0.2760199	0.1554023	0.00390876	-0.003956808	
-0.003087352	-0.005142282	-0.2509795	0.2403446	-0.001577424	-0.005785926	0.2654668	0.1270195	
0.2760199	0.1554023	-0.001577424	-0.005785926	-0.590824	0.2721236	0.003292562	-0.001980092	
0.00390876	-0.003956808	0.2654668	0.1270195	0.003292562	-0.001980092	-0.577553	0.2969493	

4.142e+10	-0.2368553	0.2475088	-0.004261109	-0.004534447	0.2810006	0.1483366	0.002982919	-0.00458068	
-0.004261109	-0.004534447	-0.244418	0.2424635	-0.002659012	-0.005599866	0.2650396	0.1210873	
0.2810006	0.1483366	-0.002659012	-0.005599866	-0.5878814	0.2860941	0.00285191	-0.002623844	
0.002982919	-0.00458068	0.2650396	0.1210873	0.00285191	-0.002623844	-0.5713118	0.3091649	

4.144e+10	-0.2293663	0.2474331	-0.005292603	-0.003632068	0.2849473	0.1408545	0.002003079	-0.004991371	
-0.005292603	-0.003632068	-0.2372646	0.2441551	-0.003738332	-0.005206273	0.2635117	0.1157668	
0.2849473	0.1408545	-0.003738332	-0.005206273	-0.583435	0.2993302	0.002305845	-0.003166628	
0.002003079	-0.004991371	0.2635117	0.1157668	0.002305845	-0.003166628	-0.5634873	0.3206259	

4.146e+10	-0.2218282	0.2466248	-0.00610606	-0.002489351	0.287817	0.1330694	0.001016503	-0.005217298	
-0.00610606	-0.002489351	-0.2294588	0.2451192	-0.004773179	-0.004599755	0.2610474	0.1112385	
0.287817	0.1330694	-0.004773179	-0.004599755	-0.5775295	0.3118784	0.00167626	-0.003604272	
0.001016503	-0.005217298	0.2610474	0.1112385	0.00167626	-0.003604272	-0.5539428	0.3311341	

4.148e+10	-0.2142258	0.2450531	-0.006656969	-0.001163024	0.2896071	0.1250962	4.028883e-05	-0.005294347	
-0.006656969	-0.001163024	-0.2209642	0.2450613	-0.005723334	-0.003779579	0.2578119	0.1076653	
0.2896071	0.1250962	-0.005723334	-0.003779579	-0.5704711	0.3234146	0.0009777336	-0.003930827	
4.028883e-05	-0.005294347	0.2578119	0.1076653	0.0009777336	-0.003930827	-0.5427258	0.3401873	

4.15e+10	-0.2067153	0.2426321	-0.006908035	0.000282286	0.2902595	0.1170721	-0.0009324573	-0.005240083	
-0.006908035	0.000282286	-0.2120444	0.2435855	-0.006544252	-0.002748263	0.253969	0.105239	
0.2902595	0.1170721	-0.006544252	-0.002748263	-0.5621255	0.3341639	0.0002164216	-0.004139246	
-0.0009324573	-0.005240083	0.253969	0.105239	0.0002164216	-0.004139246	-0.5298542	0.3473876	

4.152e+10	-0.1993268	0.2393244	-0.006830396	0.001784278	0.2897503	0.1091582	-0.001914868	-0.005051547	
-0.006830396	0.001784278	-0.2028641	0.2404826	-0.007181785	-0.001518677	0.2497463	0.1041947	
0.2897503	0.1091582	-0.007181785	-0.001518677	-0.5525702	0.3439447	-0.000591191	-0.004216153	
-0.001914868	-0.005051547	0.2497463	0.1041947	-0.000591191	-0.004216153	-0.5155617	0.35222	

4.154e+10	-0.192102	0.2351211	-0.006404663	0.003266155	0.2880625	0.1015559	-0.002909257	-0.004699474	
-0.006404663	0.003266155	-0.1939946	0.2354179	-0.007574545	-0.0001203128	0.2455391	0.1047769	
0.2880625	0.1015559	-0.007574545	-0.0001203128	-0.5417896	0.3526495	-0.001429292	-0.004146262	
-0.002909257	-0.004699474	0.2455391	0.1047769	-0.001429292	-0.004146262	-0.5002679	0.3542094	

4.156e+10	-0.1852243	0.2299614	-0.005632539	0.004629914	0.2852389	0.09448288	-0.003890917	-0.004147755	
-0.005632539	0.004629914	-0.1860636	0.2283806	-0.007667341	0.001383717	0.2419182	0.107062	
0.2852389	0.09448288	-0.007667341	0.001383717	-0.5298526	0.3600875	-0.002268756	-0.003920115	
-0.003890917	-0.004147755	0.2419182	0.107062	-0.002268756	-0.003920115	-0.4848404	0.3527746	

4.158e+10	-0.1787431	0.2238275	-0.004548969	0.005778633	0.2813356	0.08817602	-0.004810552	-0.003360883	
-0.004548969	0.005778633	-0.1796772	0.2196008	-0.007427095	0.002918126	0.2395384	0.110936	
0.2813356	0.08817602	-0.007427095	0.002918126	-0.5168518	0.3659515	-0.00308868	-0.003530657	
-0.004810552	-0.003360883	0.2395384	0.110936	-0.00308868	-0.003530657	-0.4702732	0.3477299	

4.16e+10	-0.1729398	0.2165604	-0.003234495	0.006628761	0.2764928	0.08288871	-0.005593803	-0.002331913	
-0.003234495	0.006628761	-0.1756329	0.2094596	-0.006853603	0.004383062	0.2390602	0.1159371	
0.2764928	0.08288871	-0.006853603	0.004383062	-0.5027859	0.3701442	-0.003857835	-0.0029763	
-0.005593803	-0.002331913	0.2390602	0.1159371	-0.003857835	-0.0029763	-0.4577688	0.3392259	

4.162e+10	-0.1679927	0.2081956	-0.001800407	0.007136086	0.2709303	0.07888177	-0.006163306	-0.001084539	
-0.001800407	0.007136086	-0.1742401	0.1988927	-0.005989672	0.005693929	0.2408762	0.1212904	
0.2709303	0.07888177	-0.005989672	0.005693929	-0.4877924	0.3724061	-0.004548674	-0.002260951	
-0.006163306	-0.001084539	0.2408762	0.1212904	-0.004548674	-0.002260951	-0.4482576	0.3281951	

4.164e+10	-0.1641637	0.1987221	-0.0003608054	0.007314406	0.2649765	0.0763613	-0.006454319	0.0003348679	
-0.0003608054	0.007314406	-0.1755773	0.1888775	-0.004904268	0.006802437	0.2450703	0.1260572	
0.2649765	0.0763613	-0.004904268	0.006802437	-0.4723253	0.372084	-0.005138052	-0.001386353	
-0.006454319	0.0003348679	0.2450703	0.1260572	-0.005138052	-0.001386353	-0.4428468	0.3154133	

4.166e+10	-0.161916	0.1882448	0.001002651	0.007233137	0.2591408	0.07540999	-0.006412612	0.00186425	
0.001002651	0.007233137	-0.1792829	0.18035	-0.003664594	0.007700268	0.2512454	0.1293555	
0.2591408	0.07540999	-0.003664594	0.007700268	-0.456799	0.3689854	-0.005598215	-0.0003492671	
-0.006412612	0.00186425	0.2512454	0.1293555	-0.005598215	-0.0003492671	-0.4417377	0.3025774	

4.168e+10	-0.1617567	0.17696	0.00227616	0.006977527	0.2538712	0.07588496	-0.005990549	0.003433597	
0.00227616	0.006977527	-0.1845632	0.1739235	-0.002299057	0.008409702	0.2586136	0.1306012	
0.2538712	0.07588496	-0.002299057	0.008409702	-0.4418413	0.3629326	-0.005882556	0.0008697094	
-0.005990549	0.003433597	0.2586136	0.1306012	-0.005882556	0.0008697094	-0.4446553	0.291196	

4.17e+10	-0.1640932	0.1654159	0.003509588	0.006595576	0.2495248	0.07745564	-0.005146534	0.004947432	
0.003509588	0.006595576	-0.190364	0.1699064	-0.0008028547	0.00893942	0.2663268	0.1297007	
0.2495248	0.07745564	-0.0008028547	0.00893942	-0.4282594	0.3539095	-0.005906642	0.0022638	
-0.005146534	0.004947432	0.2663268	0.1297007	-0.005906642	0.0022638	-0.4506913	0.2824989	

4.172e+10	-0.1691875	0.1544894	0.004758599	0.006059931	0.2463071	0.07969746	-0.003858842	0.006272458	
0.004758599	0.006059931	-0.1958648	0.1680544	0.0008493852	0.009261533	0.2737579	0.1269	
0.2463071	0.07969746	0.0008493852	0.009261533	-0.4168413	0.3422755	-0.005561377	0.003783766	
-0.003858842	0.006272458	0.2737579	0.1269	-0.005561377	0.003783766	-0.4585976	0.2771899	

4.174e+10	-0.1769358	0.1450783	0.006034559	0.005283229	0.2441839	0.08220544	-0.002156153	0.007246528	
0.006034559	0.005283229	-0.2003996	0.167917	0.002668706	0.009303819	0.2805191	0.1225499	
0.2441839	0.08220544	0.002668706	0.009303819	-0.40849	0.3284344	-0.004749682	0.005304773	
-0.002156153	0.007246528	0.2805191	0.1225499	-0.004749682	0.005304773	-0.467057	0.2754471	

4.176e+10	-0.1868404	0.1381033	0.007260753	0.004174781	0.243014	0.08466447	-0.00015768	0.007700886	
0.007260753	0.004174781	-0.2036395	0.1688247	0.004613938	0.008964279	0.2864625	0.1169615	
0.243014	0.08466447	0.004613938	0.008964279	-0.4036215	0.3135325	-0.003434706	0.006640396	
-0.00015768	0.007700886	0.2864625	0.1169615	-0.003434706	0.006640396	-0.4747882	0.2771105	

4.178e+10	-0.1979687	0.1341861	0.008301102	0.00269559	0.2425593	0.08688223	0.001940942	0.007529456	
0.008301102	0.00269559	-0.2055278	0.1700878	0.006580307	0.008152735	0.2914979	0.1103049	
0.2425593	0.08688223	0.006580307	0.008152735	-0.4025926	0.2984469	-0.001678483	0.007583673	
0.001940942	0.007529456	0.2914979	0.1103049	-0.001678483	0.007583673	-0.4810867	0.281237	

4.18e+10	-0.20919	0.1335769	0.009002123	0.0008989915	0.2425432	0.08883503	0.003897884	0.006729075	
0.009002123	0.0008989915	-0.2061316	0.1712554	0.008409896	0.006834781	0.2955204	0.1027087	
0.2425432	0.08883503	0.008409896	0.006834781	-0.4051085	0.2843983	0.0003554216	0.00797128	
0.003897884	0.006729075	0.2955204	0.1027087	0.0003554216	0.00797128	-0.4852135	0.2872975	

4.182e+10	-0.2195457	0.135912	0.009256597	-0.001104847	0.2428517	0.09065361	0.005510858	0.005403229	
0.009256597	-0.001104847	-0.2058646	0.1717636	0.009939546	0.005045892	0.2983891	0.09428216	
0.2428517	0.09065361	0.009939546	0.005045892	-0.4106072	0.2721874	0.002445764	0.007736721	
0.005510858	0.005403229	0.2983891	0.09428216	0.002445764	0.007736721	-0.4869935	0.2943532	

4.184e+10	-0.2281327	0.1406777	0.009014612	-0.003167474	0.2435102	0.09245221	0.006648905	0.003718537	
0.009014612	-0.003167474	-0.2051093	0.171498	0.01103778	0.002886649	0.2998988	0.08513987	
0.2435102	0.09245221	0.01103778	0.002886649	-0.4182545	0.2624723	0.004384134	0.006912555	
0.006648905	0.003718537	0.2998988	0.08513987	0.004384134	0.006912555	-0.4864786	0.3016295	

4.186e+10	-0.2345344	0.1470661	0.008284685	-0.005156963	0.2446605	0.09425947	0.00726862	0.001850181	
0.008284685	-0.005156963	-0.2044392	0.1702719	0.01162096	0.0004831615	0.2998528	0.07545137	
0.2446605	0.09425947	0.01162096	0.0004831615	-0.4272597	0.2555071	0.006006661	0.005596796	
0.00726862	0.001850181	0.2998528	0.07545137	0.006006661	0.005596796	-0.4838524	0.3086043	

4.188e+10	-0.2385815	0.1542272	0.007105602	-0.006955404	0.2464131	0.09590898	0.007379628	-5.042552e-05	
0.007105602	-0.006955404	-0.2041965	0.1683865	0.0116474	-0.002030116	0.2979832	0.06546679	
0.2464131	0.09590898	0.0116474	-0.002030116	-0.4367849	0.2513654	0.007208234	0.003915218	
0.007379628	-5.042552e-05	0.2979832	0.06546679	0.007208234	0.003915218	-0.4794956	0.3147302	

4.19e+10	-0.2403914	0.1614755	0.005530842	-0.008474915	0.2488081	0.0972264	0.007024469	-0.001865654	
0.005530842	-0.008474915	-0.2047864	0.1660696	0.01110515	-0.004528537	0.2940283	0.05560506	
0.2488081	0.0972264	0.01110515	-0.004528537	-0.4460374	0.249793	0.007922344	0.002000836	
0.007024469	-0.001865654	0.2940283	0.05560506	0.007922344	0.002000836	-0.47358	0.319915	

4.192e+10	-0.2403699	0.1681213	0.003630417	-0.009631507	0.2517563	0.09797855	0.006257804	-0.003500236	
0.003630417	-0.009631507	-0.2063811	0.1638103	0.009998747	-0.006874518	0.2879034	0.0464095	
0.2517563	0.09797855	0.009998747	-0.006874518	-0.4543046	0.250376	0.008121698	-5.704603e-06	
0.006257804	-0.003500236	0.2879034	0.0464095	0.008121698	-5.704603e-06	-0.4665075	0.3237484	

4.194e+10	-0.238929	0.1739109	0.001471879	-0.010364	0.2551015	0.09800603	0.005142363	-0.004874465	
0.001471879	-0.010364	-0.2089282	0.1621197	0.008379531	-0.008958948	0.2796282	0.03852855	
0.2551015	0.09800603	0.008379531	-0.008958948	-0.4613617	0.2523789	0.007803488	-0.001974441	
0.005142363	-0.004874465	0.2796282	0.03852855	0.007803488	-0.001974441	-0.4584446	0.3261611	

4.196e+10	-0.2365606	0.1786499	-0.0008484496	-0.01060311	0.258623	0.09718424	0.003754985	-0.005931314	
-0.0008484496	-0.01060311	-0.2121296	0.1614825	0.006291648	-0.0106458	0.269523	0.03262207	
0.258623	0.09718424	0.006291648	-0.0106458	-0.4671359	0.2553257	0.007016959	-0.003772558	
0.003754985	-0.005931314	0.269523	0.03262207	0.007016959	-0.003772558	-0.4495857	0.3270029	

4.198e+10	-0.2337413	0.1822905	-0.003220348	-0.01030766	0.2620536	0.0954626	0.002175596	-0.00662881	
-0.003220348	-0.01030766	-0.215445	0.1621727	0.003839843	-0.01182203	0.2581515	0.02922052	
0.2620536	0.0954626	0.003839843	-0.01182203	-0.4718118	0.2587377	0.005827314	-0.00529966	
0.002175596	-0.00662881	0.2581515	0.02922052	0.005827314	-0.00529966	-0.4402069	0.3259738	

4.2e+10	-0.2306664	0.1851294	-0.005520773	-0.009455246	0.2650988	0.0929142	0.0004773125	-0.006944315	
-0.005520773	-0.009455246	-0.2182507	0.1641653	0.001150352	-0.01240277	0.2461538	0.02868866	
0.2650988	0.0929142	0.001150352	-0.01240277	-0.4755193	0.2623925	0.004315526	-0.006477224	
0.0004773125	-0.006944315	0.2461538	0.02868866	0.004315526	-0.006477224	-0.4305761	0.3226985	

4.202e+10	-0.227673	0.1872124	-0.007611555	-0.008048994	0.267548	0.08971767	-0.001269313	-0.006855278	
-0.007611555	-0.008048994	-0.219999	0.1671094	-0.001624084	-0.01232949	0.2343558	0.03117357	
0.267548	0.08971767	-0.001624084	-0.01232949	-0.4784395	0.2660773	0.002571277	-0.00724378	
-0.001269313	-0.006855278	0.2343558	0.03117357	0.002571277	-0.00724378	-0.4211182	0.3168746	

4.204e+10	-0.2249007	0.188781	-0.009341218	-0.0061337	0.2692613	0.0860928	-0.002984965	-0.006334761	
-0.009341218	-0.0061337	-0.2204665	0.1703959	-0.004312743	-0.01158424	0.2235543	0.0365968	
0.2692613	0.0860928	-0.004312743	-0.01158424	-0.4808538	0.2697322	0.0006936115	-0.007551412	
-0.002984965	-0.006334761	0.2235543	0.0365968	0.0006936115	-0.007551412	-0.412608	0.3082212	

4.206e+10	-0.2223013	0.1901318	-0.01056526	-0.003797479	0.2701717	0.08226988	-0.004562699	-0.005361154	
-0.01056526	-0.003797479	-0.2195894	0.1734835	-0.006734546	-0.01019798	0.2145472	0.0446298	
0.2701717	0.08226988	-0.006734546	-0.01019798	-0.4829607	0.2734686	-0.001210989	-0.007369262	
-0.004562699	-0.005361154	0.2145472	0.0446298	-0.001210989	-0.007369262	-0.4063202	0.2966198	

4.208e+10	-0.2199128	0.1913695	-0.0111585	-0.001182652	0.2702719	0.07845986	-0.005857004	-0.003944653	
-0.0111585	-0.001182652	-0.2178147	0.1757543	-0.008708827	-0.008258592	0.2079833	0.05467592	
0.2702719	0.07845986	-0.008708827	-0.008258592	-0.4849138	0.2773757	-0.003009542	-0.006680936	
-0.005857004	-0.003944653	0.2079833	0.05467592	-0.003009542	-0.006680936	-0.4033824	0.2828713	

4.21e+10	-0.2174934	0.1927605	-0.01103435	0.001523292	0.2696073	0.07487009	-0.006704343	-0.002157693	
-0.01103435	0.001523292	-0.2156622	0.1770209	-0.01008899	-0.00591681	0.204305	0.0659966	
0.2696073	0.07487009	-0.01008899	-0.00591681	-0.4866108	0.2816247	-0.004549928	-0.005501873	
-0.006704343	-0.002157693	0.204305	0.0659966	-0.004549928	-0.005501873	-0.4047247	0.2680846	

4.212e+10	-0.214943	0.1942159	-0.0101698	0.004086171	0.2682815	0.07171018	-0.006957253	-0.000160312	
-0.0101698	0.004086171	-0.21367	0.1773922	-0.01077932	-0.003373903	0.2036994	0.07776893	
0.2682815	0.07171018	-0.01077932	-0.003373903	-0.4877895	0.2864133	-0.005659824	-0.003913205	
-0.006957253	-0.000160312	0.2036994	0.07776893	-0.005659824	-0.003913205	-0.4106047	0.2538917	

4.214e+10	-0.212028	0.1957909	-0.008636345	0.006260865	0.266443	0.06914999	-0.006546682	0.001808175	
-0.008636345	0.006260865	-0.2123142	0.1772077	-0.01076521	-0.0008661484	0.206088	0.08916517	
0.266443	0.06914999	-0.01076521	-0.0008661484	-0.4883214	0.2915602	-0.006189586	-0.002090244	
-0.006546682	0.001808175	0.206088	0.08916517	-0.006189586	-0.002090244	-0.4208403	0.2417008	

4.216e+10	-0.2085452	0.1973494	-0.006617079	0.007835802	0.2642982	0.06725087	-0.005528942	0.00348176	
-0.006617079	0.007835802	-0.2116685	0.1769824	-0.01013187	0.001384291	0.2111568	0.09941686	
0.2642982	0.06725087	-0.01013187	0.001384291	-0.4880054	0.297062	-0.00609028	-0.0002818839	
-0.005528942	0.00348176	0.2111568	0.09941686	-0.00609028	-0.0002818839	-0.4343131	0.2330719	

4.218e+10	-0.2044391	0.1986695	-0.004379854	0.008700802	0.262015	0.06604217	-0.00408537	0.004653554	
-0.004379854	0.008700802	-0.2115214	0.177236	-0.009046464	0.003212408	0.2183813	0.1079829	
0.262015	0.06604217	-0.009046464	0.003212408	-0.4867466	0.3026196	-0.005444532	0.001273996	
-0.00408537	0.004653554	0.2183813	0.1079829	-0.005444532	0.001273996	-0.4496416	0.2288073	

4.22e+10	-0.1997343	0.1994556	-0.002203063	0.008888859	0.259722	0.06548349	-0.002473248	0.005232197	
-0.002203063	0.008888859	-0.211539	0.1781324	-0.007725299	0.004548733	0.2271043	0.1145097	
0.259722	0.06548349	-0.007725299	0.004548733	-0.4842597	0.3081511	-0.004429334	0.002409939	
-0.002473248	0.005232197	0.2271043	0.1145097	-0.004429334	0.002409939	-0.4652554	0.228934	

4.222e+10	-0.1944949	0.1994456	-0.0002918194	0.008549121	0.2574886	0.06558517	-0.0009393068	0.005267913	
-0.0002918194	0.008549121	-0.2113372	0.1796713	-0.006363764	0.005439011	0.2367087	0.1189382	
0.2574886	0.06558517	-0.006363764	0.005439011	-0.4807843	0.3129413	-0.003252556	0.003076865	
-0.0009393068	0.005267913	0.2367087	0.1189382	-0.003252556	0.003076865	-0.4799367	0.2329413	

4.224e+10	-0.1889764	0.1984448	0.001256702	0.007879311	0.2554434	0.06639047	0.0003538712	0.00490435	
0.001256702	0.007879311	-0.210605	0.1817253	-0.005086313	0.005993332	0.2467271	0.121362	
0.2554434	0.06639047	-0.005086313	0.005993332	-0.4762128	0.3169944	-0.00209355	0.003306556	
0.0003538712	0.00490435	0.2467271	0.121362	-0.00209355	0.003306556	-0.4927069	0.2402028	

4.226e+10	-0.1835613	0.1962952	0.002453408	0.00705752	0.2537328	0.06793529	0.001349522	0.004308703	
0.002453408	0.00705752	-0.2092209	0.1839992	-0.003930879	0.006337389	0.2567757	0.1219425	
0.2537328	0.06793529	-0.003930879	0.006337389	-0.4710824	0.3197868	-0.001081547	0.003186136	
0.001349522	0.004308703	0.2567757	0.1219425	-0.001081547	0.003186136	-0.5032198	0.2498005	

4.228e+10	-0.1785246	0.1931268	0.003370171	0.006200372	0.2525548	0.07020108	0.00206574	0.003613856	
0.003370171	0.006200372	-0.2070578	0.1863703	-0.002881683	0.006558435	0.2665593	0.1208381	
0.2525548	0.07020108	-0.002881683	0.006558435	-0.4658097	0.3211007	-0.000298577	0.002819937	
0.00206574	0.003613856	0.2665593	0.1208381	-0.000298577	0.002819937	-0.5112745	0.2608447	

4.23e+10	-0.1742365	0.1890829	0.004093974	0.005358183	0.2521327	0.07315113	0.002557118	0.002899767	
0.004093974	0.005358183	-0.2042293	0.1885233	-0.001890878	0.006709028	0.2758498	0.1182579	
0.2521327	0.07315113	-0.001890878	0.006709028	-0.4606766	0.3211334	0.0002214632	0.002325077	
0.002557118	0.002899767	0.2758498	0.1182579	0.0002214632	0.002325077	-0.5167852	0.2729312	

4.232e+10	-0.1709013	0.1843629	0.004694943	0.004530054	0.252758	0.07666848	0.002877357	0.002204046	
0.004694943	0.004530054	-0.2007672	0.1903213	-0.0009107328	0.00679847	0.2844977	0.1144077	
0.252758	0.07666848	-0.0009107328	0.00679847	-0.4561428	0.3198694	0.0004891752	0.001808821	
0.002877357	0.002204046	0.2844977	0.1144077	0.0004891752	0.001808821	-0.5199368	0.2853652	

4.234e+10	-0.1686226	0.1793765	0.005208491	0.003683179	0.2547145	0.08049204	0.003068165	0.001538298	
0.005208491	0.003683179	-0.1968016	0.1916487	8.908386e-05	0.006805117	0.2923943	0.1094847	
0.2547145	0.08049204	8.908386e-05	0.006805117	-0.4528086	0.3174134	0.0005450934	0.001355074	
0.003068165	0.001538298	0.2923943	0.1094847	0.0005450934	0.001355074	-0.5210666	0.2975728	

4.236e+10	-0.1674377	0.1744195	0.005626173	0.002789186	0.2582328	0.08418905	0.003154462	0.0008983937	
0.005626173	0.002789186	-0.1924267	0.1924939	0.001115475	0.006693084	0.2994782	0.1036568	
0.2582328	0.08418905	0.001115475	0.006693084	-0.4509965	0.3143855	0.0004518016	0.001022534	
0.003154462	0.0008983937	0.2994782	0.1036568	0.0004518016	0.001022534	-0.5203104	0.3095522	

4.238e+10	-0.1671734	0.1698794	0.00592308	0.001845401	0.2633056	0.08720239	0.003144816	0.0002793672	
0.00592308	0.001845401	-0.1877684	0.1927497	0.002148503	0.006430895	0.3057313	0.0970659	
0.2633056	0.08720239	0.002148503	0.006430895	-0.450924	0.3114202	0.0002832391	0.0008413851	
0.003144816	0.0002793672	0.3057313	0.0970659	0.0002832391	0.0008413851	-0.5180061	0.3210523	

4.24e+10	-0.1675983	0.1659682	0.006078457	0.0008692817	0.2696835	0.08903266	0.003034793	-0.0003150234	
0.006078457	0.0008692817	-0.1828452	0.1924767	0.003151106	0.006002227	0.3111085	0.08983804	
0.2696835	0.08903266	0.003151106	0.006002227	-0.4524614	0.3091113	0.0001135251	0.0008076706	
0.003034793	-0.0003150234	0.3111085	0.08983804	0.0001135251	0.0008076706	-0.5143623	0.3318652	

4.242e+10	-0.1683914	0.1627841	0.006083082	-0.0001056729	0.2769815	0.08932915	0.002818688	-0.0008587479	
0.006083082	-0.0001056729	-0.1776985	0.1915613	0.004086257	0.005410259	0.3155904	0.08208163	
0.2769815	0.08932915	0.004086257	0.005410259	-0.4551889	0.3080702	-4.269056e-06	0.0008926898	
0.002818688	-0.0008587479	0.3155904	0.08208163	-4.269056e-06	0.0008926898	-0.5095079	0.341988	

4.244e+10	-0.1692538	0.1603353	0.005948676	-0.001055551	0.2847421	0.08789739	0.002515926	-0.001335264	
0.005948676	-0.001055551	-0.1724361	0.1899706	0.004920531	0.00466892	0.3191729	0.07391574	
0.2847421	0.08789739	0.004920531	0.00466892	-0.458661	0.3085561	-2.49871e-05	0.001049403	
0.002515926	-0.001335264	0.3191729	0.07391574	-2.49871e-05	0.001049403	-0.5035529	0.3514141	

4.246e+10	-0.1699024	0.158492	0.005688314	-0.001956867	0.2925256	0.08465998	0.002143739	-0.001729162	
0.005688314	-0.001956867	-0.1671197	0.1876369	0.005629696	0.003798279	0.3218625	0.06540176	
0.2925256	0.08465998	0.005629696	0.003798279	-0.4622958	0.310767	6.031076e-05	0.001222213	
0.002143739	-0.001729162	0.3218625	0.06540176	6.031076e-05	0.001222213	-0.4966769	0.3600628	

4.248e+10	-0.1701695	0.1570279	0.005326761	-0.002803138	0.2998736	0.07968373	0.00172131	-0.002034662	
0.005326761	-0.002803138	-0.1618364	0.1845391	0.006197143	0.002821458	0.3236352	0.0566161	
0.2998736	0.07968373	0.006197143	0.002821458	-0.4655701	0.3146225	0.0002388945	0.001364444	
0.00172131	-0.002034662	0.3236352	0.0566161	0.0002388945	0.001364444	-0.4890382	0.3678481	

4.25e+10	-0.1699917	0.1557141	0.004876346	-0.003602777	0.3063802	0.07314266	0.001261639	-0.002246468	
0.004876346	-0.003602777	-0.1567639	0.1805907	0.006609227	0.001760185	0.324444	0.0476193	
0.3063802	0.07314266	0.006609227	0.001760185	-0.4679162	0.3200292	0.0004816693	0.001442402	
0.001261639	-0.002246468	0.324444	0.0476193	0.0004816693	0.001442402	-0.4805781	0.3749287	

4.252e+10	-0.1693566	0.1543189	0.004377789	-0.00435736	0.3117656	0.06529593	0.0008459037	-0.002286652	
0.004377789	-0.00435736	-0.151934	0.175831	0.006859372	0.0006800499	0.3242535	0.03849041	
0.3117656	0.06529593	0.006859373	0.0006800379	-0.4690672	0.3264961	0.0005676362	0.001542043	
0.0008459037	-0.002286652	0.3242535	0.03849041	0.0005676362	0.001542043	-0.4714853	0.3811205	

4.254e+10	-0.1683967	0.1526393	0.003780352	-0.005097122	0.3158099	0.05641925	0.0003832278	-0.002230721	
0.003780352	-0.005097122	-0.1475332	0.1701969	0.006881976	-0.000369727	0.3230194	0.02934932	
0.3158099	0.05641925	0.006881976	-0.000369715	-0.4688243	0.3336689	0.0004072062	0.001333826	
0.0003832278	-0.002230721	0.3230194	0.02934932	0.0004072062	0.001333826	-0.4615729	0.3866198	

4.256e+10	-0.1672562	0.1505453	0.002997168	-0.005804918	0.3183726	0.04677302	-9.080611e-05	-0.002309115	
0.002997168	-0.005804918	-0.1437616	0.1636404	0.006710778	-0.001644351	0.3207401	0.02027086	
0.3183726	0.04677302	0.006710778	-0.001644351	-0.4671649	0.3412874	0.0009743621	0.001011275	
-9.080611e-05	-0.002309115	0.3207401	0.02027086	0.0009743621	0.001011275	-0.4510322	0.3911099	

4.258e+10	-0.166034	0.1479829	0.002058945	-0.006467891	0.3193445	0.03664332	-0.0005049632	-0.002233427	
0.002058945	-0.006467891	-0.1407794	0.1562417	0.006444757	-0.002868986	0.3173566	0.01136351	
0.3193445	0.03664332	0.006444757	-0.002868986	-0.4640115	0.3491501	0.001288814	0.0009773768	
-0.0005049632	-0.002233427	0.3173566	0.01136351	0.001288814	0.0009773768	-0.4396982	0.3947958	

4.26e+10	-0.1649503	0.1448614	0.0009506376	-0.0070062	0.3186577	0.02628522	-0.0008931068	-0.00201636	
0.0009506376	-0.0070062	-0.1388582	0.1480242	0.005950303	-0.004075326	0.312788	0.002734901	
0.3186577	0.02628522	0.005950303	-0.004075326	-0.4593377	0.3569413	0.001530691	0.0009047793	
-0.0008931068	-0.00201636	0.312788	0.002734901	0.001530691	0.0009047793	-0.4277352	0.397337	

4.262e+10	-0.1642081	0.1411416	-0.0003527457	-0.007408507	0.3162267	0.01597674	-0.001170903	-0.001737243	
-0.0003527457	-0.007408507	-0.1382273	0.1390986	0.005193659	-0.005259154	0.3069617	-0.005445926	
0.3162267	0.01597674	0.005193659	-0.005259154	-0.4530656	0.3645346	0.001886475	0.0007698177	
-0.001170903	-0.001737243	0.3069617	-0.005445926	0.001886475	0.0007698177	-0.414934	0.3987424	

4.264e+10	-0.1640483	0.136874	-0.00186984	-0.007567	0.3120318	0.00602455	-0.001430816	-0.001462632	
-0.00186984	-0.007567	-0.139208	0.1296773	0.004099772	-0.006272035	0.2998305	-0.01295037	
0.3120318	0.00602455	0.004099772	-0.006272035	-0.4452837	0.3715234	0.002081631	0.0003615734	
-0.001430816	-0.001462632	0.2998305	-0.01295037	0.002081631	0.0003615734	-0.4014879	0.3985556	

4.266e+10	-0.1646654	0.1322525	-0.00354193	-0.007389268	0.3060829	-0.003236024	-0.001604762	-0.001116585	
-0.00354193	-0.007389268	-0.1421348	0.1201132	0.002812951	-0.007033236	0.2913702	-0.01947078	
0.3060829	-0.003236024	0.002812829	-0.007033285	-0.4358595	0.3778198	0.002165621	0.0001077428	
-0.001604762	-0.001116585	0.2913702	-0.01947078	0.002165621	0.0001077428	-0.3872567	0.3966982	

4.268e+10	-0.1663188	0.1273904	-0.005299871	-0.006768903	0.2984505	-0.01144966	-0.001676881	-0.0007716335	
-0.005299871	-0.006768903	-0.1472512	0.1108812	0.001351178	-0.007520077	0.2816609	-0.02467928	
0.2984505	-0.01144966	0.001351178	-0.007520077	-0.4247372	0.3831068	0.002323661	-0.0001605383	
-0.001676881	-0.0007716335	0.2816609	-0.02467928	0.002323661	-0.0001605383	-0.3725722	0.3927464	

4.27e+10	-0.1691402	0.1226172	-0.006987449	-0.005632122	0.2892469	-0.01821764	-0.001662241	-0.0004644188	
-0.006987449	-0.005632122	-0.1545735	0.1026984	-0.0002168217	-0.007675938	0.2708546	-0.02821324	
0.2892469	-0.01821764	-0.0002168217	-0.007675938	-0.4117978	0.3869745	0.002508079	-0.0005179376	
-0.001662241	-0.0004644188	0.2708546	-0.02821324	0.002508079	-0.0005179376	-0.3576851	0.3862647	

4.272e+10	-0.1732163	0.1183375	-0.008417516	-0.003960982	0.2787219	-0.02313061	-0.001589355	-0.0002213895	
-0.008417516	-0.003960982	-0.1639475	0.09626437	-0.001800993	-0.007472942	0.2592266	-0.02967815	
0.2787219	-0.02313061	-0.001800993	-0.007472942	-0.3970753	0.3888449	0.002678233	-0.001001617	
-0.001589355	-0.0002213895	0.2592266	-0.02967815	0.002678233	-0.001001617	-0.3429014	0.3769759	

4.274e+10	-0.1785176	0.1149586	-0.009377779	-0.001822856	0.2672672	-0.02580458	-0.001501015	-6.212387e-05	
-0.009377779	-0.001822856	-0.1748615	0.09235006	-0.003306292	-0.006916246	0.2472252	-0.02873875	
0.2672672	-0.02580458	-0.003306292	-0.006916246	-0.3806968	0.3880767	0.002771789	-0.001647404	
-0.001501015	-6.212387e-05	0.2472252	-0.02873875	0.002771789	-0.001647404	-0.3289217	0.3644082	

4.276e+10	-0.1847832	0.1129693	-0.009681045	0.0006124725	0.2554431	-0.02597174	-0.001455408	2.362562e-05	
-0.009681045	0.0006124725	-0.1865583	0.09143432	-0.004650187	-0.006042753	0.2354652	-0.02520179	
0.2554431	-0.02597174	-0.004650187	-0.006042753	-0.363203	0.3836738	0.002686934	-0.002462121	
-0.001455408	2.362562e-05	0.2354652	-0.02520179	0.002686934	-0.002462121	-0.3166587	0.3482475	

4.278e+10	-0.1916361	0.1127022	-0.009218329	0.003093358	0.2438281	-0.02352178	-0.001501374	9.051295e-05	
-0.009218329	0.003093358	-0.198001	0.09376381	-0.005773884	-0.00490181	0.2245737	-0.01904667	
0.2438281	-0.02352178	-0.005773884	-0.00490181	-0.3452859	0.3749698	0.002300846	-0.003384957	
-0.001501374	9.051295e-05	0.2245737	-0.01904667	0.002300846	-0.003384957	-0.3073475	0.3285537	

4.28e+10	-0.198449	0.1144361	-0.008003822	0.005325785	0.2330256	-0.01851467	-0.001640877	0.0002247721	
-0.008003822	0.005325785	-0.2080798	0.09911526	-0.006633065	-0.003541727	0.2152262	-0.01045553	
0.2330256	-0.01851467	-0.006633065	-0.003541727	-0.3282587	0.361258	0.001521276	-0.004275308	
-0.001640877	0.0002247721	0.2152262	-0.01045553	0.001521276	-0.004275308	-0.3023025	0.3059118	

4.282e+10	-0.2045692	0.1181557	-0.006174929	0.007043636	0.2236515	-0.01116377	-0.001809887	0.00050567	
-0.006174929	0.007043636	-0.2159532	0.1068245	-0.00718393	-0.002001735	0.2080599	0.0002429361	
0.2236515	-0.01116377	-0.00718393	-0.002001735	-0.3139695	0.3421577	0.0003381288	-0.004935732	
-0.001809887	0.00050567	0.2080599	0.0002429361	0.0003381288	-0.004935732	-0.3027893	0.2813692	

4.284e+10	-0.2093759	0.1235288	-0.003976139	0.00806636	0.2162028	-0.001763637	-0.001894955	0.0009538918	
-0.003976139	0.00806636	-0.2210638	0.1159135	-0.007361319	-0.000340713	0.2036153	0.01252178	
0.2162028	-0.001763637	-0.007361319	-0.000340713	-0.3043965	0.3183102	-0.001150395	-0.005163502	
-0.001894955	0.0009538918	0.2036153	0.01252178	-0.001150395	-0.005163502	-0.3096997	0.2566614	

4.286e+10	-0.212333	0.1301178	-0.001700368	0.008335232	0.2111675	0.009249315	-0.001781953	0.001508001	
-0.001700368	0.008335232	-0.2232843	0.1255063	-0.007102129	0.001341961	0.2023405	0.02565126	
0.2111675	0.009249315	-0.007102129	0.001341961	-0.3016633	0.2911094	-0.002737032	-0.004814134	
-0.001781953	0.001508001	0.2023405	0.02565126	-0.002737032	-0.004814134	-0.3231496	0.2340072	

4.288e+10	-0.2132047	0.1371905	0.0003798765	0.007925902	0.2089438	0.02133244	-0.001418962	0.00203858	
0.0003798765	0.007925902	-0.2229678	0.1346089	-0.006385499	0.00289256	0.2044083	0.03875638	
0.2089438	0.02133244	-0.006385499	0.00289256	-0.3069578	0.2631876	-0.004145726	-0.003861896	
-0.001418962	0.00203858	0.2044083	0.03875638	-0.004145726	-0.003861896	-0.3423528	0.2155911	

4.29e+10	-0.2120975	0.143979	0.002064198	0.007010834	0.2098481	0.03378279	-0.0008455514	0.002409123	
0.002064198	0.007010834	-0.2206014	0.1426589	-0.005272315	0.004141458	0.2096881	0.05091099	
0.2098481	0.03378279	-0.005272315	0.004141458	-0.3205676	0.2373808	-0.005109148	-0.002435844	
-0.0008455514	0.002409123	0.2096881	0.05091099	-0.005109148	-0.002435844	-0.3655801	0.2030616	

4.292e+10	-0.2092263	0.1500677	0.003260853	0.005807446	0.2139857	0.04574176	-0.00017314	0.002537099	
0.003260853	0.005807446	-0.2167428	0.1494092	-0.003906857	0.00496473	0.2177438	0.06130754	
0.2139857	0.04574176	-0.003906857	0.00496473	-0.341248	0.2166461	-0.005466003	-0.0007935068	
-0.00017314	0.002537099	0.2177438	0.06130754	-0.005466003	-0.0007935068	-0.3906988	0.1970995	

4.294e+10	-0.205148	0.1549834	0.003978856	0.004519642	0.2211024	0.05630899	0.0004711988	0.002421175	
0.003978856	0.004519642	-0.2119759	0.1547456	-0.002476126	0.00532219	0.2279103	0.06935741	
0.2211024	0.05630899	-0.002476126	0.00532219	-0.3666595	0.2029918	-0.00521843	0.0007752445	
0.0004711988	0.002421175	0.2279103	0.06935741	-0.00521843	0.0007752445	-0.4154612	0.19772	

4.296e+10	-0.2003324	0.1586108	0.004295306	0.003300313	0.2306852	0.06471238	0.0009944501	0.002122152	
0.004295306	0.003300313	-0.2067242	0.1587397	-0.001146481	0.005267067	0.2394236	0.07474637	
0.2306852	0.06471238	-0.001146481	0.005267067	-0.3938942	0.1973335	-0.004508689	0.002043335	
0.0009944501	0.002122152	0.2394236	0.07474637	-0.004508689	0.002043335	-0.4381973	0.2039624	

4.298e+10	-0.1951114	0.1611236	0.004317922	0.002238772	0.2419198	0.07045363	0.001358113	0.001723254	
0.004317922	0.002238772	-0.2012318	0.1616211	-2.96318e-05	0.004906811	0.2515307	0.07743382	
0.2419198	0.07045363	-2.96318e-05	0.004906811	-0.4203861	0.1990748	-0.003538999	0.002908001	
0.001358113	0.001723254	0.2515307	0.07743382	-0.003538999	0.002908001	-0.457791	0.2145424	

4.3e+10	-0.1897855	0.1626084	0.004152418	0.001368459	0.2539557	0.07336298	0.001565915	0.001298571	
0.004152418	0.001368459	-0.1957072	0.1635206	0.0008312977	0.004364436	0.2635853	0.07759736	
0.2539557	0.07336298	0.0008312977	0.004364436	-0.4439912	0.2071309	-0.00250001	0.003372411	
0.001565915	0.001298571	0.2635853	0.07759736	-0.00250001	0.003372411	-0.4736218	0.2282443	

4.302e+10	-0.1845562	0.1632241	0.003886169	0.0006851246	0.2660738	0.0735788	0.001647286	0.0009001821	
0.003886169	0.0006851246	-0.1902287	0.164607	0.001444138	0.003746076	0.2750869	0.07553916	
0.2660738	0.0735788	0.001444138	0.003746076	-0.4637789	0.2195245	-0.001527092	0.003507047	
0.001647286	0.0009001821	0.2750869	0.07553916	-0.001527092	0.003507047	-0.4857224	0.2436559	

4.304e+10	-0.1794175	0.1631429	0.003580932	0.0001643127	0.2776776	0.07139881	0.001640225	0.0005541327	
0.003580932	0.0001643127	-0.184872	0.1649466	0.001846845	0.00312658	0.2857424	0.07161451	
0.2776776	0.07139881	0.001846845	0.00312658	-0.4792453	0.2348836	-0.0006926873	0.003407711	
0.001640225	0.0005541327	0.2857424	0.07161451	-0.0006926873	0.003407711	-0.4942667	0.2599362	

4.306e+10	-0.1744325	0.1624903	0.003276656	-0.000226862	0.288372	0.06720708	0.001579817	0.0002674783	
0.003276656	-0.000226862	-0.1795742	0.1647803	0.002089281	0.002550513	0.2953496	0.0661646	
0.288372	0.06720708	0.002089281	0.002550513	-0.4905561	0.251787	-2.181191e-05	0.003163825	
0.001579817	0.0002674783	0.2953496	0.0661646	-2.181191e-05	0.003163825	-0.499658	0.2763952	

4.308e+10	-0.169626	0.1612506	0.002996721	-0.0005199884	0.297931	0.0613895	0.001491987	3.510591e-05	
0.002996721	-0.0005199884	-0.1744724	0.1639552	0.00221682	0.002037899	0.3037887	0.05949636	
0.297931	0.0613895	0.00221682	0.002037899	-0.4981216	0.269221	0.0004941371	0.002846529	
0.001491987	3.510591e-05	0.3037887	0.05949636	0.0004941371	0.002846529	-0.5022922	0.2925758	

4.31e+10	-0.1649565	0.1595751	0.00275258	-0.0007437854	0.3062232	0.05429856	0.001393494	-0.0001532893	
0.00275258	-0.0007437854	-0.1694279	0.1627028	0.002268478	0.001591889	0.3110335	0.05187673	
0.3062232	0.05429856	0.002268478	0.001591889	-0.5023991	0.2865634	0.0008783311	0.002503916	
0.001393494	-0.0001532893	0.3110335	0.05187673	0.0008783311	0.002503916	-0.5025835	0.3082249	

4.312e+10	-0.1604273	0.1574314	0.002548963	-0.0009229129	0.3132152	0.04623987	0.001292777	-0.0003086028	
0.002548963	-0.0009229129	-0.1645554	0.1609197	0.002272296	0.001207489	0.317076	0.0435293	
0.3132152	0.04623987	0.002272296	0.001207489	-0.5038683	0.3034732	0.00115964	0.002164534	
0.001292777	-0.0003086028	0.317076	0.0435293	0.00115964	0.002164534	-0.5009718	0.322978	

4.314e+10	-0.1560262	0.1548866	0.002384977	-0.001078513	0.3188979	0.03745568	0.001194058	-0.000440156	
0.002384977	-0.001078513	-0.1597747	0.1587186	0.002249123	0.0008749073	0.3219328	0.03463032	
0.3188979	0.03745568	0.002249123	0.0008749073	-0.5030184	0.3195948	0.001363848	0.001842059	
0.001194058	-0.000440156	0.3219328	0.03463032	0.001363848	0.001842059	-0.4976137	0.3370365	

4.316e+10	-0.1518635	0.1518105	0.002255946	-0.001229011	0.3233169	0.02814953	0.001098158	-0.0005558027	
0.002255946	-0.001229011	-0.1551839	0.1559986	0.00221225	0.0005819	0.3256358	0.02533703	
0.3233169	0.02814953	0.00221225	0.0005819	-0.5002612	0.3347693	0.001512393	0.001541603	
0.001098158	-0.0005558027	0.3256358	0.02533703	0.001512393	0.001541603	-0.4928874	0.3501474	

4.318e+10	-0.1478166	0.1483334	0.002154623	-0.001388932	0.3264773	0.01848156	0.001003185	-0.0006612275	
0.002154623	-0.001388932	-0.1507438	0.1528101	0.002168802	0.0003166762	0.3282117	0.01576227	
0.3264773	0.01848156	0.002168802	0.0003166762	-0.495797	0.3490987	0.001621375	0.001262115	
0.001003185	-0.0006612275	0.3282117	0.01576227	0.001621375	0.001262115	-0.4869069	0.3624007	

4.32e+10	-0.1440028	0.1443551	0.002071035	-0.001571717	0.3284179	0.00858329	0.0009061702	-0.0007601785	
0.002071035	-0.001571717	-0.1465181	0.1490979	0.002121219	6.77256e-05	0.3296652	0.006011026	
0.3284179	0.00858329	0.002121219	6.77256e-05	-0.4899106	0.3625147	0.001702512	0.0009996568	
0.0009061702	-0.0007601785	0.3296652	0.006011026	0.001702512	0.0009996568	-0.4798299	0.3738065	

4.322e+10	-0.1404315	0.1398934	0.001992399	-0.001784479	0.3291569	-0.001423243	0.000806854	-0.0008544481	
0.001992399	-0.001784479	-0.1425104	0.1449184	0.002070461	-0.0001744874	0.3300079	-0.003817831	
0.3291569	-0.001423243	0.002070461	-0.0001744874	-0.4827025	0.3750976	0.00176206	0.0007450481	
0.000806854	-0.0008544481	0.3300079	-0.003817831	0.00176206	0.0007450481	-0.4716957	0.3844315	

4.324e+10	-0.137168	0.1348888	0.001902723	-0.00204285	0.3287014	-0.01142739	0.0006934327	-0.0009403774	
0.001902723	-0.00204285	-0.1388076	0.140171	0.002004027	-0.0004162543	0.3292379	-0.01363222	
0.3287014	-0.01142739	0.002004027	-0.0004162543	-0.474349	0.3867318	0.001805798	0.0004990954	
0.0006934327	-0.0009403774	0.3292379	-0.01363222	0.001805798	0.0004990954	-0.462565	0.3942309	

4.326e+10	-0.1342872	0.1293178	0.001783543	-0.002344884	0.3270461	-0.02131535	0.0005703983	-0.001017186	
0.001783543	-0.002344884	-0.1354392	0.134873	0.001920436	-0.0006618964	0.3273394	-0.0233342	
0.3270461	-0.02131535	0.001920436	-0.0006618964	-0.4648249	0.3975595	0.001829216	0.0002513227	
0.0005703983	-0.001017186	0.3273394	-0.0233342	0.001829216	0.0002513227	-0.4524222	0.4032352	

4.328e+10	-0.1318868	0.1231587	0.001612269	-0.00269156	0.3242047	-0.03096382	0.000435797	-0.001079449	
0.001612269	-0.00269156	-0.1325261	0.128966	0.001809534	-0.0009102985	0.3243047	-0.03280843	
0.3242047	-0.03096382	0.001809534	-0.0009102985	-0.4541715	0.4075047	0.0018309	7.064343e-07	
0.000435797	-0.001079449	0.3243047	-0.03280843	0.0018309	7.064343e-07	-0.4413693	0.4112956	

4.33e+10	-0.13011	0.1163726	0.001364374	-0.003075551	0.3201415	-0.04023553	0.0002928959	-0.001122517	
0.001364374	-0.003075551	-0.1301817	0.1224628	0.001661674	-0.001157002	0.3201148	-0.04193646	
0.3201415	-0.04023553	0.001661674	-0.001157002	-0.442282	0.4166398	0.001806291	-0.000252829	
0.0002928959	-0.001122517	0.3201148	-0.04193646	0.001806291	-0.000252829	-0.4292626	0.4184613	

4.332e+10	-0.1291347	0.1089729	0.001014136	-0.003481606	0.3148763	-0.04896041	0.000146692	-0.001142421	
0.001014136	-0.003481606	-0.1285098	0.1153862	0.001470294	-0.001391993	0.3147356	-0.05055503	
0.3148763	-0.04896041	0.001470294	-0.001391993	-0.4291949	0.4247238	0.001752368	-0.0005075846	
0.000146692	-0.001142421	0.3147356	-0.05055503	0.001752368	-0.0005075846	-0.4160911	0.4246016	

4.334e+10	-0.1291475	0.1010464	0.0005369672	-0.003883654	0.3084072	-0.05694279	5.382067e-06	-0.001137887	
0.0005369672	-0.003883654	-0.1277355	0.1077158	0.001231947	-0.001601855	0.3081703	-0.0584801	
0.3084072	-0.05694279	0.001231947	-0.001601855	-0.4147968	0.4316404	0.001665372	-0.0007607445	
5.382067e-06	-0.001137887	0.3081703	-0.0584801	0.001665372	-0.0007607445	-0.401738	0.4296071	

4.336e+10	-0.1304446	0.09263367	-8.708975e-05	-0.004246107	0.3008086	-0.06394433	-0.0001205383	-0.001113193	
-8.708975e-05	-0.004246107	-0.1280763	0.09952533	0.0009484332	-0.001769784	0.3004397	-0.06546801	
0.3008086	-0.06394433	0.0009484332	-0.001769784	-0.3989737	0.4372384	0.001542139	-0.001008456	
-0.0001205383	-0.001113193	0.3004397	-0.06546801	0.001542139	-0.001008456	-0.3862999	0.4331167	

4.338e+10	-0.1332738	0.08402445	-0.0008701794	-0.004518778	0.2921903	-0.06970655	-0.0002230604	-0.001078065	
-0.0008701794	-0.004518778	-0.129724	0.09103629	0.000631101	-0.001878206	0.2916315	-0.07125389	
0.2921903	-0.06970655	0.000631101	-0.001878206	-0.381686	0.4410968	0.00137952	-0.001244176	
-0.0002230604	-0.001078065	0.2916315	-0.07125389	0.00137952	-0.001244176	-0.3696368	0.4349366	

4.34e+10	-0.1378873	0.07555368	-0.001809983	-0.004639972	0.2827538	-0.07397339	-0.0002999786	-0.001048221	
-0.001809983	-0.004639972	-0.1329657	0.08244223	0.0002993505	-0.001914235	0.2819164	-0.07553401	
0.2827538	-0.07397339	0.0002993505	-0.001914235	-0.3629451	0.4428012	0.001175192	-0.001460496	
-0.0002999786	-0.001048221	0.2819164	-0.07553401	0.001175192	-0.001460496	-0.3518908	0.4345489	

4.342e+10	-0.1444118	0.06773967	-0.002880861	-0.00453776	0.2728188	-0.0765318	-0.0003567872	-0.001043278	
-0.002880861	-0.00453776	-0.1379568	0.07418895	-1.822166e-05	-0.001874311	0.2715802	-0.07803854	
0.2728188	-0.0765318	-1.822166e-05	-0.001874311	-0.3428393	0.4418265	0.0009293951	-0.001647192	
-0.0003567872	-0.001043278	0.2715802	-0.07803854	0.0009293951	-0.001647192	-0.3330972	0.4315998	

4.344e+10	-0.1528353	0.06119164	-0.004021356	-0.004141032	0.2627804	-0.07725077	-0.0004135102	-0.001080047	
-0.004021356	-0.004141032	-0.1448034	0.0667553	-0.0002920817	-0.001772192	0.2610353	-0.07855775	
0.2627804	-0.07725077	-0.0002920817	-0.001772192	-0.3216455	0.4375471	0.0006448367	-0.001792968	
-0.0004135102	-0.001080047	0.2610353	-0.07855775	0.0006448367	-0.001792968	-0.3135654	0.4254653	

4.346e+10	-0.1628882	0.05656435	-0.005135004	-0.003396208	0.2530449	-0.07613378	-0.0005016468	-0.001167053	
-0.005135004	-0.003396208	-0.1533746	0.06075628	-0.0005032153	-0.00163878	0.2507435	-0.07699987	
0.2530449	-0.07613378	-0.0005032153	-0.00163878	-0.3000018	0.4292437	0.0003285915	-0.001885076	
-0.0005016468	-0.001167053	0.2507435	-0.07699987	0.0003285915	-0.001885076	-0.2940455	0.415449	

4.348e+10	-0.1740247	0.05443599	-0.006091738	-0.002287307	0.2440487	-0.07333883	-0.00066114	-0.001294208	
-0.006091738	-0.002287307	-0.1633601	0.05676016	-0.0006523336	-0.001514702	0.2412636	-0.07346249	
0.2440487	-0.07333883	-0.0006523336	-0.001514702	-0.2788939	0.4162924	-5.771914e-06	-0.001911591	
-0.00066114	-0.001294208	0.2412636	-0.07346249	-5.771914e-06	-0.001911591	-0.2754393	0.4010665	

4.35e+10	-0.1854163	0.05523977	-0.006749548	-0.0008622424	0.2360891	-0.06915808	-0.0009329382	-0.001425679	
-0.006749548	-0.0008622424	-0.1740809	0.05532204	-0.000772249	-0.001436023	0.2330697	-0.068225	
0.2360891	-0.06915808	-0.000772249	-0.001436023	-0.2595051	0.398384	-0.0003371975	-0.001866587	
-0.0009329382	-0.001425679	0.2330697	-0.068225	-0.0003371975	-0.001866587	-0.2590577	0.3820519	

4.352e+10	-0.1961805	0.0588943	-0.006992287	0.0007694853	0.2292843	-0.06389225	-0.001339469	-0.001498641	
-0.006992287	0.0007694853	-0.1847473	0.05662398	-0.0009152114	-0.001409302	0.2264453	-0.06169786	
0.2292843	-0.06389225	-0.0009152114	-0.001409302	-0.2433165	0.3755349	-0.000642025	-0.001754416	
-0.001339469	-0.001498641	0.2264453	-0.06169786	-0.000642025	-0.001754416	-0.2463921	0.3586368	

4.354e+10	-0.2054012	0.06519656	-0.006755097	0.002453315	0.2236802	-0.05781016	-0.001866875	-0.001430951	
-0.006755097	0.002453315	-0.1944762	0.06053537	-0.001132952	-0.001402579	0.2215657	-0.05433157	
0.2236802	-0.05781016	-0.001132952	-0.001402579	-0.2319981	0.3483931	-0.0009006283	-0.001593152	
-0.001866875	-0.001430951	0.2215657	-0.05433157	-0.0009006283	-0.001593152	-0.2388646	0.3318039	

4.356e+10	-0.2123935	0.07346482	-0.006046819	0.004022062	0.219242	-0.05101921	-0.002455184	-0.001147481	
-0.006046819	0.004022062	-0.2025245	0.06658668	-0.001448688	-0.00134809	0.2184164	-0.04649357	
0.219242	-0.05101921	-0.001448688	-0.00134809	-0.2270175	0.3181493	-0.00110918	-0.001410529	
-0.002455184	-0.001147481	0.2184164	-0.04649357	-0.00110918	-0.001410529	-0.2379625	0.3028311	

4.358e+10	-0.2167201	0.0828874	-0.004938184	0.005327155	0.2160269	-0.04353513	-0.002997789	-0.0006028271	
-0.004938184	0.005327155	-0.2083301	0.07414205	-0.001835233	-0.001170073	0.2169479	-0.03845681	
0.2160269	-0.04353513	-0.001835233	-0.001170073	-0.2295266	0.2865985	-0.001282255	-0.001225349	
-0.002997789	-0.0006028271	0.2169479	-0.03845681	-0.001282255	-0.001225349	-0.2442975	0.2738084	

4.36e+10	-0.2182517	0.09264235	-0.003546188	0.006267867	0.2142165	-0.03538918	-0.003368863	0.0001824511	
-0.003546188	0.006267867	-0.2117522	0.08234592	-0.002220373	-0.0008186985	0.2171448	-0.03045433	
0.2142165	-0.03538918	-0.002220373	-0.0008186985	-0.240039	0.256063	-0.001441642	-0.001038598	
-0.003368863	0.0001824511	0.2171448	-0.03045433	-0.001441642	-0.001038598	-0.257942	0.247012	

4.362e+10	-0.2172376	0.101854	-0.002003073	0.006797096	0.2141684	-0.02672961	-0.003463076	0.00112589	
-0.002003073	0.006797096	-0.212918	0.09046607	-0.002509448	-0.0002939043	0.2190352	-0.02271661	
0.2141684	-0.02672961	-0.002509448	-0.0002939043	-0.2582	0.2289991	-0.001597563	-0.0008312843	
-0.003463076	0.00112589	0.2190352	-0.02271661	-0.001597563	-0.0008312843	-0.2781202	0.2245751	

4.364e+10	-0.2140484	0.1099587	-0.0004395667	0.00691354	0.2162065	-0.017946	-0.003225259	0.002099313	
-0.0004395667	0.00691354	-0.2121102	0.09796377	-0.002621138	0.0003529943	0.222607	-0.01555722	
0.2162065	-0.017946	-0.002621138	0.0003529943	-0.2825464	0.2077788	-0.001738207	-0.0005849714	
-0.003225259	0.002099313	0.222607	-0.01555722	-0.001738207	-0.0005849714	-0.3029914	0.208396	

4.366e+10	-0.2093034	0.1164968	0.001032213	0.006658467	0.2204699	-0.009626696	-0.002671169	0.002966634	
0.001032213	0.006658467	-0.2097823	0.1045022	-0.002511276	0.001038151	0.2277577	-0.009360318	
0.2204699	-0.009626696	-0.002511276	0.001038151	-0.3108604	0.1940209	-0.001838307	-0.0002960947	
-0.002671169	0.002966634	0.2277577	-0.009360318	-0.001838307	-0.0002960947	-0.3303205	0.199498	

4.368e+10	-0.2036204	0.121334	0.002332194	0.006098148	0.2268767	-0.002452842	-0.001873833	0.003619628	
0.002332194	0.006098148	-0.2064493	0.1098173	-0.002182548	0.001668081	0.2342668	-0.004499788	
0.2268767	-0.002452842	-0.002182548	0.001668081	-0.3406214	0.1881883	-0.001875404	1.898519e-05	
-0.001873833	0.003619628	0.2342668	-0.004499788	-0.001875404	1.898519e-05	-0.3579002	0.1978161	

4.37e+10	-0.1975294	0.1245354	0.003408685	0.005309369	0.2350213	0.002968084	-0.0009354779	0.004000992	
0.003408685	0.005309369	-0.2024663	0.1139908	-0.001674839	0.00216777	0.2417667	-0.001255434	
0.2350213	0.002968084	-0.001674839	0.00216777	-0.3694255	0.1897774	-0.001841963	0.0003317533	
-0.0009354779	0.004000992	0.2417667	-0.001255434	-0.001841963	0.0003317533	-0.3837402	0.2025801	

4.372e+10	-0.1914891	0.1262638	0.004240405	0.004367819	0.2443401	0.006249765	3.80825e-05	0.004101323	
0.004240405	0.004367819	-0.1981665	0.117102	-0.001050777	0.002489963	0.2498199	0.0002074879	
0.2443401	0.006249765	-0.001050777	0.002489963	-0.3952673	0.1977626	-0.001749665	0.0006164975	
3.80825e-05	0.004101323	0.2498199	0.0002074879	-0.001749665	0.0006164975	-0.4062557	0.2127466	

4.374e+10	-0.1856623	0.1268878	0.004826836	0.003340266	0.2541561	0.007269695	0.0009622687	0.003950081	
0.004826836	0.003340266	-0.1937016	0.1193525	-0.0003798839	0.002618083	0.25798	-8.741799e-05	
0.2541561	0.007269695	-0.0003798839	0.002618083	-0.417045	0.2104819	-0.001620342	0.000859738	
0.0009622687	0.003950081	0.25798	-8.741799e-05	-0.001620342	0.000859738	-0.4247	0.2267687	

4.376e+10	-0.1802253	0.1265705	0.005179581	0.002281012	0.2638992	0.006113596	0.001778011	0.003597059	
0.005179581	0.002281012	-0.1892065	0.1208166	0.0002785178	0.002561301	0.2658723	-0.00202091	
0.2638992	0.006113596	0.0002785178	0.002561301	-0.434308	0.2262791	-0.001478525	0.001064386	
0.001778011	0.003597059	0.2658723	-0.00202091	-0.001478525	0.001064386	-0.4388129	0.2431379	

4.378e+10	-0.1751844	0.1256048	0.00531732	0.001232978	0.2730833	0.003020895	0.002455343	0.003097983	
0.00531732	0.001232978	-0.1847366	0.1216264	0.0008779481	0.002342693	0.2731968	-0.005390178	
0.2730833	0.003020895	0.0008779481	0.002342693	-0.4471729	0.2437054	-0.001338803	0.001245399	
0.002455343	0.003097983	0.2731968	-0.005390178	-0.001338803	0.001245399	-0.4487863	0.2606758	

4.38e+10	-0.170527	0.1240771	0.005259643	0.0002306895	0.2814149	-0.001698261	0.002983817	0.002501236	
0.005259643	0.0002306895	-0.1803255	0.1218602	0.001384822	0.001991311	0.2797624	-0.00997045	
0.2814149	-0.001698261	0.001384822	0.001991311	-0.4558908	0.2618313	-0.001202478	0.001422437	
0.002983817	0.002501236	0.2797624	-0.00997045	-0.001202478	0.001422437	-0.4548469	0.2786214	

4.382e+10	-0.1662014	0.1221317	0.005030081	-0.000696693	0.2886768	-0.007720104	0.00336665	0.001848001	
0.005030081	-0.000696693	-0.1759381	0.1215983	0.001777292	0.00153943	0.2854473	-0.01553972	
0.2886768	-0.007720104	0.001777292	0.00153943	-0.4610796	0.27979	-0.0010603	0.0016117	
0.00336665	0.001848001	0.2854473	-0.01553972	-0.0010603	0.0016117	-0.4575314	0.296217	

4.384e+10	-0.1621734	0.1198269	0.004653711	-0.001525294	0.2947812	-0.01474935	0.00361491	0.001166957	
0.004653711	-0.001525294	-0.1716161	0.1208377	0.002041153	0.001019283	0.2901557	-0.0218872	
0.2947812	-0.01474935	0.002041153	0.001019283	-0.4632545	0.2971758	-0.0008944119	0.001820893	
0.00361491	0.001166957	0.2901557	-0.0218872	-0.0008944119	0.001820893	-0.4573325	0.3130249	

4.386e+10	-0.1584044	0.1171703	0.004157633	-0.002238187	0.2996851	-0.02251976	0.003739457	0.0004797055	
0.004157633	-0.002238187	-0.1673674	0.1196025	0.002168197	0.0004616555	0.2938307	-0.02881243	
0.2996851	-0.02251976	0.002168197	0.0004616555	-0.4629088	0.3136485	-0.0006837485	0.002049451	
0.003739457	0.0004797055	0.2938307	-0.02881243	-0.0006837485	0.002049451	-0.4546461	0.3287462	

4.388e+10	-0.1548777	0.1141857	0.003568644	-0.002822798	0.3033791	-0.03081399	0.003753264	-0.0002002015	
0.003568644	-0.002822798	-0.1631886	0.117912	0.002155741	-0.0001029933	0.2964752	-0.03614156	
0.3033791	-0.03081399	0.002155741	-0.0001029933	-0.4604942	0.329074	-0.0004045303	0.002287201	
0.003753264	-0.0002002015	0.2964752	-0.03614156	-0.0004045303	0.002287201	-0.449903	0.3432309	

4.39e+10	-0.1515859	0.1108628	0.002913082	-0.003270031	0.3058872	-0.03944501	0.003664671	-0.0008655487	
0.002913082	-0.003270031	-0.1591014	0.1157637	0.002004753	-0.0006441575	0.2980725	-0.04370778	
0.3058872	-0.03944501	0.002004753	-0.0006441575	-0.4564325	0.3433225	-3.738897e-05	0.002511222	
0.003664671	-0.0008655487	0.2980725	-0.04370778	-3.738897e-05	0.002511222	-0.4434198	0.3563913	

4.392e+10	-0.1485251	0.1071985	0.002218861	-0.003574755	0.3072618	-0.04826866	0.003478193	-0.001509186	
0.002218861	-0.003574755	-0.1551143	0.1131528	0.001720466	-0.001129318	0.2986729	-0.05137988	
0.3072618	-0.04826866	0.001720466	-0.001129318	-0.4508485	0.35657	0.0004308657	0.002687582	
0.003478193	-0.001509186	0.2986729	-0.05137988	0.0004308657	0.002687582	-0.4353956	0.3681984	

4.394e+10	-0.1457115	0.1032077	0.001515061	-0.003735445	0.3075254	-0.05714637	0.003194798	-0.002124146	
0.001515061	-0.003735445	-0.1512822	0.1100744	0.00131671	-0.001523701	0.2982568	-0.05901857	
0.3075254	-0.05714637	0.00131671	-0.001523701	-0.4440177	0.3687615	0.0009972199	0.002773681	
0.003194798	-0.002124146	0.2982568	-0.05901857	0.0009972199	0.002773681	-0.4261564	0.3784924	

4.396e+10	-0.1431748	0.09884344	0.0008314826	-0.003757092	0.3067076	-0.06595961	0.002813185	-0.002702842	
0.0008314826	-0.003757092	-0.1476031	0.1064939	0.0008184633	-0.00179446	0.2968679	-0.06647753	
0.3067076	-0.06595961	0.0008184633	-0.00179446	-0.4360375	0.3799779	0.00164327	0.002727415	
0.002813185	-0.002702842	0.2968679	-0.06647753	0.00164327	0.002727415	-0.4157197	0.3873937	

4.398e+10	-0.1409584	0.09407869	0.0001985893	-0.003651504	0.3048156	-0.07459353	0.002330772	-0.003232171	
0.0001985893	-0.003651504	-0.1440901	0.1023995	0.0002618431	-0.001914981	0.2945065	-0.07362529	
0.3048156	-0.07459353	0.0002618431	-0.001914981	-0.4271669	0.390057	0.002332841	0.002509733	
0.002330772	-0.003232171	0.2945065	-0.07362529	0.002332841	0.002509733	-0.4044567	0.394555	

4.4e+10	-0.1390805	0.08894567	-0.0003567838	-0.003438439	0.3018859	-0.08293219	0.001745598	-0.003696681	
-0.0003567838	-0.003438439	-0.1408132	0.09772202	-0.0003076749	-0.001870261	0.2912501	-0.08031115	
0.3018859	-0.08293219	-0.0003076749	-0.001870261	-0.4172612	0.3991617	0.003014384	0.002094818	
0.001745598	-0.003696681	0.2912501	-0.08031115	0.003014384	0.002094818	-0.3922659	0.4001494	

4.402e+10	-0.1376452	0.08336091	-0.0008130357	-0.003146041	0.2979492	-0.09084208	0.001056644	-0.004075759	
-0.0008130357	-0.003146041	-0.1378535	0.09238945	-0.0008393209	-0.001659413	0.2871524	-0.08636842	
0.2979492	-0.09084208	-0.0008393209	-0.001659413	-0.4064006	0.4072526	0.00362456	0.001473698	
0.001056644	-0.004075759	0.2871524	-0.08636842	0.00362456	0.001473698	-0.3795102	0.4038547	

4.404e+10	-0.1367107	0.07737868	-0.001155388	-0.002808746	0.2930288	-0.09818258	0.0002662323	-0.00434415	
-0.001155388	-0.002808746	-0.1353077	0.08639982	-0.001282429	-0.001300007	0.2823357	-0.09162204	
0.2930288	-0.09818258	-0.001282429	-0.001300007	-0.3946621	0.4141465	0.004097389	0.0006606016	
0.0002662323	-0.00434415	0.2823357	-0.09162204	0.004097389	0.0006606016	-0.3664217	0.4055269	

4.406e+10	-0.1364204	0.07095547	-0.001382389	-0.002466413	0.2871745	-0.1048012	-0.0006189111	-0.004468846	
-0.001382389	-0.002466413	-0.13337	0.07966228	-0.001593926	-0.0008237437	0.2769595	-0.09592207	
0.2871745	-0.1048012	-0.001593926	-0.0008237437	-0.3819488	0.4199035	0.004373261	-0.0003109322	
-0.0006189111	-0.004468846	0.2769595	-0.09592207	0.004373261	-0.0003109322	-0.3531715	0.4051335	

4.408e+10	-0.1368948	0.06412623	-0.001505878	-0.002160232	0.280476	-0.110505	-0.001579656	-0.004409384	
-0.001505878	-0.002160232	-0.1322517	0.07216588	-0.00174224	-0.0002781261	0.2712631	-0.099134	
0.280476	-0.110505	-0.00174224	-0.0002781261	-0.3683106	0.4242908	0.004400423	-0.001388208	
-0.001579656	-0.004409384	0.2712631	-0.099134	0.004400423	-0.001388208	-0.3403354	0.4024476	

4.41e+10	-0.138322	0.05698399	-0.001554894	-0.001929067	0.2730613	-0.1151042	-0.002577376	-0.004121462	
-0.001554894	-0.001929067	-0.1322212	0.06403212	-0.001712245	0.0002819254	0.2655173	-0.1011736	
0.2730613	-0.1151042	-0.001712245	0.0002819254	-0.3539882	0.426987	0.004141827	-0.00250591	
-0.002577376	-0.004121462	0.2655173	-0.1011736	0.004141827	-0.00250591	-0.3284541	0.3974564	

4.412e+10	-0.1408624	0.04966076	-0.001576709	-0.001798526	0.2651441	-0.118427	-0.003548481	-0.00356711	
-0.001576709	-0.001798526	-0.1335077	0.05543725	-0.001508551	0.0007983993	0.2600614	-0.1020845	
0.2651441	-0.118427	-0.001508551	0.0007983993	-0.3388171	0.4279409	0.003575961	-0.003588716	
-0.003548481	-0.00356711	0.2600614	-0.1020845	0.003575961	-0.003588716	-0.3180477	0.3903821	

4.414e+10	-0.1447556	0.04230208	-0.001634424	-0.00177245	0.2569915	-0.1203125	-0.00440057	-0.002733788	
-0.001634424	-0.00177245	-0.1364202	0.04660071	-0.001153952	0.001216437	0.255225	-0.1020207	
0.2569915	-0.1203125	-0.001153952	0.001216437	-0.3232073	0.4267371	0.002700018	-0.004548252	
-0.00440057	-0.002733788	0.255225	-0.1020207	0.002700018	-0.004548252	-0.3097234	0.3816587	

4.416e+10	-0.1500915	0.03531421	-0.001791504	-0.001818598	0.2489565	-0.1206936	-0.005030587	-0.001651055	
-0.001791504	-0.001818598	-0.1410755	0.03798585	-0.0006895373	0.001492295	0.2512347	-0.1012505	
0.2489565	-0.1206936	-0.0006895373	0.001492295	-0.3074058	0.4231078	0.001531615	-0.005291496	
-0.005030587	-0.001651055	0.2512347	-0.1012505	0.001531615	-0.005291496	-0.303947	0.37188	

4.418e+10	-0.1569719	0.02906468	-0.002094603	-0.001870161	0.2413994	-0.1196165	-0.005347961	-0.0003946066	
-0.002094603	-0.001870161	-0.1475525	0.02999308	-0.0001681543	0.001595061	0.2482132	-0.1001335	
0.2413994	-0.1196165	-0.0001681543	0.001595061	-0.2917973	0.4168846	0.0001171218	-0.0057152	
-0.005347961	-0.0003946066	0.2482132	-0.1001335	0.0001171218	-0.0057152	-0.3009839	0.3618939	

4.42e+10	-0.1653129	0.02402815	-0.002550545	-0.001838158	0.2347367	-0.1172708	-0.005298847	0.0009181272	
-0.002550545	-0.001838158	-0.1557606	0.02313963	0.0003451624	0.001512516	0.2461528	-0.09901267	
0.2347367	-0.1172708	0.0003451624	0.001512516	-0.277064	0.4078404	-0.00145589	-0.005720027	
-0.005298847	0.0009181272	0.2461528	-0.09901267	-0.00145589	-0.005720027	-0.3007017	0.3525745	

4.422e+10	-0.174836	0.02072415	-0.003115405	-0.001633544	0.2292635	-0.113972	-0.004887306	0.002159636	
-0.003115405	-0.001633544	-0.1654267	0.01797109	0.0007776992	0.001260727	0.2448817	-0.09823335	
0.2292635	-0.113972	0.0007776992	0.001260727	-0.2638542	0.3960818	-0.003040497	-0.005226195	
-0.004887306	0.002159636	0.2448817	-0.09823335	-0.003040497	-0.005226195	-0.302648	0.344861	

4.424e+10	-0.1851036	0.0195205	-0.003702921	-0.001196725	0.2251426	-0.1101647	-0.004170356	0.003215086	
-0.003702921	-0.001196725	-0.1761925	0.01476433	0.001068234	0.0008904616	0.2441348	-0.09797331	
0.2251426	-0.1101647	0.001068234	0.0008904616	-0.2528648	0.3818923	-0.004448297	-0.004219801	
-0.004170356	0.003215086	0.2441348	-0.09797331	-0.004448297	-0.004219801	-0.306108	0.3392522	

4.426e+10	-0.1954453	0.02071459	-0.004205048	-0.00051855	0.2223041	-0.1062957	-0.003239253	0.004018754	
-0.004205048	-0.00051855	-0.187503	0.01393388	0.00118719	0.0004769105	0.2435939	-0.09829963	
0.2223041	-0.1062957	0.00118719	0.0004769105	-0.2448257	0.3657163	-0.005479778	-0.002778848	
-0.003239253	0.004018754	0.2435939	-0.09829963	-0.005479778	-0.002778848	-0.3100953	0.336047	

4.428e+10	-0.205158	0.02428205	-0.0045195	0.0003572798	0.2205586	-0.102731	-0.002184405	0.004549013	
-0.0045195	0.0003572798	-0.1987708	0.01557379	0.001148783	0.0001019704	0.243023	-0.09912144	
0.2205586	-0.102731	0.001148783	0.0001019704	-0.240078	0.348403	-0.00598338	-0.001072268	
-0.002184405	0.004549013	0.243023	-0.09912144	-0.00598338	-0.001072268	-0.3136295	0.3351518	

4.43e+10	-0.2136165	0.02990779	-0.004578675	0.001350183	0.2195684	-0.09964223	-0.001079338	0.004808963	
-0.004578675	0.001350183	-0.2093972	0.01957265	0.00100552	-0.0001805412	0.2422917	-0.1002961	
0.2195684	-0.09964223	0.00100552	-0.0001805412	-0.2388644	0.3307068	-0.005899123	0.0006783786	
-0.001079338	0.004808963	0.2422917	-0.1002961	-0.005899123	0.0006783786	-0.3161023	0.3360267	

4.432e+10	-0.2202845	0.03717925	-0.004354809	0.002361517	0.2190227	-0.09707124	1.630089e-05	0.004814272	
-0.004354809	0.002361517	-0.2187576	0.02585296	0.0008228888	-0.0003556355	0.2413179	-0.1016935	
0.2190227	-0.09707124	0.0008228888	-0.0003556355	-0.241203	0.3134348	-0.005271397	0.002252792	
1.630089e-05	0.004814272	0.2413179	-0.1016935	-0.005271397	0.002252792	-0.3169516	0.3381099	

4.434e+10	-0.22487	0.04546429	-0.003860329	0.003293538	0.2186933	-0.09485918	0.001058457	0.004586141	
-0.003860329	0.003293538	-0.2263383	0.03394766	0.0006534963	-0.0004456011	0.2401264	-0.1032161	
0.2186933	-0.09485918	0.0006534963	-0.0004456011	-0.2468127	0.2973929	-0.004223873	0.003481892	
0.001058457	0.004586141	0.2401264	-0.1032161	-0.004223873	0.003481892	-0.3161255	0.340549	

4.436e+10	-0.2272504	0.05418061	-0.003143089	0.00406815	0.2185079	-0.09283213	0.002005654	0.004143173	
-0.003143089	0.00406815	-0.2317444	0.04332792	0.0005207556	-0.0004909584	0.2386986	-0.1047963	
0.2185079	-0.09283213	0.0005207556	-0.0004909584	-0.2552919	0.2833315	-0.002929692	0.004270708	
0.002005654	0.004143173	0.2386986	-0.1047963	-0.002929692	0.004270708	-0.3133602	0.3429327	

4.438e+10	-0.2274923	0.06283273	-0.00227216	0.004631915	0.2184881	-0.09084045	0.002820248	0.003510315	
-0.00227216	0.004631915	-0.2347587	0.05346516	0.0004178463	-0.0005248534	0.2370115	-0.1064029	
0.2184881	-0.09084045	0.0004178463	-0.0005248534	-0.2659871	0.2718068	-0.001563739	0.004603986	
0.002820248	0.003510315	0.2370115	-0.1064029	-0.001563739	0.004603986	-0.3090729	0.3444674	

4.44e+10	-0.2258277	0.0708134	-0.001321732	0.004963947	0.2187781	-0.0888188	0.003463273	0.002713016	
-0.001321732	0.004963947	-0.235346	0.06372161	0.000322069	-0.0005651511	0.2350453	-0.1079994	
0.2187781	-0.0888188	0.000322069	-0.0005651511	-0.2783045	0.2629955	-0.0002741494	0.004530313	
0.003463273	0.002713016	0.2350453	-0.1079994	-0.0002741494	0.004530313	-0.3035601	0.344685	

4.442e+10	-0.2225471	0.0778477	-0.0003673907	0.005073215	0.2195054	-0.08678869	0.003895235	0.001788479	
-0.0003673907	0.005073215	-0.233642	0.07353255	0.0002123838	-0.0006030966	0.2327492	-0.1094986	
0.2195054	-0.08678869	0.0002123838	-0.0006030966	-0.2912763	0.2572467	0.0008416888	0.004135924	
0.003895235	0.001788479	0.2327492	-0.1094986	0.0008416888	0.004135924	-0.297198	0.3433368	

4.444e+10	-0.2179724	0.08367175	0.0005365909	0.004992145	0.2207705	-0.08486523	0.004076512	0.0007912862	
0.0005365909	0.004992145	-0.2298496	0.08247915	8.322863e-05	-0.0006197262	0.2300868	-0.1107877	
0.2207705	-0.08486523	8.322863e-05	-0.0006197262	-0.3043985	0.254246	0.001728922	0.003511776	
0.004076512	0.0007912862	0.2300868	-0.1107877	0.001728922	0.003511776	-0.2904916	0.340122	

4.446e+10	-0.212517	0.08811434	0.001359746	0.004762699	0.2225995	-0.08319997	0.003986366	-0.0002043402	
0.001359746	0.004762699	-0.224348	0.09014183	-5.594045e-05	-0.0005996062	0.2270384	-0.1117266	
0.2225995	-0.08319997	-5.594045e-05	-0.0005996062	-0.3170136	0.2537941	0.002364552	0.002740907	
0.003986366	-0.0002043402	0.2270384	-0.1117266	0.002364552	0.002740907	-0.2839795	0.3348572	

4.448e+10	-0.2065338	0.09109228	0.002091035	0.004429219	0.2249518	-0.08193801	0.003631593	-0.001108488	
0.002091035	0.004429219	-0.2174706	0.09627892	-0.0001857243	-0.0005360371	0.2236615	-0.1121185	
0.2249518	-0.08193801	-0.0001857243	-0.0005360371	-0.3287503	0.2554647	0.002738437	0.001899084	
0.003631593	-0.001108488	0.2236615	-0.1121185	0.002738437	0.001899084	-0.2781672	0.3275397	

4.45e+10	-0.2003232	0.0926472	0.002738944	0.004020264	0.227756	-0.08117642	0.003059627	-0.001840227	
0.002738944	0.004020264	-0.2095617	0.1006751	-0.000288103	-0.0004333017	0.2200806	-0.1117789	
0.227756	-0.08117642	-0.000288103	-0.0004333017	-0.3393195	0.2588667	0.002859021	0.001061159	
0.003059627	-0.001840227	0.2200806	-0.1117789	0.002859021	0.001061159	-0.2737118	0.3182193	

4.452e+10	-0.1941862	0.09291344	0.003317582	0.003552198	0.2309015	-0.08100988	0.002346863	-0.002342525	
0.003317582	0.003552198	-0.2009634	0.1033255	-0.0003473397	-0.0003032173	0.2164921	-0.1105178	
0.2309015	-0.08100988	-0.0003473397	-0.0003032173	-0.3486939	0.2636195	0.002754398	0.0002973362	
0.002346863	-0.002342525	0.2164921	-0.1105178	0.002754398	0.0002973362	-0.2712069	0.3071913	

4.454e+10	-0.1883391	0.09198122	0.00383704	0.003022816	0.2343311	-0.08150184	0.001581078	-0.002592866	
0.00383704	0.003022816	-0.1920597	0.104063	-0.0003547041	-0.0001644225	0.2132475	-0.1082287	
0.2343311	-0.08150184	-0.0003547041	-0.0001644225	-0.3569538	0.2693749	0.002473767	-0.0003383624	
0.001581078	-0.002592866	0.2132475	-0.1082287	0.002473767	-0.0003383624	-0.2715086	0.2947467	

4.456e+10	-0.1829712	0.09007264	0.004297347	0.002424693	0.2379129	-0.08271037	0.000849503	-0.002603828	
0.004297347	0.002424693	-0.1832028	0.1029348	-0.0003096736	-3.720045e-05	0.2107046	-0.1049157	
0.2379129	-0.08271037	-0.0003096736	-3.720045e-05	-0.3639911	0.2760841	0.002077541	-0.000816146	
0.000849503	-0.002603828	0.2107046	-0.1049157	0.002077541	-0.000816146	-0.2749239	0.2818234	

4.458e+10	-0.1782405	0.08731913	0.00468429	0.001750266	0.2415611	-0.08466923	0.0002276793	-0.002417603	
0.00468429	0.001750266	-0.1747508	0.09999974	-0.0002204786	5.660928e-05	0.2093074	-0.1007194	
0.2415611	-0.08466923	-0.0002204786	5.660928e-05	-0.3699721	0.2834794	0.001624811	-0.001125408	
0.0002276793	-0.002417603	0.2093074	-0.1007194	0.001624811	-0.001125408	-0.2819283	0.2692283	

4.46e+10	-0.1741883	0.08394354	0.004975544	0.001000806	0.2451232	-0.08743391	-0.0002344831	-0.002101056	
0.004975544	0.001000806	-0.1671674	0.09531194	-0.0001026566	0.0001043912	0.2094535	-0.09601031	
0.2451232	-0.08743391	-0.0001026566	0.0001043912	-0.3747317	0.2916156	0.001170978	-0.001274143	
-0.0002344831	-0.002101056	0.2094535	-0.09601031	0.001170978	-0.001274143	-0.2925582	0.2581971	

4.462e+10	-0.1708298	0.08013165	0.005147166	0.000190771	0.2484433	-0.09098619	-0.0005187861	-0.001730301	
0.005147166	0.000190771	-0.1607434	0.08921158	2.415703e-05	9.733716e-05	0.2113964	-0.0913261	
0.2484433	-0.09098619	2.415703e-05	9.733716e-05	-0.378359	0.3002063	0.0007664587	-0.001287534	
-0.0005187861	-0.001730301	0.2113964	-0.0913261	0.0007664587	-0.001287534	-0.3064334	0.2498319	

4.464e+10	-0.1681464	0.07606238	0.00517976	-0.0006557244	0.2513862	-0.09531696	-0.0006413163	-0.001379076	
0.00517976	-0.0006557244	-0.1557966	0.08200329	0.0001388248	3.81449e-05	0.2151444	-0.08732172	
0.2513862	-0.09531696	0.0001388248	3.81449e-05	-0.3806815	0.3092611	0.00044363	-0.001208549	
-0.0006413163	-0.001379076	0.2151444	-0.08732172	0.00044363	-0.001208549	-0.3225321	0.2452591	

4.466e+10	-0.166102	0.07180991	0.005065761	-0.001506415	0.2537856	-0.100363	-0.0006429194	-0.001098024	
0.005065761	-0.001506415	-0.1525121	0.07412172	0.0002224981	-6.627881e-05	0.2204326	-0.08462938	
0.2537856	-0.100363	0.0002224981	-6.627881e-05	-0.381634	0.3186432	0.000211357	-0.001085719	
-0.0006429194	-0.001098024	0.2204326	-0.08462938	0.000211357	-0.001085719	-0.339588	0.2450988	

4.468e+10	-0.1645763	0.06749766	0.004808935	-0.002329392	0.2555007	-0.1060357	-0.0005736432	-0.0009158854	
0.004808935	-0.002329392	-0.1508215	0.06604911	0.0002649986	-0.0002009773	0.2267339	-0.08370052	
0.2555007	-0.1060357	0.0002649986	-0.0002009773	-0.381174	0.3280929	5.570275e-05	-0.000954466	
-0.0005736432	-0.0009158854	0.2267339	-0.08370052	5.570275e-05	-0.000954466	-0.3563224	0.2492217	

4.47e+10	-0.163523	0.06319667	0.004421768	-0.003098801	0.256392	-0.1122068	-0.0004872742	-0.0008382302	
0.004421768	-0.003098801	-0.1506144	0.05817766	0.0002587524	-0.0003510915	0.2334349	-0.08476961	
0.256392	-0.1122068	0.0002587524	-0.0003510915	-0.3792815	0.3374528	-4.368331e-05	-0.0008366003	
-0.0004872742	-0.0008382302	0.2334349	-0.08476961	-4.368331e-05	-0.0008366003	-0.3714655	0.2573109	

4.472e+10	-0.1628109	0.05893672	0.003923527	-0.003796324	0.2563379	-0.1186837	-0.0004294751	-0.000851693	
0.003923527	-0.003796324	-0.1516192	0.05078994	0.0002033443	-0.0005030673	0.2398962	-0.08777531	
0.2563379	-0.1186837	0.0002033443	-0.0005030673	-0.375967	0.3464467	-0.0001049143	-0.000740222	
-0.0004294751	-0.000851693	0.2398962	-0.08777531	-0.0001049143	-0.000740222	-0.3841078	0.2685557	

4.474e+10	-0.1624286	0.05463171	0.003332918	-0.004413148	0.2553073	-0.1253059	-0.0004342874	-0.0009266833	
0.003332918	-0.004413148	-0.1535961	0.04398497	9.895557e-05	-0.000643597	0.2456075	-0.09250375	
0.2553073	-0.1253059	9.895557e-05	-0.000643597	-0.3714212	0.3548138	-0.000143564	-0.0006702368	
-0.0004342874	-0.0009266833	0.2456075	-0.09250375	-0.000143564	-0.0006702368	-0.3937761	0.28202	

4.476e+10	-0.1623129	0.05030633	0.002664157	-0.004946015	0.2532478	-0.1318606	-0.0005199016	-0.001027002	
0.002664157	-0.004946015	-0.1563108	0.03781555	-5.018164e-05	-0.000761348	0.2501714	-0.09857035	
0.2532478	-0.1318606	-5.018164e-05	-0.000761348	-0.3656247	0.3624479	-0.0001744164	-0.0006259544	
-0.0005199016	-0.001027002	0.2501714	-0.09857035	-0.0001744164	-0.0006259544	-0.4003031	0.2967496	

4.478e+10	-0.1624544	0.0458475	0.001925226	-0.005397419	0.2501963	-0.1381842	-0.0006876049	-0.001115503	
0.001925226	-0.005397419	-0.1595264	0.03228209	-0.00023741	-0.0008468822	0.253401	-0.1055896	
0.2501963	-0.1381842	-0.00023741	-0.0008468822	-0.3587369	0.369155	-0.0002112488	-0.0006018844	
-0.0006876049	-0.001115503	0.253401	-0.1055896	-0.0002112488	-0.0006018844	-0.403793	0.3120867	

4.48e+10	-0.1628718	0.0412734	0.00111735	-0.005764917	0.2461661	-0.1440381	-0.0009305162	-0.001160644	
0.00111735	-0.005764917	-0.1631415	0.02730052	-0.0004580289	-0.0008927604	0.2552046	-0.1131657	
0.2461661	-0.1440381	-0.0004580289	-0.0008927604	-0.3509168	0.3747355	-0.0002608088	-0.0005868885	
-0.0009305162	-0.001160644	0.2552046	-0.1131657	-0.0002608088	-0.0005868885	-0.4045411	0.3273571	

4.482e+10	-0.1636121	0.03648169	0.0002374198	-0.006042738	0.2412481	-0.1492248	-0.001232731	-0.001135939	
0.0002374198	-0.006042738	-0.1670818	0.02279824	-0.0007071146	-0.0008921566	0.2555968	-0.1209511	
0.2412481	-0.1492248	-0.0007071146	-0.0008921566	-0.3422814	0.3790762	-0.0003227153	-0.0005720269	
-0.001232731	-0.001135939	0.2555968	-0.1209511	-0.0003227153	-0.0005720269	-0.4028772	0.3421486	

4.484e+10	-0.1647634	0.0314601	-0.0007195397	-0.006216899	0.2355796	-0.1535255	-0.001574129	-0.00101796	
-0.0007195397	-0.006216899	-0.1712858	0.01875885	-0.0009806525	-0.0008354865	0.2546703	-0.1286488	
0.2355796	-0.1535255	-0.0009806525	-0.0008354865	-0.3331709	0.381921	-0.0003947539	-0.0005532203	
-0.001574129	-0.00101796	0.2546703	-0.1286488	-0.0003947539	-0.0005532203	-0.3989716	0.356346	

4.486e+10	-0.1664918	0.02613146	-0.001753994	-0.006265209	0.2293699	-0.156759	-0.001927525	-0.0007870009	
-0.001753994	-0.006265209	-0.1758151	0.01507267	-0.001271929	-0.000708819	0.2525331	-0.1360092	
0.2293699	-0.156759	-0.001271929	-0.000708819	-0.323839	0.3832117	-0.0004777728	-0.0005280202	
-0.001927525	-0.0007870009	0.2525331	-0.1360092	-0.0004777728	-0.0005280202	-0.3931372	0.3696972	

4.488e+10	-0.1689431	0.02056404	-0.002863216	-0.006157013	0.2228796	-0.1587907	-0.002256735	-0.0004292708	
-0.002863216	-0.006157013	-0.1806685	0.01174664	-0.001565451	-0.0004974925	0.2493486	-0.1428322	
0.2228796	-0.1587907	-0.001565451	-0.0004974925	-0.3145407	0.3829281	-0.0005743737	-0.0004928198	
-0.002256735	-0.0004292708	0.2493486	-0.1428322	-0.0005743737	-0.0004928198	-0.3856149	0.3819976	

4.49e+10	-0.1723175	0.01489401	-0.004033339	-0.005855399	0.2164093	-0.159539	-0.00251778	6.021414e-05	
-0.004033339	-0.005855399	-0.1859088	0.008864795	-0.001839565	-0.0001855588	0.2452761	-0.1489485	
0.2164093	-0.159539	-0.001839565	-0.0001855588	-0.3057096	0.3810425	-0.0006859116	-0.0004376474	
-0.00251778	6.021414e-05	0.2452761	-0.1489485	-0.0006859116	-0.0004376474	-0.3765145	0.3931748	

4.492e+10	-0.1767874	0.009265034	-0.005232567	-0.005317268	0.210316	-0.1590088	-0.0026629	0.0006683803	
-0.005232567	-0.005317268	-0.1915724	0.006422056	-0.002061685	0.0002338059	0.2405368	-0.1542381	
0.210316	-0.1590088	-0.002061685	0.0002338059	-0.2977285	0.3776668	-0.0008080487	-0.0003530278	
-0.0026629	0.0006683803	0.2405368	-0.1542381	-0.0008080487	-0.0003530278	-0.3658658	0.4032108	

4.494e+10	-0.1825066	0.003982307	-0.006412201	-0.004499886	0.2050153	-0.1573365	-0.002640513	0.001368127	
-0.006412201	-0.004499886	-0.1976859	0.004624205	-0.002190543	0.0007589716	0.2353418	-0.1586265	
0.2050153	-0.1573365	-0.002190543	0.0007589716	-0.2911234	0.3730234	-0.0009336351	-0.0002310513	
-0.002640513	0.001368127	0.2353418	-0.1586265	-0.0009336351	-0.0002310513	-0.3538738	0.4118523	

4.496e+10	-0.1894992	-0.000562257	-0.007494915	-0.003377787	0.2008067	-0.154804	-0.002408187	0.002108951	
-0.007494915	-0.003377787	-0.2041789	0.003563956	-0.002180456	0.001372575	0.2299053	-0.1620902	
0.2008067	-0.154804	-0.002180456	0.001372575	-0.2861129	0.3676605	-0.001053542	-6.259195e-05	
-0.002408187	0.002108951	0.2299053	-0.1620902	-0.001053542	-6.259195e-05	-0.3406733	0.4188996	

4.498e+10	-0.1976809	-0.003933727	-0.008385142	-0.001938946	0.1979232	-0.1518279	-0.001934536	0.002820036	
-0.008385142	-0.001938946	-0.2109922	0.003425034	-0.00198674	0.002032337	0.2244745	-0.1646578	
0.1979232	-0.1518279	-0.00198674	0.002032337	-0.2828702	0.3621876	-0.001153025	0.0001630733	
-0.001934536	0.002820036	0.2244745	-0.1646578	-0.001153025	0.0001630733	-0.3263337	0.4242123	

4.5e+10	-0.2067414	-0.005702587	-0.008973634	-0.0002146096	0.1964089	-0.1488827	-0.001220577	0.003412692	
-0.008973634	-0.0002146096	-0.2179369	0.004336808	-0.001581453	0.002678357	0.2192528	-0.166422	
0.1964089	-0.1488827	-0.001581453	0.002678357	-0.2812403	0.3572643	-0.001203679	0.0004524332	
-0.001220577	0.003412692	0.2192528	-0.166422	-0.001203679	0.0004524332	-0.3110959	0.4275587	

4.502e+10	-0.2162759	-0.005663383	-0.009147871	0.001716936	0.1961273	-0.1464126	-0.0003003229	0.003795637	
-0.009147871	0.001716936	-0.2247968	0.006475472	-0.0009626287	0.003239397	0.2144101	-0.1675637	
0.1961273	-0.1464126	-0.0009626287	0.003239397	-0.2809601	0.3533418	-0.001168282	0.0007924739	
-0.0003003229	0.003795637	0.2144101	-0.1675637	-0.001168282	0.0007924739	-0.2953032	0.4287064	

4.504e+10	-0.2257515	-0.003585799	-0.008829003	0.003731333	0.1968084	-0.1447712	0.0007513327	0.003891738	
-0.008829003	0.003731333	-0.2313035	0.009775373	-0.0001456767	0.003642888	0.2100402	-0.1682679	
0.1968084	-0.1447712	-0.0001456767	0.003642888	-0.2812641	0.3509495	-0.001016199	0.001147393	
0.0007513327	0.003891738	0.2100402	-0.1682679	-0.001016199	0.001147393	-0.2791655	0.4275863	

4.506e+10	-0.2346296	0.0004095064	-0.00798264	0.00567087	0.1980622	-0.1441754	0.001830944	0.003655833	
-0.00798264	0.00567087	-0.2371519	0.01425557	0.0008247993	0.003817105	0.2061654	-0.1687625	
0.1980622	-0.1441754	0.0008247993	0.003817105	-0.2815879	0.3500996	-0.000741288	0.00146369	
0.001830944	0.003655833	0.2061654	-0.1687625	-0.000741288	0.00146369	-0.2631517	0.4240896	

4.508e+10	-0.2424223	0.006136359	-0.006645638	0.00736262	0.1994929	-0.1446902	0.002821185	0.00308667	
-0.006645638	0.00736262	-0.2420971	0.01973385	0.001882592	0.00370022	0.2027218	-0.1692554	
0.1994929	-0.1446902	0.001882592	0.00370022	-0.2811065	0.3506273	-0.0003666274	0.001695719	
0.002821185	0.00308667	0.2027218	-0.1692554	-0.0003666274	0.001695719	-0.2476861	0.4181478	

4.51e+10	-0.2487694	0.01321161	-0.004912003	0.008664285	0.2007524	-0.146257	0.0036098	0.002224935	
-0.004912003	0.008664285	-0.2458973	0.02601843	0.002922734	0.003253211	0.1995712	-0.1699205	
0.2007524	-0.146257	0.002922734	0.003253211	-0.2793958	0.3520047	7.180626e-05	0.001817082	
0.0036098	0.002224935	0.1995712	-0.1699205	7.180626e-05	0.001817082	-0.2329948	0.4099784	

4.512e+10	-0.2534281	0.02128095	-0.002929939	0.009476812	0.2015473	-0.1487075	0.004108876	0.001150466	
-0.002929939	0.009476812	-0.2483977	0.03292273	0.003829722	0.002477084	0.1965158	-0.1708346	
0.2015473	-0.1487075	0.003829722	0.002477084	-0.2760252	0.3536777	0.0005329161	0.00182019	
0.004108876	0.001150466	0.1965158	-0.1708346	0.0005329161	0.00182019	-0.2195498	0.39969	

4.514e+10	-0.256294	0.0298809	-0.0008653694	0.009769448	0.2016738	-0.1518342	0.004260795	-2.991154e-05	
-0.0008653694	0.009769448	-0.2495055	0.04005364	0.004486804	0.001427781	0.1933442	-0.1720033	
0.2016738	-0.1518342	0.004486804	0.001427781	-0.2711241	0.3548723	0.0009865315	0.001709343	
0.004260795	-2.991154e-05	0.1933442	-0.1720033	0.0009865315	0.001709343	-0.2076562	0.3874396	

4.516e+10	-0.257328	0.03868754	0.001127403	0.009574049	0.2009853	-0.1554399	0.004053506	-0.001196472	
0.001127403	0.009574049	-0.2491675	0.04726087	0.004808877	0.0002015685	0.1898451	-0.1733463	
0.2009853	-0.1554399	0.004808877	0.0002015685	-0.2647681	0.3550843	0.001407164	0.00149544	
0.004053506	-0.001196472	0.1898451	-0.1733463	0.001407164	0.00149544	-0.1975048	0.3734944	

4.518e+10	-0.25663	0.04728564	0.002931137	0.008968884	0.1993718	-0.1593046	0.003512853	-0.002239141	
0.002931137	0.008968884	-0.2474482	0.05417869	0.004751742	-0.001078959	0.1858569	-0.1747084	
0.1993718	-0.1593046	0.004751742	-0.001078959	-0.2573237	0.353786	0.001780044	0.00119614	
0.003512853	-0.002239141	0.1858569	-0.1747084	0.001780044	0.00119614	-0.1893475	0.3580685	

4.52e+10	-0.2542956	0.05539891	0.004473869	0.008057471	0.1967497	-0.1631592	0.002699907	-0.003063306	
0.004473869	0.008057471	-0.244415	0.06057714	0.004320975	-0.002289384	0.1812749	-0.1758578	
0.1967497	-0.1631592	0.004320975	-0.002289384	-0.2492042	0.3505348	0.002100648	0.000823235	
0.002699907	-0.003063306	0.1812749	-0.1758578	0.002100648	0.000823235	-0.1833234	0.3413243	

4.522e+10	-0.2504745	0.06272898	0.005731582	0.006942836	0.1931118	-0.1667308	0.001696258	-0.003600653	
0.005731582	0.006942836	-0.2401523	0.06623917	0.003563833	-0.003313457	0.1760671	-0.1765102	
0.1931118	-0.1667308	0.003563833	-0.003313457	-0.2409367	0.3451178	0.002367506	0.0003742264	
0.001696258	-0.003600653	0.1760671	-0.1765102	0.002367506	0.0003742264	-0.1795587	0.3235328	

4.524e+10	-0.2453251	0.0690964	0.006718477	0.00570777	0.1885076	-0.1697151	0.0005991987	-0.003812905	
0.006718477	0.00570777	-0.2348057	0.07098147	0.002560294	-0.004067724	0.1703163	-0.1763677	
0.1885076	-0.1697151	0.002560294	-0.004067724	-0.233302	0.3373081	0.002565061	-0.0001608631	
0.0005991987	-0.003812905	0.1703163	-0.1763677	0.002565061	-0.0001608631	-0.1785083	0.3047473	

4.526e+10	-0.2390476	0.07427201	0.007465307	0.004405128	0.1830427	-0.1717743	-0.0004887731	-0.003686741	
0.007465307	0.004405128	-0.228511	0.07460064	0.001409222	-0.004497384	0.1642003	-0.1751065	
0.1830427	-0.1717743	0.001409222	-0.004497384	-0.2268357	0.3272261	0.002659847	-0.0007889935	
-0.0004887731	-0.003686741	0.1642003	-0.1751065	0.002659847	-0.0007889935	-0.1804649	0.2852467	

4.528e+10	-0.2318295	0.07806429	0.008000915	0.003059413	0.1769919	-0.1726167	-0.001461945	-0.003243885	
0.008000915	0.003059413	-0.221429	0.07689314	0.0002136579	-0.004585025	0.1580438	-0.1724685	
0.1769919	-0.1726167	0.0002136579	-0.004585025	-0.2221943	0.3150972	0.002608802	-0.001497403	
-0.001461945	-0.003243885	0.1580438	-0.1724685	0.002608802	-0.001497403	-0.1857805	0.2655193	

4.53e+10	-0.2239526	0.08031898	0.008343665	0.001678893	0.1706899	-0.1719998	-0.002227629	-0.002538336	
0.008343665	0.001678893	-0.2138061	0.07765008	-0.0009279731	-0.004339693	0.1523174	-0.1682835	
0.1706899	-0.1719998	-0.0009279731	-0.004339693	-0.2202322	0.3011296	0.002365232	-0.002257423	
-0.002227629	-0.002538336	0.1523174	-0.1682835	0.002365232	-0.002257423	-0.1949726	0.2460824	

4.532e+10	-0.2156639	0.080848	0.008492068	0.0002649601	0.1646089	-0.1697564	-0.002712064	-0.001652204	
0.008492068	0.0002649601	-0.2059182	0.07670305	-0.001924221	-0.003794488	0.1475975	-0.1625606	
0.1646089	-0.1697564	-0.001924221	-0.003794488	-0.2213697	0.2861092	0.001885609	-0.003016786	
-0.002712064	-0.001652204	0.1475975	-0.1625606	0.001885609	-0.003016786	-0.2082907	0.2279475	

4.534e+10	-0.2073063	0.07961895	0.008431538	-0.001177773	0.1593111	-0.1659192	-0.002871081	-0.0006855769	
0.008431538	-0.001177773	-0.1981766	0.07393753	-0.002691129	-0.003002474	0.1444967	-0.1555514	
0.1593111	-0.1659192	-0.002691129	-0.003002474	-0.2262754	0.2707184	0.001134337	-0.003693643	
-0.002871081	-0.0006855769	0.1444967	-0.1555514	0.001134337	-0.003693643	-0.2258187	0.2122063	

4.536e+10	-0.1993007	0.07650439	0.008132093	-0.002627065	0.155357	-0.1607028	-0.002691391	0.0002425678	
0.008132093	-0.002627065	-0.1910558	0.06931214	-0.003155436	-0.002048381	0.1435247	-0.1477444	
0.155357	-0.1607028	-0.003155436	-0.002048381	-0.2351196	0.2561389	0.0001088204	-0.004172381	
-0.002691391	0.0002425678	0.1435247	-0.1477444	0.0001088204	-0.004172381	-0.247148	0.2001365	

4.538e+10	-0.1920585	0.07165495	0.007567729	-0.004036209	0.1532326	-0.154554	-0.002206681	0.001007504	
0.007567729	-0.004036209	-0.1850495	0.06303202	-0.003273121	-0.001049624	0.1450175	-0.1399294	
0.1532326	-0.154554	-0.003273121	-0.001049624	-0.2478046	0.2435169	-0.001129083	-0.00431916	
-0.002206681	0.001007504	0.1450175	-0.1399294	-0.001129083	-0.00431916	-0.2711795	0.1930736	

4.54e+10	-0.1860173	0.06525171	0.006727997	-0.005336752	0.1532391	-0.1481002	-0.001503467	0.001500321	
0.006727997	-0.005336752	-0.1805878	0.05548706	-0.003055479	-0.0001446272	0.1489243	-0.1329574	
0.1532391	-0.1481002	-0.003055479	-0.0001446272	-0.2638186	0.2339822	-0.002438574	-0.004031326	
-0.001503467	0.001500321	0.1489243	-0.1329574	-0.002438574	-0.004031326	-0.2966288	0.1916042	

4.542e+10	-0.1815055	0.05764668	0.005632897	-0.006452108	0.1554592	-0.1420732	-0.0007138137	0.001656661	
0.005632897	-0.006452108	-0.1779274	0.0470769	-0.002574374	0.0005448525	0.1548609	-0.127603	
0.1554592	-0.1420732	-0.002574374	0.0005448525	-0.2820941	0.2285984	-0.003631182	-0.003286786	
-0.0007138137	0.001656661	0.1548609	-0.127603	-0.003631182	-0.003286786	-0.3216352	0.1961729	

4.544e+10	-0.1787657	0.04934099	0.004342269	-0.00731089	0.1596695	-0.1372017	1.061066e-05	0.001479162	
0.004342269	-0.00731089	-0.1771231	0.0384572	-0.001955379	0.0009397997	0.1621643	-0.12446	
0.1596695	-0.1372017	-0.001955379	0.0009397997	-0.3015184	0.2278712	-0.004521281	-0.002164295	
1.061066e-05	0.001479162	0.1621643	-0.12446	-0.004521281	-0.002164295	-0.3447137	0.2061435	

4.546e+10	-0.1778984	0.04067882	0.002936342	-0.007874546	0.1653951	-0.1340873	0.0005398696	0.001039914	
0.002936342	-0.007874546	-0.1781221	0.02993526	-0.001340027	0.001030098	0.1700251	-0.1237301	
0.1653951	-0.1340873	-0.001340027	0.001030098	-0.3206873	0.2318831	-0.004988522	-0.0008195841	
0.0005398696	0.001039914	0.1700251	-0.1237301	-0.004988522	-0.0008195841	-0.3645648	0.2206144	

4.548e+10	-0.1787566	0.03229225	0.001505212	-0.008141222	0.1719815	-0.1330999	0.0007924486	0.0004575388	
0.001505212	-0.008141222	-0.1805993	0.02204683	-0.0008551078	0.0008719887	0.1776963	-0.125351	
0.1719815	-0.1330999	-0.0008551078	0.0008719887	-0.3382047	0.2403496	-0.005001533	0.0005601279	
0.0007924486	0.0004575388	0.1776963	-0.125351	-0.005001533	0.0005601279	-0.3803231	0.2384838	

4.55e+10	-0.1811375	0.02452295	0.0001229627	-0.008144172	0.1787002	-0.1343329	0.0007518058	-0.0001324852	
0.0001229627	-0.008144172	-0.184314	0.01495906	-0.0005801305	0.0005657304	0.1845595	-0.1290284	
0.1787002	-0.1343329	-0.0005801305	0.0005657304	-0.353163	0.252374	-0.004617199	0.00180946	
0.0007518058	-0.0001324852	0.1845595	-0.1290284	-0.004617199	0.00180946	-0.3917941	0.2583406	

4.552e+10	-0.1847112	0.017623	-0.001162341	-0.007938457	0.1849134	-0.1376295	0.0004607352	-0.0006117717	
-0.001162341	-0.007938457	-0.1889262	0.00877735	-0.0005373401	0.0002298603	0.1901692	-0.1342988	
0.1849134	-0.1376295	-0.0005373401	0.0002298603	-0.3647963	0.2670883	-0.003950553	0.002824148	
0.0004607352	-0.0006117717	0.1901692	-0.1342988	-0.003950553	0.002824148	-0.3989348	0.2792334	

4.554e+10	-0.1891604	0.01166896	-0.002338504	-0.007582587	0.1900984	-0.1426521	-5.029117e-07	-0.0009004599	
-0.002338504	-0.007582587	-0.1942486	0.003492362	-0.0006946915	-3.494844e-05	0.194302	-0.140708	
0.1900984	-0.1426521	-0.0006946915	-3.494844e-05	-0.3728712	0.2835379	-0.003124239	0.00357382	
-5.029117e-07	-0.0009004599	0.194302	-0.140708	-0.003124239	0.00357382	-0.4021296	0.3001751	

4.556e+10	-0.1941752	0.006678954	-0.003415532	-0.007122383	0.1939103	-0.1489755	-0.0005387215	-0.0009643238	
-0.003415532	-0.007122383	-0.2000579	-0.0009078404	-0.0009915609	-0.0001588223	0.1968713	-0.1477883	
0.1939103	-0.1489755	-0.0009915609	-0.0001588223	-0.3775372	0.3006295	-0.002236009	0.004082462	
-0.0005387215	-0.0009643238	0.1968713	-0.1477883	-0.002236009	0.004082462	-0.4017419	0.3205915	

4.558e+10	-0.1995224	0.002646721	-0.004427234	-0.006578493	0.1961825	-0.1561345	-0.001066358	-0.0008038499	
-0.004427234	-0.006578493	-0.2062217	-0.004463764	-0.001352418	-0.0001064376	0.1978864	-0.1550903	
0.1961825	-0.1561345	-0.001352418	-0.0001064376	-0.3788951	0.3178181	-0.001338515	0.004397293	
-0.001066358	-0.0008038499	0.1978864	-0.1550903	-0.001338515	0.004397293	-0.3982155	0.339988	

4.56e+10	-0.2050391	-0.000608365	-0.005397104	-0.00595009	0.1968637	-0.163695	-0.001513687	-0.0004437805	
-0.005397104	-0.00595009	-0.2126868	-0.00724136	-0.001707046	0.0001301513	0.197495	-0.1622877	
0.1968637	-0.163695	-0.001707046	0.0001301513	-0.3772959	0.3345082	-0.0004483663	0.004561316	
-0.001513687	-0.0004437805	0.197495	-0.1622877	-0.0004483663	0.004561316	-0.3919136	0.3581172	

4.562e+10	-0.2106263	-0.003161702	-0.006348262	-0.005208957	0.1960165	-0.1712554	-0.001823105	7.864209e-05	
-0.006348262	-0.005208957	-0.2193958	-0.009233767	-0.001988023	0.0005390164	0.1958679	-0.1690626	
0.1960165	-0.1712554	-0.001988023	0.0005390164	-0.3731153	0.3503786	0.0004432671	0.004596777	
-0.001823105	7.864209e-05	0.1958679	-0.1690626	0.0004432671	0.004596777	-0.3832262	0.3747591	

4.564e+10	-0.2162591	-0.005134193	-0.00727904	-0.004318541	0.1937923	-0.178526	-0.001949906	0.0007185853	
-0.00727904	-0.004318541	-0.2263114	-0.01039548	-0.002136269	0.001092243	0.1932537	-0.1752318	
0.1937923	-0.178526	-0.002136269	0.001092243	-0.3667713	0.3651107	0.001347701	0.004502111	
-0.001949906	0.0007185853	0.1932537	-0.1752318	0.001347701	0.004502111	-0.372502	0.3896649	

4.566e+10	-0.2219423	-0.006587093	-0.008165198	-0.003234479	0.190378	-0.1852445	-0.001857074	0.001421382	
-0.008165198	-0.003234479	-0.233402	-0.01076201	-0.002097255	0.001746127	0.1899199	-0.1806435	
0.190378	-0.1852445	-0.002097255	0.001746127	-0.3584981	0.3785713	0.00226639	0.004254038	
-0.001857074	0.001421382	0.1899199	-0.1806435	0.00226639	0.004254038	-0.3599706	0.4027466	

4.568e+10	-0.2277234	-0.007594153	-0.008954899	-0.001913226	0.1859582	-0.1912183	-0.00151783	0.00211774	
-0.008954899	-0.001913226	-0.2405952	-0.01016806	-0.001829721	0.002436959	0.1861362	-0.1852352	
0.1859582	-0.1912183	-0.001829721	0.002436959	-0.348629	0.3906058	0.003180223	0.003818783	
-0.00151783	0.00211774	0.1861362	-0.1852352	0.003180223	0.003818783	-0.3459659	0.4137705	

4.57e+10	-0.233629	-0.00811768	-0.009567926	-0.0003324474	0.1807682	-0.1963087	-0.0009211046	0.002725986	
-0.009567926	-0.0003324474	-0.2477705	-0.008609039	-0.001309253	0.00308291	0.1821781	-0.1890599	
0.1807682	-0.1963087	-0.001309253	0.00308291	-0.3371016	0.4013151	0.00404351	0.003164026	
-0.0009211046	0.002725986	0.1821781	-0.1890599	0.00404351	0.003164026	-0.3306038	0.4226972	

4.572e+10	-0.2396939	-0.008077111	-0.009900883	0.001500903	0.1750527	-0.2004406	-8.59829e-05	0.003149126	
-0.009900883	0.001500903	-0.2547414	-0.005914343	-0.0005399979	0.003587082	0.1782836	-0.1922324	
0.1750527	-0.2004406	-0.0005399979	0.003587082	-0.3242347	0.410405	0.004785453	0.002275474	
-8.59829e-05	0.003149126	0.1782836	-0.1922324	0.004785453	0.002275474	-0.3142317	0.4293432	

4.574e+10	-0.2459378	-0.007428153	-0.009839702	0.003536692	0.1690265	-0.20355	0.0009304213	0.003289135	
-0.009839702	0.003536692	-0.2613212	-0.002143678	0.0004318426	0.003848145	0.1745951	-0.1949313	
0.1690265	-0.20355	0.0004318426	0.003848145	-0.3100759	0.4178222	0.005319176	0.001171249	
0.0009304213	0.003289135	0.1745951	-0.1949313	0.005319176	0.001171249	-0.2972189	0.4335901	

4.576e+10	-0.2523189	-0.005990287	-0.00928479	0.005669684	0.1629641	-0.2056611	0.002025935	0.003064222	
-0.00928479	0.005669684	-0.2672363	0.002705301	0.001517668	0.003780654	0.1712078	-0.197397	
0.1629641	-0.2056611	0.001517668	0.003780654	-0.2947836	0.4233492	0.005560088	-8.901437e-05	
0.002025935	0.003064222	0.1712078	-0.197397	0.005560088	-8.901437e-05	-0.2798618	0.4354279	

4.578e+10	-0.2587635	-0.003703598	-0.008169695	0.007747333	0.1571	-0.2068441	0.003056743	0.002432663	
-0.008169695	0.007747333	-0.2722471	0.008508147	0.002588792	0.003332523	0.1680844	-0.1998543	
0.1571	-0.2068441	0.002588792	0.003332523	-0.2785116	0.4267473	0.005448488	-0.001403293	
0.003056743	0.002432663	0.1680844	-0.1998543	0.005448488	-0.001403293	-0.262687	0.4347747	

4.58e+10	-0.2651397	-0.0004164808	-0.006489957	0.009585626	0.1516554	-0.2072487	0.003856259	0.001416535	
-0.006489957	0.009585626	-0.2762052	0.01495874	0.003489783	0.002510712	0.165095	-0.2024986	
0.1516554	-0.2072487	0.003489783	0.002510712	-0.2615173	0.4277623	0.004973433	-0.002643865	
0.003856259	0.001416535	0.165095	-0.2024986	0.004973433	-0.002643865	-0.2459267	0.4318556	

4.582e+10	-0.2711695	0.004070513	-0.004315317	0.01099444	0.1468092	-0.207116	0.004267088	0.0001136231	
-0.004315317	0.01099444	-0.2789198	0.02204943	0.00406981	0.001392059	0.1620619	-0.2054565	
0.1468092	-0.207116	0.00406981	0.001392059	-0.2440888	0.426203	0.004184806	-0.003682269	
0.004267088	0.0001136231	0.1620619	-0.2054565	0.004184806	-0.003682269	-0.229838	0.4268554	

4.584e+10	-0.2765797	0.009706708	-0.001791259	0.01181903	0.1426305	-0.2067315	0.004181282	-0.001306008	
-0.001791259	0.01181903	-0.2803512	0.0293177	0.004218227	0.0001223277	0.158748	-0.2087567	
0.1426305	-0.2067315	0.004218227	0.0001223277	-0.2269126	0.4217751	0.003188288	-0.004428486	
0.004181282	-0.001306008	0.158748	-0.2087567	0.003188288	-0.004428486	-0.2147708	0.4198797	

4.586e+10	-0.280999	0.01644835	0.0008851983	0.01196831	0.1390783	-0.206394	0.003573096	-0.002636817	
0.0008851983	0.01196831	-0.2804687	0.03662565	0.00389697	-0.001112655	0.1549126	-0.2123369	
0.1390783	-0.206394	0.00389697	-0.001112655	-0.2104907	0.4145411	0.002117392	-0.004853213	
0.003573096	-0.002636817	0.1549126	-0.2123369	0.002117392	-0.004853213	-0.2008945	0.411166	

4.588e+10	-0.2840991	0.02410616	0.003501037	0.01143924	0.1359323	-0.2063872	0.002509941	-0.003673511	
0.003501037	0.01143924	-0.279316	0.04373972	0.00315626	-0.002121158	0.1503667	-0.2160675	
0.1359323	-0.2063872	0.00315626	-0.002121158	-0.1953592	0.4046606	0.001095135	-0.004998846	
0.002509941	-0.003673511	0.1503667	-0.2160675	0.001095135	-0.004998846	-0.1881494	0.4009271	

4.59e+10	-0.2856249	0.03234087	0.005866198	0.01029498	0.1329029	-0.2068428	0.001139911	-0.00426075	
0.005866198	0.01029498	-0.2769745	0.05038474	0.002126048	-0.002752274	0.1449474	-0.2197158	
0.1329029	-0.2068428	0.002126048	-0.002752274	-0.1820073	0.3924599	0.0001938	-0.004959015	
0.001139911	-0.00426075	0.1449474	-0.2197158	0.0001938	-0.004959015	-0.176738	0.3892556	

4.592e+10	-0.2854393	0.04072569	0.007838814	0.008660182	0.1296199	-0.2077498	-0.0003403699	-0.004317103	
0.007838814	0.008660182	-0.2735266	0.05644552	0.0009887016	-0.002927553	0.1385664	-0.2230064	
0.1296199	-0.2077498	0.0009887016	-0.002927553	-0.170642	0.3784585	-0.000583159	-0.004838081	
-0.0003403699	-0.004317103	0.1385664	-0.2230064	-0.000583159	-0.004838081	-0.1666006	0.3763103	

4.594e+10	-0.2835373	0.04882252	0.009334759	0.006673672	0.1257774	-0.2089321	-0.001726082	-0.00384789	
0.009334759	0.006673672	-0.26911	0.0617333	-6.297522e-05	-0.002654553	0.1312296	-0.2256561	
0.1257774	-0.2089321	-6.297522e-05	-0.002654553	-0.1617313	0.3629134	-0.001294855	-0.004707359	
-0.001726082	-0.00384789	0.1312296	-0.2256561	-0.001294855	-0.004707359	-0.1579323	0.3620094	

4.596e+10	-0.2800538	0.05631617	0.01031994	0.004473965	0.1211743	-0.2100664	-0.002835464	-0.002933134	
0.01031994	0.004473965	-0.2638398	0.06612515	-0.0008607067	-0.002015948	0.1230243	-0.2273484	
0.1211743	-0.2100664	-0.0008607067	-0.002015948	-0.1551746	0.3462484	-0.002027229	-0.004579017	
-0.002835464	-0.002933134	0.1230243	-0.2273484	-0.002027229	-0.004579017	-0.1509497	0.3463337	

4.598e+10	-0.2751703	0.06282026	0.01078938	0.002182968	0.1157409	-0.2107497	-0.003534229	-0.001707752	
0.01078938	0.002182968	-0.2578441	0.06947512	-0.001290031	-0.001151801	0.1141188	-0.2277708	
0.1157409	-0.2107497	-0.001290031	-0.001151801	-0.150959	0.3288128	-0.002852913	-0.004398141	
-0.003534229	-0.001707752	0.1141188	-0.2277708	-0.002852913	-0.004398141	-0.1457021	0.3294161	

4.6e+10	-0.2691158	0.06814675	0.0107596	-9.305434e-05	0.1095806	-0.210619	-0.003746178	-0.0003402697	
0.0107596	-9.305434e-05	-0.2512559	0.07171437	-0.001301011	-0.0002289351	0.1047772	-0.2266756	
0.1095806	-0.210619	-0.001301011	-0.0002289351	-0.149324	0.3106885	-0.003796414	-0.004064039	
-0.003746178	-0.0003402697	0.1047772	-0.2266756	-0.003796414	-0.004064039	-0.142777	0.3111343	

4.602e+10	-0.2621338	0.07210524	0.01025771	-0.002256618	0.1029257	-0.2093017	-0.003457445	0.0009874892	
0.01025771	-0.002256618	-0.2442314	0.07262291	-0.0009102698	0.0005821418	0.09534622	-0.2238175	
0.1029257	-0.2093017	-0.0009102698	0.0005821418	-0.1503881	0.2921217	-0.004813608	-0.003465302	
-0.003457445	0.0009874892	0.09534622	-0.2238175	-0.004813608	-0.003465302	-0.1424831	0.2917459	

4.604e+10	-0.2544726	0.07455764	0.009321156	-0.004215324	0.09613848	-0.2065083	-0.002718428	0.002099524	
0.009321156	-0.004215324	-0.2368985	0.07224633	-0.0001955206	0.001133359	0.08626643	-0.2190449	
0.09613848	-0.2065083	-0.0001955206	0.001133359	-0.1543052	0.2734012	-0.005791399	-0.00251697	
-0.002718428	0.002099524	0.08626643	-0.2190449	-0.005791399	-0.00251697	-0.1453608	0.2715518	

4.606e+10	-0.2463955	0.07528364	0.008007909	-0.005881963	0.08970274	-0.2020638	-0.001637284	0.002848475	
0.008007909	-0.005881963	-0.2295583	0.07022682	0.0007155004	0.00131494	0.07807975	-0.2123289	
0.08970274	-0.2020638	0.0007155004	0.00131494	-0.1615309	0.2548268	-0.006571553	-0.001195438	
-0.001637284	0.002848475	0.07807975	-0.2123289	-0.006571553	-0.001195438	-0.1520254	0.2510237	

4.608e+10	-0.2382735	0.07416831	0.006391971	-0.007175452	0.08421149	-0.195951	-0.000370576	0.003131449	
0.006391971	-0.007175452	-0.2225124	0.06654533	0.001663967	0.001069807	0.07139312	-0.2037755	
0.08421149	-0.195951	0.001663967	0.001069807	-0.1723212	0.2370928	-0.006981864	0.000442932	
-0.000370576	0.003131449	0.07139312	-0.2037755	-0.006981864	0.000442932	-0.1628652	0.2310474	

4.61e+10	-0.2304887	0.07121594	0.004577983	-0.00802964	0.08030663	-0.1883765	0.0008896454	0.002910989	
0.004577983	-0.00802964	-0.2161815	0.0611732	0.002472027	0.0004069544	0.06683353	-0.1937361	
0.08030663	-0.1883765	0.002472027	0.0004069544	-0.1870208	0.2209961	-0.006874814	0.002255007	
0.0008896454	0.002910989	0.06683353	-0.1937361	-0.006874814	0.002255007	-0.1782687	0.2126784	

4.612e+10	-0.2235101	0.06641893	0.002691304	-0.008409652	0.07855508	-0.1798311	0.001949682	0.002227182	
0.002691304	-0.008409652	-0.2110254	0.05422138	0.002976052	-0.0005942418	0.06492478	-0.1828347	
0.07855508	-0.1798311	0.002976052	-0.0005942418	-0.2052944	0.207818	-0.006175446	0.004031869	
0.001949682	0.002227182	0.06492478	-0.1828347	-0.006175446	0.004031869	-0.1979536	0.1973327	

4.614e+10	-0.2178759	0.06001303	0.0008724848	-0.008323497	0.0793798	-0.1710482	0.002641995	0.001200853	
0.0008724848	-0.008323497	-0.2075375	0.04593396	0.003052613	-0.001789167	0.06598087	-0.171913	
0.0793798	-0.1710482	0.003052613	-0.001789167	-0.2267161	0.1986147	-0.004913727	0.005526687	
0.002641995	0.001200853	0.06598087	-0.171913	-0.004913727	0.005526687	-0.2213951	0.1862999	

4.616e+10	-0.2140249	0.05233198	-0.0007457623	-0.007833883	0.08285014	-0.1629469	0.002866751	1.670362e-05	
-0.0007457623	-0.007833883	-0.2060801	0.0368569	0.002650246	-0.002984939	0.06995798	-0.1619347	
0.08285014	-0.1629469	0.002650246	-0.002984939	-0.2501832	0.1944119	-0.003236312	0.006525226	
0.002866751	1.670362e-05	0.06995798	-0.1619347	-0.003236312	0.006525226	-0.2473151	0.1808085	

4.618e+10	-0.212206	0.04410028	-0.002069329	-0.007049142	0.08865791	-0.1564219	0.002619495	-0.001122068	
-0.002069329	-0.007049142	-0.2068418	0.02756184	0.001810639	-0.003990976	0.07644303	-0.1538114	
0.08865791	-0.1564219	0.001810639	-0.003990976	-0.2741486	0.195765	-0.001383724	0.00690604	
0.002619495	-0.001122068	0.07644303	-0.1538114	-0.001383724	0.00690604	-0.2740499	0.1814585	

4.62e+10	-0.2124812	0.03582408	-0.003057558	-0.006103142	0.0961383	-0.1521875	0.001984917	-0.002039425	
-0.003057558	-0.006103142	-0.2097628	0.01864703	0.0006535514	-0.004656157	0.08467074	-0.1482091	
0.0961383	-0.1521875	0.0006535514	-0.004656157	-0.296947	0.2026394	0.0003807674	0.006678755	
0.001984917	-0.002039425	0.08467074	-0.1482091	0.0003807674	0.006678755	-0.299825	0.1882987	

4.622e+10	-0.2146278	0.02810387	-0.00373036	-0.005119353	0.1044322	-0.150617	0.001104609	-0.002628532	
-0.00373036	-0.005119353	-0.2145724	0.01071959	-0.0006602258	-0.004908295	0.09372416	-0.1454481	
0.1044322	-0.150617	-0.0006602258	-0.004908295	-0.3172309	0.2142973	0.001840655	0.005973126	
0.001104609	-0.002628532	0.09372416	-0.1454481	0.001840655	0.005973126	-0.3230827	0.2006322	

4.624e+10	-0.2182832	0.02140286	-0.004150431	-0.004183887	0.1126382	-0.1517061	0.0001292569	-0.002860781	
-0.004150431	-0.004183887	-0.2208615	0.004125073	-0.001973653	-0.004750742	0.1026776	-0.1454739	
0.1126382	-0.1517061	-0.001973653	-0.004750742	-0.3337921	0.2297522	0.002882994	0.004985652	
0.0001292569	-0.002860781	0.1026776	-0.1454739	0.002882994	0.004985652	-0.3424721	0.2174233	

4.626e+10	-0.2229934	0.01590613	-0.004392127	-0.003345904	0.120016	-0.1551482	-0.0008131691	-0.002764693	
-0.004392127	-0.003345904	-0.2281782	-0.0009159708	-0.003165278	-0.004237279	0.1107744	-0.1479191	
0.120016	-0.1551482	-0.003165278	-0.004237279	-0.3462423	0.247611	0.003496219	0.003916632	
-0.0008131691	-0.002764693	0.1107744	-0.1479191	0.003496219	0.003916632	-0.3573397	0.237326	

4.628e+10	-0.2283071	0.01176529	-0.004528666	-0.002612519	0.1260434	-0.1604664	-0.001636212	-0.002402198	
-0.004528666	-0.002612519	-0.2360611	-0.004285316	-0.004157641	-0.003448064	0.1174859	-0.1522505	
0.1260434	-0.1604664	-0.004157641	-0.003448064	-0.3545475	0.2666859	0.003751386	0.002923951	
-0.001636212	-0.002402198	0.1174859	-0.1522505	0.003751386	0.002923951	-0.3674788	0.2590357	

4.63e+10	-0.2338952	0.008780942	-0.004617154	-0.001966527	0.1304201	-0.1670984	-0.002288067	-0.00184426	
-0.004617154	-0.001966527	-0.2441718	-0.006180642	-0.004909799	-0.002464005	0.1225489	-0.1578411	
0.1304201	-0.1670984	-0.004909799	-0.002464005	-0.3588864	0.2860853	0.003759457	0.00210488	
-0.002288067	-0.00184426	0.1225489	-0.1578411	0.003759457	0.00210488	-0.3730231	0.2813994	

4.632e+10	-0.2395007	0.006899031	-0.004694455	-0.001371865	0.1330481	-0.1745431	-0.00274581	-0.001155924	
-0.004694455	-0.001371865	-0.2522235	-0.006604706	-0.005406982	-0.001357137	0.125908	-0.1641161	
0.1330481	-0.1745431	-0.005406982	-0.001357137	-0.3596745	0.3051341	0.003643099	0.001495481	
-0.00274581	-0.001155924	0.125908	-0.1641161	0.003643099	0.001495481	-0.3742948	0.3035309	

4.634e+10	-0.2449289	0.005900388	-0.004771536	-0.0007882115	0.1339425	-0.182354	-0.003002439	-0.0003926133	
-0.004771536	-0.0007882115	-0.2599961	-0.005763935	-0.005649957	-0.000185454	0.1276937	-0.1706171	
0.1339425	-0.182354	-0.005649957	-0.000185454	-0.3574676	0.3232235	0.003512743	0.001078916	
-0.003002439	-0.0003926133	0.1276937	-0.1706171	0.003512743	0.001078916	-0.3717398	0.3247466	

4.636e+10	-0.2501076	0.005588387	-0.004841215	-0.0001783654	0.1332128	-0.1901628	-0.003058858	0.000399991	
-0.004841215	-0.0001783654	-0.2673539	-0.003733208	-0.005643523	0.001003232	0.1281233	-0.1769564	
0.1332128	-0.1901628	-0.005643523	0.001003232	-0.3525899	0.3401355	0.003452081	0.000799705	
-0.003058858	0.000399991	0.1281233	-0.1769564	0.003452081	0.000799705	-0.3657805	0.3445736	

4.638e+10	-0.2549713	0.005919681	-0.004876753	0.000485905	0.1310057	-0.1976806	-0.00291656	0.001180736	
-0.004876753	0.000485905	-0.2741194	-0.0005741152	-0.005392306	0.002167693	0.1274801	-0.1829085	
0.1310057	-0.1976806	-0.005392306	0.002167693	-0.3455722	0.3556079	0.003508672	0.0005794665	
-0.00291656	0.001180736	0.1274801	-0.1829085	0.003508672	0.0005794665	-0.3569181	0.3625691	

4.64e+10	-0.2595257	0.006614616	-0.00484143	0.001219677	0.1274761	-0.2046555	-0.002581896	0.001906322	
-0.00484143	0.001219677	-0.2801691	0.003423081	-0.004904935	0.003261299	0.1260614	-0.188358	
0.1274761	-0.2046555	-0.004904935	0.003261299	-0.336568	0.3696241	0.003691454	0.0003302783	
-0.002581896	0.001906322	0.1260614	-0.188358	0.003691454	0.0003302783	-0.3455597	0.3784362	

4.642e+10	-0.2637966	0.007737137	-0.004688807	0.002016409	0.1228139	-0.2109308	-0.002067615	0.002528832	
-0.004688807	0.002016409	-0.2853587	0.008319707	-0.004192478	0.004238092	0.1241236	-0.1933349	
0.1228139	-0.2109308	-0.004192478	0.004238092	-0.3259333	0.3820238	0.003970292	-2.924427e-05	
-0.002067615	0.002528832	0.1241236	-0.1933349	0.003970292	-2.924427e-05	-0.3322328	0.3918941	

4.644e+10	-0.2678248	0.009118649	-0.00437497	0.002848744	0.1171915	-0.2163259	-0.001400775	0.002999871	
-0.00437497	0.002848744	-0.289531	0.01380588	-0.003282251	0.005046507	0.121866	-0.1979201	
0.1171915	-0.2163259	-0.003282251	0.005046507	-0.3138487	0.3927295	0.004281895	-0.000561852	
-0.001400775	0.002999871	0.121866	-0.1979201	0.004281895	-0.000561852	-0.3174011	0.4027659	

4.646e+10	-0.2716567	0.01076839	-0.003864976	0.003671574	0.1108104	-0.2207153	-0.000627907	0.003276069	
-0.003864976	0.003671574	-0.2926147	0.01974325	-0.002215275	0.005641119	0.1193719	-0.2022495	
0.1108104	-0.2207153	-0.002215275	0.005641119	-0.3004822	0.4016629	0.004539069	-0.001297957	
-0.000627907	0.003276069	0.1193719	-0.2022495	0.004539069	-0.001297957	-0.3015577	0.4109718	

4.648e+10	-0.2753397	0.01264757	-0.003142869	0.004419178	0.1038671	-0.2239673	0.0001890265	0.003327836	
-0.003142869	0.004419178	-0.2945359	0.02587215	-0.001049094	0.005987588	0.1166325	-0.2064413	
0.1038671	-0.2239673	-0.001049094	0.005987588	-0.2860343	0.4086512	0.004645227	-0.002229609	
0.0001890265	0.003327836	0.1166325	-0.2064413	0.004645227	-0.002229609	-0.285117	0.4165588	

4.65e+10	-0.2789269	0.01481321	-0.002216409	0.005020525	0.09662581	-0.226033	0.0009752581	0.003149771	
-0.002216409	0.005020525	-0.2953448	0.03187611	0.0001493993	0.006069662	0.1135869	-0.2106014	
0.09662581	-0.226033	0.0001493993	0.006069662	-0.2705664	0.4136264	0.004510306	-0.003307214	
0.0009752581	0.003149771	0.1135869	-0.2106014	0.004510306	-0.003307214	-0.2685621	0.4196161	

4.652e+10	-0.2823863	0.01737043	-0.001122216	0.005404723	0.08934449	-0.2268606	0.00165553	0.002765312	
-0.001122216	0.005404723	-0.2950984	0.03764594	0.001308953	0.005895538	0.1101112	-0.2147232	
0.08934449	-0.2268606	0.001308953	0.005895538	-0.254403	0.4162887	0.004068274	-0.004449087	
0.00165553	0.002765312	0.1101112	-0.2147232	0.004068274	-0.004449087	-0.2523095	0.4202458	

4.654e+10	-0.2856841	0.02037786	8.225759e-05	0.005511886	0.08232066	-0.2264939	0.002163402	0.002226151	
8.225759e-05	0.005511886	-0.2939608	0.04293665	0.002363327	0.00549656	0.1061069	-0.2187322	
0.08232066	-0.2264939	0.002363327	0.00549656	-0.2377624	0.416504	0.003289196	-0.005549119	
0.002163402	0.002226151	0.1061069	-0.2187322	0.003289196	-0.005549119	-0.2364706	0.4188128	

4.656e+10	-0.2887134	0.02388876	0.001314094	0.005299299	0.0758346	-0.225078	0.00245921	0.001612635	
0.001314094	0.005299299	-0.2921114	0.04757337	0.003266848	0.004930058	0.1015153	-0.2225285	
0.0758346	-0.225078	0.003266848	0.004930058	-0.2212139	0.4139491	0.002180901	-0.006500299	
0.00245921	0.001612635	0.1015153	-0.2225285	0.002180901	-0.006500299	-0.2214154	0.4153718	

4.658e+10	-0.2913175	0.02799937	0.002473097	0.004750168	0.07012398	-0.2227844	0.002539013	0.001017487	
0.002473097	0.004750168	-0.2897188	0.0515546	0.004002288	0.004263346	0.0963107	-0.2259175	
0.07012398	-0.2227844	0.004002288	0.004263346	-0.2052282	0.4085837	0.0007863765	-0.007205919	
0.002539013	0.001017487	0.0963107	-0.2259175	0.0007863765	-0.007205919	-0.2073349	0.4100976	

4.66e+10	-0.2932611	0.03253176	0.003447177	0.003882103	0.06534876	-0.2199369	0.002446141	0.0005333002	
0.003447177	0.003882103	-0.2869362	0.05478791	0.004590522	0.00356347	0.09056968	-0.2287529	
0.06534876	-0.2199369	0.004590522	0.00356347	-0.1903597	0.4005357	-0.0008307775	-0.007590672	
0.002446141	0.0005333002	0.09056968	-0.2287529	-0.0008307775	-0.007590672	-0.1941588	0.4032522	

4.662e+10	-0.2943378	0.0374445	0.004125932	0.002756651	0.06153745	-0.2168474	0.002268212	0.0002214888	
0.004125932	0.002756651	-0.2839157	0.05729903	0.005082679	0.002867567	0.08440814	-0.2309058	
0.06153745	-0.2168474	0.005082679	0.002867567	-0.1773783	0.3899422	-0.002596238	-0.007595966	
0.002268212	0.0002214888	0.08440814	-0.2309058	-0.002596238	-0.007595966	-0.182192	0.3948425	

4.664e+10	-0.2944708	0.04248636	0.004422223	0.001482488	0.05862069	-0.213768	0.002119097	8.982427e-05	
0.004422223	0.001482488	-0.2808522	0.05913365	0.005543819	0.002170032	0.0780023	-0.2322618	
0.05862069	-0.213768	0.005543819	0.002170032	-0.1668322	0.3773669	-0.004430103	-0.007175748	
0.002119097	8.982427e-05	0.0780023	-0.2322618	-0.004430103	-0.007175748	-0.1716614	0.3850153	

4.666e+10	-0.2936421	0.04719155	0.004292945	0.0001999796	0.05643951	-0.2109296	0.002107538	8.116236e-05	
0.004292945	0.0001999796	-0.2778869	0.0602336	0.006019565	0.001419194	0.0715282	-0.2328096	
0.05643951	-0.2109296	0.006019565	0.001419194	-0.1590248	0.3634745	-0.006239919	-0.006285828	
0.002107538	8.116236e-05	0.0715282	-0.2328096	-0.006239919	-0.006285828	-0.1625605	0.3740422	

4.668e+10	-0.2919651	0.05142878	0.003750161	-0.0009347421	0.0548318	-0.2084283	0.002300248	8.173333e-05	
0.003750161	-0.0009347421	-0.2751041	0.06078765	0.006514266	0.0005301106	0.065189	-0.2325872	
0.0548318	-0.2084283	0.006514266	0.0005301106	-0.154249	0.3489043	-0.007910664	-0.004891449	
0.002300248	8.173333e-05	0.065189	-0.2325872	-0.007910664	-0.004891449	-0.155383	0.3620121	

4.67e+10	-0.2896559	0.05499288	0.002868417	-0.001772539	0.05364938	-0.2062878	0.002693396	-5.703469e-05	
0.002868417	-0.001772539	-0.2726223	0.06093831	0.006968563	-0.0005888779	0.05914328	-0.2316904	
0.05364938	-0.2062878	0.006968563	-0.0005888779	-0.1523203	0.3345459	-0.009286301	-0.00297793	
0.002693396	-5.703469e-05	0.05914328	-0.2316904	-0.009286301	-0.00297793	-0.1499754	0.3494135	

4.672e+10	-0.2870441	0.05766974	0.001783083	-0.002199804	0.0528046	-0.2045336	0.003193613	-0.0004712898	
0.001783083	-0.002199804	-0.2705005	0.06071193	0.007254623	-0.001991855	0.05348743	-0.230249	
0.0528046	-0.2045336	0.007254623	-0.001991855	-0.1532061	0.3209149	-0.01017011	-0.0005864047	
0.003193613	-0.0004712898	0.05348743	-0.230249	-0.01017011	-0.0005864047	-0.1465798	0.336468	

4.674e+10	-0.2843873	0.05967066	0.0006698492	-0.002163265	0.05224645	-0.2032214	0.00363565	-0.001237534	
0.0006698492	-0.002163265	-0.2687239	0.06036245	0.007209328	-0.003659399	0.04827436	-0.2284655	
0.05224645	-0.2032214	0.007209328	-0.003659399	-0.1562192	0.3087257	-0.01035649	0.002148496	
0.00363565	-0.001237534	0.04827436	-0.2284655	-0.01035649	0.002148496	-0.1450887	0.3235919	

4.676e+10	-0.2819152	0.06100373	-0.0002826014	-0.00169257	0.05187582	-0.202439	0.003820778	-0.00232773	
-0.0002826014	-0.00169257	-0.2672416	0.05998049	0.006677376	-0.005472184	0.04345127	-0.2264693	
0.05187582	-0.202439	0.006677376	-0.005472184	-0.1610472	0.2982237	-0.009684855	0.004977339	
0.003820778	-0.00232773	0.04345127	-0.2264693	-0.009684855	0.004977339	-0.1453817	0.3110631	

4.678e+10	-0.2797587	0.06196978	-0.000914916	-0.0008934529	0.05154869	-0.2022336	0.003583073	-0.00361309	
-0.000914916	-0.0008934529	-0.2659745	0.05959858	0.005569572	-0.007236939	0.03890501	-0.224372	
0.05154869	-0.2022336	0.005569572	-0.007236939	-0.1668311	0.289777	-0.008115523	0.007575796	
0.003583073	-0.00361309	0.03890501	-0.224372	-0.008115523	0.007575796	-0.1471414	0.2991627	

4.68e+10	-0.2779177	0.0627334	-0.001133342	7.468049e-05	0.05105948	-0.2026774	0.00283819	-0.004895348	
-0.001133342	7.468049e-05	-0.264784	0.05933182	0.003897587	-0.008729509	0.0345245	-0.2221938	
0.05105948	-0.2026774	0.003897587	-0.008729509	-0.173048	0.2832758	-0.005752038	0.009614763	
0.00283819	-0.004895348	0.0345245	-0.2221938	-0.005752038	0.009614763	-0.1501586	0.2879609	

4.682e+10	-0.2763005	0.06348432	-0.0009147834	0.001034702	0.05015332	-0.2036966	0.001601568	-0.005956339	
-0.0009147834	0.001034702	-0.2635545	0.05905631	0.001767464	-0.00974603	0.03018707	-0.2198573	
0.05015332	-0.2036966	0.001767464	-0.00974603	-0.179095	0.2784344	-0.002832754	0.01082861	
0.001601568	-0.005956339	0.03018707	-0.2198573	-0.002832754	0.01082861	-0.1543242	0.2773797	

4.684e+10	-0.274726	0.06438582	-0.0003068426	0.001825593	0.04857889	-0.2051672	-1.891918e-05	-0.006609673	
-0.0003068426	0.001825593	-0.2621873	0.05884609	-0.0006447032	-0.01014554	0.02582572	-0.2172906	
0.04857889	-0.2051672	-0.0006447032	-0.01014554	-0.1844441	0.2748961	0.0003232604	0.01107428	
-1.891918e-05	-0.006609673	0.02582572	-0.2172906	0.0003232604	0.01107428	-0.1593779	0.267465	

4.686e+10	-0.2729751	0.06548514	0.0005947796	0.002323583	0.04614508	-0.2067633	-0.00185566	-0.00673234	
0.0005947796	0.002323583	-0.2605965	0.05853681	-0.003128924	-0.009863617	0.0214279	-0.2143014	
0.04614508	-0.2067633	-0.003128924	-0.009863617	-0.18899	0.2720222	0.003369788	0.01033553	
-0.00185566	-0.00673234	0.0214279	-0.2143014	0.003369788	0.01033553	-0.1653585	0.2580675	

4.688e+10	-0.2709076	0.06654129	0.001665421	0.002451145	0.04280535	-0.2081441	-0.003712873	-0.006275625	
0.001665421	0.002451145	-0.258803	0.05789676	-0.00547829	-0.008908317	0.01708645	-0.2107084	
0.04280535	-0.2081441	-0.00547829	-0.008908317	-0.1928698	0.2691991	0.005996602	0.008718915	
-0.003712873	-0.006275625	0.01708645	-0.2107084	0.005996602	0.008718915	-0.1725181	0.2490549	

4.69e+10	-0.2683906	0.06746486	0.002770848	0.002177703	0.03864482	-0.2089565	-0.005398709	-0.005261026	
0.002770848	0.002177703	-0.2568248	0.05684263	-0.007500972	-0.007353192	0.01298931	-0.2064017	
0.03864482	-0.2089565	-0.007500972	-0.007353192	-0.1962604	0.2661039	0.007954622	0.006424533	
-0.005398709	-0.005261026	0.01298931	-0.2064017	0.007954622	0.006424533	-0.1809065	0.2405948	

4.692e+10	-0.2654371	0.06800454	0.003783022	0.001512565	0.03389443	-0.2088779	-0.006744847	-0.003771113	
0.003783022	0.001512565	-0.2548224	0.05518767	-0.009047574	-0.00531455	0.009414665	-0.2012799	
0.03389443	-0.2088779	-0.009047574	-0.00531455	-0.1997331	0.2623771	0.009079727	0.003707772	
-0.006744847	-0.003771113	0.009414665	-0.2012799	0.009079727	0.003707772	-0.1908546	0.2328469	

4.694e+10	-0.2620883	0.06797588	0.004584578	0.0004938512	0.02886062	-0.2076944	-0.00762008	-0.001926762	
0.004584578	0.0004938512	-0.2529888	0.05289821	-0.0100029	-0.002936427	0.006663941	-0.1954264	
0.02886062	-0.2076944	-0.0100029	-0.002936427	-0.2037445	0.2580779	0.00929284	0.0008540229	
-0.00762008	-0.001926762	0.006663941	-0.1954264	0.00929284	0.0008540229	-0.2025639	0.2262373	

4.696e+10	-0.258491	0.06718735	0.005065741	-0.0008100582	0.02394385	-0.2053085	-0.007929108	0.0001121026	
0.005065741	-0.0008100582	-0.2515202	0.04993922	-0.01028441	-0.0003950873	0.005029243	-0.1890331	
0.02394385	-0.2053085	-0.01028441	-0.0003950873	-0.2088941	0.2533188	0.008601624	-0.001833667	
-0.007929108	0.0001121026	0.005029243	-0.1890331	0.008601624	-0.001833667	-0.2160338	0.2213781	

4.698e+10	-0.2548501	0.06552922	0.005134327	-0.002296696	0.01956589	-0.2017233	-0.007631334	0.002156573	
0.005134327	-0.002296696	-0.2506496	0.04640991	-0.009861439	0.00210691	0.004737266	-0.1823685	
0.01956589	-0.2017233	-0.009861439	0.00210691	-0.215553	0.2485781	0.007115729	-0.004060386	
-0.007631334	0.002156573	0.004737266	-0.1823685	0.007115729	-0.004060386	-0.2311087	0.2188545	

4.7e+10	-0.2514264	0.06292075	0.004727446	-0.003828073	0.01613862	-0.1971405	-0.006752443	0.00400612	
0.004727446	-0.003828073	-0.2505761	0.04247175	-0.008771475	0.004348475	0.005906979	-0.1758408	
0.01613862	-0.1971405	-0.008771475	0.004348475	-0.2241537	0.2443638	0.00505359	-0.005575289	
-0.006752443	0.00400612	0.005906979	-0.1758408	0.00505359	-0.005575289	-0.2473369	0.2193645	

4.702e+10	-0.248543	0.05930299	0.003832696	-0.00524324	0.01401589	-0.1918688	-0.005397899	0.00547571	
0.003832696	-0.00524324	-0.2514932	0.03821439	-0.007131029	0.006129323	0.008523798	-0.1698462	
0.01401589	-0.1918688	-0.007131029	0.006129323	-0.2344899	0.2415527	0.002721035	-0.006224649	
-0.005397899	0.00547571	0.008523798	-0.1698462	0.002721035	-0.006224649	-0.2638953	0.2234038	

4.704e+10	-0.2464379	0.05490477	0.002499298	-0.00637713	0.01341134	-0.1863681	-0.003740943	0.006437917	
0.002499298	-0.00637713	-0.2534599	0.03399888	-0.005134594	0.007297662	0.012422	-0.1648226	
0.01341134	-0.1863681	-0.005134594	0.007297662	-0.2464382	0.2408251	0.0004728782	-0.005993775	
-0.003740943	0.006437917	0.012422	-0.1648226	0.0004728782	-0.005993775	-0.2798002	0.2313064	

4.706e+10	-0.2453623	0.04987492	0.0008375858	-0.007088386	0.0143643	-0.1811414	-0.001991044	0.006848755	
0.0008375858	-0.007088386	-0.2564518	0.03008079	-0.003025922	0.007789194	0.01726325	-0.1610574	
0.0143643	-0.1811414	-0.003025922	0.007789194	-0.2593638	0.2428782	-0.001364128	-0.005017365	
-0.001991044	0.006848755	0.01726325	-0.1610574	-0.001364128	-0.005017365	-0.2940126	0.2428828	

4.708e+10	-0.2454871	0.04456831	-0.0009959093	-0.007285445	0.01675477	-0.1766874	-0.0003432401	0.006756988	
-0.0009959093	-0.007285445	-0.2603875	0.02677064	-0.001047224	0.007645917	0.02267805	-0.1587483	
0.01675477	-0.1766874	-0.001047224	0.007645917	-0.2725044	0.2481339	-0.002558676	-0.00355161	
-0.0003432401	0.006756988	0.02267805	-0.1587483	-0.002558676	-0.00355161	-0.3054531	0.2576713	

4.71e+10	-0.2468681	0.03932094	-0.002819425	-0.006943406	0.02026942	-0.1734597	0.001057073	0.006287155	
-0.002819425	-0.006943406	-0.2651174	0.0243142	0.0005986155	0.007006976	0.02827665	-0.1578981	
0.02026942	-0.1734597	0.0005986155	0.007006976	-0.2849213	0.2567244	-0.00301555	-0.001922597	
0.001057073	0.006287155	0.02827665	-0.1578981	-0.00301555	-0.001922597	-0.3133368	0.274789	

4.712e+10	-0.2494761	0.03435143	-0.004462902	-0.006106723	0.02444337	-0.1717695	0.002149653	0.005597411	
-0.004462902	-0.006106723	-0.2704402	0.02280457	0.001800943	0.006075599	0.03369966	-0.1584356	
0.02444337	-0.1717695	0.001800943	0.006075599	-0.2955148	0.2685209	-0.002794673	-0.0004361351	
0.002149653	0.005597411	0.03369966	-0.1584356	-0.002794673	-0.0004361351	-0.317088	0.2932158	

4.714e+10	-0.2531227	0.03004864	-0.005792147	-0.004875714	0.02874678	-0.1717103	0.002956649	0.004828596	
-0.005792147	-0.004875714	-0.276106	0.02236048	0.002556072	0.005066094	0.03871183	-0.160199	
0.02874678	-0.1717103	0.002556072	0.005066094	-0.3034387	0.2829611	-0.002066329	0.0006769776	
0.002956649	0.004828596	0.03871183	-0.160199	-0.002066329	0.0006769776	-0.3166609	0.3117255	

4.716e+10	-0.2575438	0.02665999	-0.006725121	-0.003382384	0.03262331	-0.1731841	0.00355449	0.004071145	
-0.006725121	-0.003382384	-0.2818232	0.02312057	0.002953988	0.004149299	0.04311396	-0.162984	
0.03262331	-0.1731841	0.002953988	0.004149299	-0.3080719	0.2991686	-0.001059979	0.001293199	
0.00355449	0.004071145	0.04311396	-0.162984	-0.001059979	0.001293199	-0.3123041	0.3292149	

4.718e+10	-0.2624999	0.02416656	-0.007234898	-0.001758328	0.0356659	-0.1759006	0.004025188	0.003345694	
-0.007234898	-0.001758328	-0.2873456	0.02498788	0.00313113	0.003415593	0.04683011	-0.1666034	
0.0356659	-0.1759006	0.00313113	0.003415593	-0.3090049	0.3163176	1.001032e-06	0.0013989	
0.004025188	0.003345694	0.04683011	-0.1666034	1.001032e-06	0.0013989	-0.3046976	0.3447616	

4.72e+10	-0.2677458	0.02262443	-0.007337191	-0.0001216664	0.03761856	-0.1794596	0.004428526	0.002628421	
-0.007337191	-0.0001216664	-0.2924022	0.02789761	0.003233941	0.002874964	0.04983287	-0.1709133	
0.03761856	-0.1794596	0.003233941	0.002874964	-0.3062405	0.3333842	0.0009218604	0.001053515	
0.004428526	0.002628421	0.04983287	-0.1709133	0.0009218604	0.001053515	-0.2946222	0.3577869	

4.722e+10	-0.2731074	0.0219737	-0.007070919	0.00143217	0.03835227	-0.183454	0.004781555	0.001872427	
-0.007070919	0.00143217	-0.29679	0.0317177	0.003372352	0.002467375	0.05206762	-0.1758224	
0.03835227	-0.183454	0.003372352	0.002467375	-0.3000712	0.3494814	0.001558452	0.0003722817	
0.004781555	0.001872427	0.05206762	-0.1758224	0.001558452	0.0003722817	-0.2830457	0.3680736	

4.724e+10	-0.2784674	0.02206257	-0.006489901	0.002834019	0.03793879	-0.1874798	0.005060852	0.001040961	
-0.006489901	0.002834019	-0.3003443	0.03613292	0.003596645	0.002098343	0.05349226	-0.1812721	
0.03793879	-0.1874798	0.003596645	0.002098343	-0.2908436	0.3639425	0.001824954	-0.0004942561	
0.005060852	0.001040961	0.05349226	-0.1812721	0.001824954	-0.0004942561	-0.2707569	0.3756901	

4.726e+10	-0.283751	0.0229796	-0.00565341	0.004034027	0.03654385	-0.1911888	0.005221108	0.0001205805	
-0.00565341	0.004034027	-0.3029788	0.04107204	0.003898015	0.001670289	0.05400228	-0.1871443	
0.03654385	-0.1911888	0.003898015	0.001670289	-0.2790151	0.3762426	0.001693998	-0.001383709	
0.005221108	0.0001205805	0.05400228	-0.1871443	0.001693998	-0.001383709	-0.2584003	0.3809391	

4.728e+10	-0.2889075	0.02456495	-0.00461953	0.00500088	0.03443247	-0.1943636	0.005212133	-0.0008739795	
-0.00461953	0.00500088	-0.304653	0.04629202	0.004217441	0.001111698	0.05351833	-0.1933084	
0.03443247	-0.1943636	0.004217441	0.001111698	-0.2652871	0.3858508	0.001201514	-0.002138362	
0.005212133	-0.0008739795	0.05351833	-0.1933084	0.001201514	-0.002138362	-0.2462975	0.3842376	

4.73e+10	-0.2939212	0.02690411	-0.003442286	0.005713105	0.0319325	-0.1969177	0.00499008	-0.001898145	
-0.003442286	0.005713105	-0.3054483	0.05144339	0.00446857	0.0003995797	0.05199027	-0.1995794	
0.0319325	-0.1969177	0.00446857	0.0003995797	-0.2502823	0.392562	0.000442758	-0.002632831	
0.00499008	-0.001898145	0.05199027	-0.1995794	0.000442758	-0.002632831	-0.2346772	0.3859761	

4.732e+10	-0.2987246	0.03002732	-0.002175902	0.006154798	0.02933875	-0.1988978	0.004527976	-0.002890086	
-0.002175902	0.006154798	-0.3054187	0.05655087	0.00456403	-0.0004442501	0.04941105	-0.2058118	
0.02933875	-0.1988978	0.00456403	-0.0004442501	-0.2345723	0.3963243	-0.0004508328	-0.002790314	
0.004527976	-0.002890086	0.04941105	-0.2058118	-0.0004508328	-0.002790314	-0.2235823	0.3864767	

4.734e+10	-0.3031707	0.03389889	-0.0008759597	0.006317561	0.02688664	-0.200465	0.003828578	-0.003772329	
-0.0008759597	0.006317561	-0.3046594	0.06137478	0.004440349	-0.001353315	0.04580834	-0.2117825	
0.02688664	-0.200465	0.004440349	-0.001353315	-0.2190944	0.3970527	-0.001330282	-0.002599599	
0.003828578	-0.003772329	0.04580834	-0.2117825	-0.001330282	-0.002599599	-0.2130405	0.3859223	

4.736e+10	-0.3070798	0.03862985	0.0003944971	0.006201265	0.02470244	-0.2018843	0.002922218	-0.004470554	
0.0003944971	0.006201265	-0.3032624	0.06590015	0.004067508	-0.002240386	0.04124754	-0.2173813	
0.02470244	-0.2018843	0.004067508	-0.002240386	-0.2044349	0.3950697	-0.002062188	-0.002105837	
0.002922218	-0.004470554	0.04124754	-0.2173813	-0.002062188	-0.002105837	-0.2029192	0.384545	

4.738e+10	-0.3102239	0.0441514	0.001570784	0.005824819	0.02275866	-0.2034108	0.001872731	-0.004923784	
0.001570784	0.005824819	-0.3012922	0.07005746	0.003463024	-0.003010891	0.0358132	-0.2224455	
0.02275866	-0.2034108	0.003463024	-0.003010891	-0.1910545	0.3908538	-0.002550612	-0.001409175	
0.001872731	-0.004923784	0.0358132	-0.2224455	-0.002550612	-0.001409175	-0.1931514	0.3823748	

4.74e+10	-0.3123926	0.0502609	0.002595499	0.005225621	0.02088521	-0.2052904	0.0007618239	-0.0050987	
0.002595499	0.005225621	-0.2988123	0.07383789	0.002681328	-0.00358812	0.0295886	-0.2268586	
0.02088521	-0.2052904	0.002681328	-0.00358812	-0.1792046	0.3850069	-0.002754675	-0.0006309048	
0.0007618239	-0.0050987	0.0295886	-0.2268586	-0.002754675	-0.0006309048	-0.1836129	0.3794833	

4.742e+10	-0.3134563	0.05673863	0.003426785	0.004458296	0.01883167	-0.2076077	-0.0003245799	-0.004997571	
0.003426785	0.004458296	-0.2959255	0.07708281	0.001800579	-0.003929181	0.02268153	-0.2305369	
0.01883167	-0.2076077	0.001800579	-0.003929181	-0.1692461	0.3780003	-0.002690698	0.0001160669	
-0.0003245799	-0.004997571	0.02268153	-0.2305369	-0.002690698	0.0001160669	-0.1744965	0.3757488	

4.744e+10	-0.3133412	0.0632945	0.004043319	0.003584152	0.01632337	-0.2103175	-0.001309626	-0.004652906	
0.004043319	0.003584152	-0.2926597	0.07989794	0.0009071298	-0.004026891	0.01521437	-0.2333746	
0.01632337	-0.2103175	0.0009071298	-0.004026891	-0.1609095	0.3704201	-0.002415548	0.0007421968	
-0.001309626	-0.004652906	0.01521437	-0.2333746	-0.002415548	0.0007421968	-0.1656584	0.3712027	

4.746e+10	-0.3120494	0.0697513	0.004442875	0.002661956	0.01313976	-0.2133057	-0.002138368	-0.004116533	
0.004442875	0.002661956	-0.2890944	0.08218708	7.410672e-05	-0.003905697	0.007280038	-0.2353174	
0.01313976	-0.2133057	7.410672e-05	-0.003905697	-0.1538613	0.3626505	-0.002007233	0.00120178	
-0.002138368	-0.004116533	0.007280038	-0.2353174	-0.002007233	0.00120178	-0.1570837	0.3657982	

4.748e+10	-0.309693	0.07578139	0.004641257	0.001743702	0.009130681	-0.2163174	-0.002780083	-0.003452787	
0.004641257	0.001743702	-0.2853101	0.08386312	-0.0006447516	-0.003612311	-0.0009856841	-0.2362979	
0.009130681	-0.2163174	-0.0006447516	-0.003612311	-0.1479862	0.3548157	-0.00154342	0.001485267	
-0.002780083	-0.003452787	-0.0009856841	-0.2362979	-0.00154342	0.001485267	-0.1489534	0.3594278	

4.75e+10	-0.3064457	0.08119537	0.00466407	0.0008688133	0.004268112	-0.2190984	-0.003230138	-0.002722921	
0.00466407	0.0008688133	-0.2813658	0.08494934	-0.001220651	-0.003201598	-0.009443005	-0.2362413	
0.004268112	-0.2190984	-0.001220651	-0.003201598	-0.1429399	0.3469701	-0.001086903	0.0016114	
-0.003230138	-0.002722921	-0.009443005	-0.2362413	-0.001086903	0.0016114	-0.1413738	0.3520333	

4.752e+10	-0.3024069	0.08597171	0.004541158	6.334723e-05	-0.001422065	-0.2214054	-0.00350004	-0.001977809	
0.004541158	6.334723e-05	-0.2773264	0.08547572	-0.001646059	-0.002726551	-0.0179639	-0.2351248	
-0.001422065	-0.2214054	-0.001646059	-0.002726551	-0.1384509	0.3390945	-0.0006783635	0.001615341	
-0.00350004	-0.001977809	-0.0179639	-0.2351248	-0.0006783635	0.001615341	-0.1343851	0.3436163	

4.754e+10	-0.2977585	0.08995531	0.004303541	-0.0006583038	-0.007823204	-0.2230228	-0.003613714	-0.001254893	
0.004303541	-0.0006583038	-0.273279	0.08532626	-0.001930255	-0.002231494	-0.02636523	-0.2329226	
-0.007823204	-0.2230228	-0.001930255	-0.002231494	-0.1345945	0.330969	-0.000337531	0.001533903	
-0.003613714	-0.001254893	-0.02636523	-0.2329226	-0.000337531	0.001533903	-0.1284348	0.3340612	

4.756e+10	-0.2925989	0.09315518	0.003976976	-0.001290126	-0.01480857	-0.2237806	-0.003595859	-0.0005778945	
0.003976976	-0.001290126	-0.269304	0.08460127	-0.002090838	-0.001750693	-0.03449873	-0.2296027	
-0.01480857	-0.2237806	-0.002090838	-0.001750693	-0.1312303	0.322535	-7.186228e-05	0.001401158	
-0.003595859	-0.0005778945	-0.03449873	-0.2296027	-7.186228e-05	0.001401158	-0.1235348	0.3235057	

4.758e+10	-0.2870563	0.09554656	0.003582452	-0.001830236	-0.02219805	-0.2235405	-0.003471103	3.695653e-05	
0.003582452	-0.001830236	-0.2655365	0.08321408	-0.002149787	-0.001309662	-0.04215061	-0.2252298	
-0.02219805	-0.2235405	-0.002149787	-0.001309662	-0.1284411	0.3136394	0.0001226804	0.001245372	
-0.003471103	3.695653e-05	-0.04215061	-0.2252298	0.0001226804	0.001245372	-0.1200131	0.3119936	

4.76e+10	-0.2812769	0.09696123	0.003138087	-0.002278782	-0.02980824	-0.2221894	-0.003262061	0.0005792996	
0.003138087	-0.002278782	-0.2620806	0.0811275	-0.002133663	-0.000924645	-0.04917513	-0.2198167	
-0.02980824	-0.2221894	-0.002133663	-0.000924645	-0.1264692	0.3041219	0.0002567699	0.001087909	
-0.003262061	0.0005792996	-0.04917513	-0.2198167	0.0002567699	0.001087909	-0.1181583	0.2996556	

4.762e+10	-0.2753173	0.09749497	0.00266104	-0.002637826	-0.03740527	-0.2196376	-0.002991094	0.001047466	
0.00266104	-0.002637826	-0.2590356	0.07850354	-0.002070018	-0.0006010041	-0.05533059	-0.2134863	
-0.03740527	-0.2196376	-0.002070018	-0.0006010041	-0.1254145	0.2940301	0.0003471792	0.0009395047	
-0.002991094	0.001047466	-0.05533059	-0.2134863	0.0003471792	0.0009395047	-0.118208	0.2867942	

4.764e+10	-0.2693403	0.09707469	0.002165097	-0.002912013	-0.04474619	-0.2158814	-0.002676223	0.0014416	
0.002165097	-0.002912013	-0.2565601	0.07536378	-0.001982484	-0.0003356679	-0.06039902	-0.2064148	
-0.04474619	-0.2158814	-0.001982484	-0.0003356679	-0.1256644	0.2833109	0.0004055594	0.0008029059	
-0.002676223	0.0014416	-0.06039902	-0.2064148	0.0004055594	0.0008029059	-0.1204253	0.2736873	

4.766e+10	-0.2634794	0.09563835	0.001661619	-0.003106193	-0.05156718	-0.2108971	-0.002331382	0.00176577	
0.001661619	-0.003106193	-0.254733	0.07184214	-0.001890342	-0.0001192615	-0.06428234	-0.1987847	
-0.05156718	-0.2108971	-0.001890342	-0.0001192615	-0.1274329	0.2721638	0.000439987	0.0006767446	
-0.002331382	0.00176577	-0.06428234	-0.1987847	0.000439987	0.0006767446	-0.1250546	0.2607753	

4.768e+10	-0.2578878	0.09325227	0.001160012	-0.00322789	-0.05755942	-0.2047742	-0.001966823	0.002025356	
0.001160012	-0.00322789	-0.2536551	0.06810906	-0.001805311	6.272737e-05	-0.06687654	-0.1908626	
-0.05755942	-0.2047742	-0.001805311	6.272737e-05	-0.1310107	0.2608259	0.0004520354	0.0005563484	
-0.001966823	0.002025356	-0.06687654	-0.1908626	0.0004520354	0.0005563484	-0.131978	0.2486331	

4.77e+10	-0.2527697	0.08980844	0.0006681516	-0.003282897	-0.06250279	-0.197632	-0.001591465	0.002225396	
0.0006681516	-0.003282897	-0.2533615	0.06420444	-0.001733085	0.0002263189	-0.06810512	-0.1829337	
-0.06250279	-0.197632	-0.001733085	0.0002263189	-0.1367491	0.2495705	0.0004390052	0.0004404788	
-0.001591465	0.002225396	-0.06810512	-0.1829337	0.0004390052	0.0004404788	-0.1412896	0.2376752	

4.772e+10	-0.2483121	0.08550071	0.0001898535	-0.00327971	-0.06606273	-0.1897063	-0.001207876	0.002372638	
0.0001898535	-0.00327971	-0.2538361	0.0604723	-0.001668886	0.000387134	-0.06801601	-0.175265	
-0.06606273	-0.1897063	-0.001668886	0.000387134	-0.1447212	0.2389631	0.0003903449	0.00033174	
-0.001207876	0.002372638	-0.06801601	-0.175265	0.0003903449	0.00033174	-0.1526929	0.2285211	

4.774e+10	-0.2447124	0.08036269	-0.00027395	-0.003224584	-0.06803921	-0.1813036	-0.0008171882	0.002469503	
-0.00027395	-0.003224584	-0.2550168	0.05700301	-0.001600831	0.0005552763	-0.06676983	-0.1681267	
-0.06803921	-0.1813036	-0.001600831	0.0005552763	-0.1550567	0.2295352	0.0002954509	0.0002445486	
-0.0008171882	0.002469503	-0.06676983	-0.1681267	0.0002954509	0.0002445486	-0.1658544	0.2216215	

4.776e+10	-0.2422041	0.07455797	-0.0007269396	-0.003118904	-0.0682806	-0.1728095	-0.0004160308	0.002511678	
-0.0007269396	-0.003118904	-0.2567988	0.05397559	-0.001513904	0.0007269662	-0.06451405	-0.1617057	
-0.0682806	-0.1728095	-0.001513904	0.0007269662	-0.1675378	0.2220076	0.0001514948	0.0002103311	
-0.0004160308	0.002511678	-0.06451405	-0.1617057	0.0001514948	0.0002103311	-0.1803062	0.2174113	

4.778e+10	-0.2409206	0.06835535	-0.001168388	-0.002957041	-0.06673634	-0.1646815	-1.115853e-05	0.002487675	
-0.001168388	-0.002957041	-0.2590532	0.05143488	-0.001401415	0.0008893653	-0.06145539	-0.1561734	
-0.06673634	-0.1646815	-0.001401415	0.0008893653	-0.1819675	0.2169372	-2.063409e-05	0.0002652587	
-1.115853e-05	0.002487675	-0.06145539	-0.1561734	-2.063409e-05	0.0002652587	-0.1955468	0.2161124	

4.78e+10	-0.2409488	0.06208931	-0.001590674	-0.002731954	-0.06350331	-0.1574135	0.0003797439	0.002388703	
-0.001590674	-0.002731954	-0.2615739	0.04951948	-0.001270046	0.001030299	-0.05784359	-0.1515567	
-0.06350331	-0.1574135	-0.001270046	0.001030299	-0.1976884	0.2149845	-0.0001738214	0.0004319585	
0.0003797439	0.002388703	-0.05784359	-0.1515567	-0.0001738214	0.0004319585	-0.2108835	0.2179191	

4.782e+10	-0.2422771	0.05602315	-0.001979722	-0.002441266	-0.05891536	-0.1514224	0.0007328116	0.002217765	
-0.001979722	-0.002441266	-0.2642154	0.04811135	-0.001131218	0.001146323	-0.0538719	-0.1478512	
-0.05891536	-0.1514224	-0.001131218	0.001146323	-0.2138418	0.2166217	-0.0002511798	0.0007077391	
0.0007328116	0.002217765	-0.0538719	-0.1478512	-0.0002511798	0.0007077391	-0.2255786	0.2229172	

4.784e+10	-0.2448214	0.05052186	-0.002319504	-0.00208849	-0.05325578	-0.1471175	0.001025705	0.001989226	
-0.002319504	-0.00208849	-0.2668697	0.04724845	-0.0009954111	0.001241144	-0.04960915	-0.1450617	
-0.05325578	-0.1471175	-0.0009954111	0.001241144	-0.2296609	0.2218584	-0.0001971639	0.001062766	
0.001025705	0.001989226	-0.04960915	-0.1450617	-0.0001971639	0.001062766	-0.239156	0.2308697	

4.786e+10	-0.2483513	0.04580505	-0.002597239	-0.001682159	-0.04719679	-0.1446552	0.001245366	0.001727378	
-0.002597239	-0.001682159	-0.2694666	0.04673873	-0.0008689933	0.001322916	-0.04526085	-0.1431135	
-0.04719679	-0.1446552	-0.0008689933	0.001322916	-0.2439692	0.2307102	3.148979e-05	0.001443156	
0.001245366	0.001727378	-0.04526085	-0.1431135	3.148979e-05	0.001443156	-0.2507561	0.2416454	

4.788e+10	-0.2525802	0.0421315	-0.002798306	-0.001235951	-0.04122333	-0.1440474	0.00138821	0.001460927	
-0.002798306	-0.001235951	-0.2719393	0.04658115	-0.0007555622	0.001402645	-0.04087136	-0.1419741	
-0.04122333	-0.1440474	-0.0007555622	0.001402645	-0.2561154	0.2425352	0.0004587269	0.001771469	
0.00138821	0.001460927	-0.04087136	-0.1419741	0.0004587269	0.001771469	-0.2598418	0.2547226	

4.79e+10	-0.2571588	0.03953458	-0.0029153	-0.0007697112	-0.03584904	-0.1450764	0.00146475	0.001221597	
-0.0029153	-0.0007697112	-0.2742751	0.04668565	-0.0006523405	0.001498135	-0.03650448	-0.1416622	
-0.03584904	-0.1450764	-0.0006523405	0.001498135	-0.2652092	0.2567365	0.001072184	0.001956358	
0.00146475	0.001221597	-0.03650448	-0.1416622	0.001072184	0.001956358	-0.2657439	0.2694805	

4.792e+10	-0.2618486	0.03791958	-0.002949126	-0.0003073639	-0.03144145	-0.1474143	0.00150359	0.001032037	
-0.002949126	-0.0003073639	-0.2765654	0.04687684	-0.000541367	0.001623624	-0.03224772	-0.1421685	
-0.03144145	-0.1474143	-0.000541367	0.001623624	-0.2710076	0.2724304	0.001815006	0.001909678	
0.00150359	0.001032037	-0.03224772	-0.1421685	0.001815006	0.001909678	-0.2682733	0.2849835	

4.794e+10	-0.266385	0.03720094	-0.002912499	0.0001322558	-0.02824681	-0.1506447	0.001542864	0.000894475	
-0.002912499	0.0001322558	-0.2788067	0.04735686	-0.0003960507	0.001780585	-0.02818139	-0.1435091	
-0.02824681	-0.1506447	-0.0003960507	0.001780585	-0.2732868	0.2887907	0.002590475	0.00157231	
0.001542864	0.000894475	-0.02818139	-0.1435091	0.002590475	0.00157231	-0.2672263	0.3003501	

4.796e+10	-0.2706594	0.03717197	-0.002823808	0.0005422466	-0.0263356	-0.1543291	0.001616221	0.00079031	
-0.002823808	0.0005422466	-0.2811014	0.04799906	-0.0001900784	0.001955082	-0.02451305	-0.1456719	
-0.0263356	-0.1543291	-0.0001900784	0.001955082	-0.2722191	0.3049957	0.003279091	0.0009291874	
0.001616221	0.00079031	-0.02451305	-0.1456719	0.003279091	0.0009291874	-0.2630072	0.3145531	

4.798e+10	-0.2746056	0.03761629	-0.002696037	0.0009262152	-0.02558842	-0.1580926	0.001739462	0.000683965	
-0.002696037	0.0009262152	-0.2834302	0.04885502	9.247983e-05	0.002120685	-0.02129969	-0.1485811	
-0.02558842	-0.1580926	9.247983e-05	0.002120685	-0.2680261	0.3203283	0.003761081	1.209678e-05	
0.001739462	0.000683965	-0.02129969	-0.1485811	0.003761081	1.209678e-05	-0.2561286	0.3268878	

4.8e+10	-0.2782377	0.03850968	-0.002535275	0.001290673	-0.02588009	-0.1616109	0.001909889	0.0005390403	
-0.002535275	0.001290673	-0.2857847	0.05008304	0.0004590362	0.002247399	-0.01871996	-0.1521326	
-0.02588009	-0.1616109	0.0004590362	0.002247399	-0.2610683	0.3342725	0.003929605	-0.001096057	
0.001909889	0.0005390403	-0.01871996	-0.1521326	0.003929605	-0.001096057	-0.2475203	0.3368348	

4.802e+10	-0.2816322	0.03958083	-0.002338681	0.001643653	-0.02689981	-0.164718	0.002106894	0.0003229383	
-0.002338681	0.001643653	-0.2880921	0.05173214	0.0009068187	0.002297624	-0.01677197	-0.1562424	
-0.02689981	-0.164718	0.0009068187	0.002297624	-0.2518223	0.3463494	0.003712289	-0.002271686	
0.002106894	0.0003229383	-0.01677197	-0.1562424	0.003712289	-0.002271686	-0.2380227	0.3443902	

4.804e+10	-0.2848989	0.04090229	-0.002098301	0.001988431	-0.02842996	-0.1672712	0.002296665	1.271088e-05	
-0.002098301	0.001988431	-0.2903056	0.05375255	0.001415829	0.002229182	-0.01556711	-0.1607882	
-0.02842996	-0.1672712	0.001415829	0.002229182	-0.2406514	0.3562436	0.003091405	-0.003360701	
0.002296665	1.271088e-05	-0.01556711	-0.1607882	0.003091405	-0.003360701	-0.22829	0.3497956	

4.806e+10	-0.2880959	0.0425423	-0.001799175	0.002321155	-0.03022218	-0.169324	0.002434331	-0.0003976773	
-0.001799175	0.002321155	-0.2922309	0.0563277	0.00194231	0.002009144	-0.01515067	-0.1657088	
-0.03022218	-0.169324	0.00194231	0.002009144	-0.2282723	0.3636152	0.002122747	-0.004212367	
0.002434331	-0.0003976773	-0.01515067	-0.1657088	0.002122747	-0.004212367	-0.2189533	0.3534108	

4.808e+10	-0.2912477	0.04451514	-0.001428643	0.002624675	-0.03201713	-0.170917	0.002470901	-0.0008920643	
-0.001428643	0.002624675	-0.2937568	0.05933847	0.002426317	0.001626057	-0.01557641	-0.1708916	
-0.03201713	-0.170917	0.002426317	0.001626057	-0.2152466	0.3683504	0.000917591	-0.004711376	
0.002470901	-0.0008920643	-0.01557641	-0.1708916	0.000917591	-0.004711376	-0.2101446	0.3557601	

4.81e+10	-0.2943431	0.04698806	-0.0009820386	0.002873208	-0.03369551	-0.1722247	0.002368238	-0.001432731	
-0.0009820386	0.002873208	-0.2947734	0.06270979	0.002806639	0.001095053	-0.01692759	-0.1762188	
-0.03369551	-0.1722247	0.002806639	0.001095053	-0.2021014	0.3705262	-0.0003788562	-0.004797765	
0.002368238	-0.001432731	-0.01692759	-0.1762188	-0.0003788562	-0.004797765	-0.2018068	0.357274	

4.812e+10	-0.2972723	0.05001304	-0.0004698156	0.003037279	-0.03507223	-0.1734701	0.002107633	-0.00196595	
-0.0004698156	0.003037279	-0.2951962	0.06625469	0.003031861	0.0004589426	-0.0191672	-0.1815711	
-0.03507223	-0.1734701	0.003031861	0.0004589426	-0.1896542	0.370298	-0.001609164	-0.004479435	
0.002107633	-0.00196595	-0.0191672	-0.1815711	-0.001609164	-0.004479435	-0.1939141	0.3581882	

4.814e+10	-0.2998817	0.05363309	8.497509e-05	0.003092433	-0.03628089	-0.1748863	0.001693001	-0.002434005	
8.497509e-05	0.003092433	-0.2949704	0.06994552	0.00307154	-0.000222655	-0.02234262	-0.1867885	
-0.03628089	-0.1748863	0.00307154	-0.000222655	-0.1783482	0.3681109	-0.002638855	-0.003822383	
0.001693001	-0.002434005	-0.02234262	-0.1867885	-0.002638855	-0.003822383	-0.1863212	0.3586836	

4.816e+10	-0.3019437	0.05792661	0.0006492889	0.003024798	-0.03742551	-0.1766796	0.001150665	-0.002784409	
0.0006492889	0.003024798	-0.294081	0.07359528	0.00292119	-0.0008829051	-0.0264906	-0.1917185	
-0.03742551	-0.1766796	0.00292119	-0.0008829051	-0.1683163	0.3646041	-0.003377218	-0.002933701	
0.001150665	-0.002784409	-0.0264906	-0.1917185	-0.003377218	-0.002933701	-0.1786928	0.3588728	

4.818e+10	-0.3032665	0.06274827	0.001187463	0.002835385	-0.03875392	-0.1789416	0.0005277315	-0.002980744	
0.001187463	0.002835385	-0.292547	0.07707579	0.00260716	-0.001459542	-0.03151821	-0.1962046	
-0.03875392	-0.1789416	0.00260716	-0.001459542	-0.1598549	0.3602238	-0.003789625	-0.001947603	
0.0005277315	-0.002980744	-0.03151821	-0.1962046	-0.003789625	-0.001947603	-0.1711089	0.3585763	

4.82e+10	-0.3037053	0.06788618	0.001666066	0.002535861	-0.04045316	-0.1817218	-0.0001211482	-0.00300586	
0.001666066	0.002535861	-0.2904216	0.08026818	0.002173299	-0.001909357	-0.03734587	-0.2001354	
-0.04045316	-0.1817218	0.002173299	-0.001909357	-0.1527422	0.3555171	-0.003897505	-0.0009782623	
-0.0001211482	-0.00300586	-0.03734587	-0.2001354	-0.003897505	-0.0009782623	-0.1633611	0.3578011	

4.822e+10	-0.3031541	0.0731727	0.002060555	0.002151131	-0.04287579	-0.1848322	-0.0007407996	-0.00286859	
0.002060555	0.002151131	-0.2877485	0.08310873	0.001675476	-0.002213609	-0.04388459	-0.2033178	
-0.04287579	-0.1848322	0.001675476	-0.002213609	-0.1466106	0.3508279	-0.003760425	-0.0001155483	
-0.0007407996	-0.00286859	-0.04388459	-0.2033178	-0.003760425	-0.0001155483	-0.1554109	0.3563996	

4.824e+10	-0.3016123	0.07833931	0.002355923	0.001708476	-0.04610305	-0.1881232	-0.00128799	-0.002592367	
0.002355923	0.001708476	-0.2846404	0.08545035	0.001163108	-0.002375877	-0.05105996	-0.2057078	
-0.04610305	-0.1881232	0.001163108	-0.002375877	-0.1411349	0.3463588	-0.003452393	0.0005944703	
-0.00128799	-0.002592367	-0.05105996	-0.2057078	-0.003452393	0.0005944703	-0.1473189	0.3542595	

4.826e+10	-0.2991155	0.08323323	0.002549505	0.001236654	-0.05026264	-0.1913177	-0.001734673	-0.00221231	
0.002549505	0.001236654	-0.2810987	0.08739107	0.000675451	-0.002415125	-0.05870788	-0.2071932	
-0.05026264	-0.1913177	0.000675451	-0.002415125	-0.1360927	0.3419858	-0.00304602	0.001135831	
-0.001734673	-0.00221231	-0.05870788	-0.2071932	-0.00304602	0.001135831	-0.1391964	0.3512117	

4.828e+10	-0.2957767	0.08761305	0.00264576	0.0007598091	-0.05538014	-0.1941563	-0.002067102	-0.001762978	
0.00264576	0.0007598091	-0.2772984	0.08860387	0.0002381893	-0.002356794	-0.06672062	-0.2076859	
-0.05538014	-0.1941563	0.0002381893	-0.002356794	-0.1311789	0.337675	-0.002601867	0.001517972	
-0.002067102	-0.001762978	-0.06672062	-0.2076859	-0.002601867	0.001517972	-0.1311245	0.3471942	

4.83e+10	-0.2917177	0.09136287	0.002653688	0.0002964957	-0.06129369	-0.1964291	-0.002281451	-0.001277151	
0.002653688	0.0002964957	-0.2732543	0.08931326	-0.0001339275	-0.002229281	-0.0749099	-0.2071622	
-0.06129369	-0.1964291	-0.0001339275	-0.002229281	-0.1262374	0.333198	-0.002168279	0.00176337	
-0.002281451	-0.001277151	-0.0749099	-0.2071622	-0.002168279	0.00176337	-0.1232214	0.3420733	

4.832e+10	-0.2870626	0.09438137	0.002583314	-0.0001399118	-0.0679557	-0.1979186	-0.002380588	-0.000783158	
0.002583314	-0.0001399118	-0.2691223	0.08926431	-0.0004363271	-0.002058056	-0.08320502	-0.2055264	
-0.0679557	-0.1979186	-0.0004363271	-0.002058056	-0.1213268	0.328341	-0.001774117	0.001905172	
-0.002380588	-0.000783158	-0.08320502	-0.2055264	-0.001774117	0.001905172	-0.1156939	0.3358091	

4.834e+10	-0.2819544	0.09658956	0.002445185	-0.0005385932	-0.07515655	-0.1984769	-0.002372452	-0.0003051808	
0.002445185	-0.0005385932	-0.264989	0.08850984	-0.0006710569	-0.001868023	-0.09135619	-0.2028032	
-0.07515655	-0.1984769	-0.0006710569	-0.001868023	-0.1163981	0.3229543	-0.0014369	0.001977723	
-0.002372452	-0.0003051808	-0.09135619	-0.2028032	-0.0014369	0.001977723	-0.1087246	0.3283683	

4.836e+10	-0.2765162	0.09797384	0.00225009	-0.0008905104	-0.08273476	-0.1979779	-0.002268024	0.0001343482	
0.00225009	-0.0008905104	-0.2609447	0.08710836	-0.0008472435	-0.001680171	-0.09922896	-0.1989355	
-0.08273476	-0.1979779	-0.0008472435	-0.001680171	-0.1117488	0.3167983	-0.001159737	0.002015217	
-0.002268024	0.0001343482	-0.09922896	-0.1989355	-0.001159737	0.002015217	-0.1026433	0.3196965	

4.838e+10	-0.2708804	0.09843181	0.002009402	-0.001188357	-0.09047997	-0.1963563	-0.002082228	0.0005176141	
0.002009402	-0.001188357	-0.2571626	0.08494882	-0.0009793333	-0.001509194	-0.1066023	-0.1939891	
-0.09047997	-0.1963563	-0.0009793333	-0.001509194	-0.1074127	0.3098396	-0.0009326036	0.002046412	
-0.002082228	0.0005176141	-0.1066023	-0.1939891	-0.0009326036	0.002046412	-0.09765425	0.3099083	

4.84e+10	-0.2651583	0.09803243	0.0017355	-0.001426622	-0.09815812	-0.193564	-0.001831766	0.000830155	
0.0017355	-0.001426622	-0.2537281	0.08219653	-0.00108382	-0.001363525	-0.1132652	-0.1879843	
-0.09815812	-0.193564	-0.00108382	-0.001363525	-0.1037464	0.301986	-0.0007408509	0.002092099	
-0.001831766	0.000830155	-0.1132652	-0.1879843	-0.0007408509	0.002092099	-0.09412371	0.2990682	

4.842e+10	-0.2595109	0.09666595	0.001442931	-0.001601694	-0.1055912	-0.1895543	-0.001537453	0.001059034	
0.001442931	-0.001601694	-0.2508709	0.07871437	-0.001180783	-0.001247771	-0.1190145	-0.1810445	
-0.1055912	-0.1895543	-0.001180783	-0.001247771	-0.1009685	0.2932337	-0.0005628691	0.002168644	
-0.001537453	0.001059034	-0.1190145	-0.1810445	-0.0005628691	0.002168644	-0.09227718	0.2874098	

4.844e+10	-0.2540832	0.09439177	0.00114702	-0.001711846	-0.1125111	-0.1843951	-0.001223012	0.001195991	
0.00114702	-0.001711846	-0.2486848	0.07479829	-0.001290752	-0.001156094	-0.1236072	-0.1733549	
-0.1125111	-0.1843951	-0.001290752	-0.001156094	-0.09936254	0.2837349	-0.0003687368	0.00228119	
-0.001223012	0.001195991	-0.1236072	-0.1733549	-0.0003687368	0.00228119	-0.09247529	0.2752614	

4.846e+10	-0.2490572	0.09114199	0.0008667816	-0.001761378	-0.1186823	-0.1781586	-0.0009189312	0.001239148	
0.0008667816	-0.001761378	-0.2473091	0.07049452	-0.001434373	-0.001075002	-0.1269082	-0.1651511	
-0.1186823	-0.1781586	-0.001434373	-0.001075002	-0.09921075	0.273619	-0.000128077	0.002422016	
-0.0009189312	0.001239148	-0.1269082	-0.1651511	-0.000128077	0.002422016	-0.09485225	0.26303	

4.848e+10	-0.2445675	0.08708658	0.0006210047	-0.001761966	-0.1238306	-0.1710025	-0.0006574126	0.001199794	
0.0006210047	-0.001761966	-0.2468152	0.06608778	-0.001625959	-0.0009762022	-0.1287678	-0.1567645	
-0.1238306	-0.1710025	-0.001625959	-0.0009762022	-0.100709	0.2631792	0.0001888625	0.002563853	
-0.0006574126	0.001199794	-0.1287678	-0.1567645	0.0001888625	0.002563853	-0.09961721	0.25122	

4.85e+10	-0.2408078	0.08225917	0.000424264	-0.001736318	-0.1278052	-0.1631133	-0.0004661685	0.001103038	
0.000424264	-0.001736318	-0.2472077	0.06181914	-0.001865719	-0.0008213248	-0.1292036	-0.148527	
-0.1278052	-0.1631133	-0.001865719	-0.0008213248	-0.1040774	0.252761	0.0005941854	0.002664348	
-0.0004661685	0.001103038	-0.1292036	-0.148527	0.0005941854	0.002664348	-0.1066402	0.2404207	

4.852e+10	-0.2379215	0.0768007	0.0002779375	-0.001716038	-0.1304323	-0.1547289	-0.0003592566	0.0009875857	
0.0002779375	-0.001716038	-0.2484223	0.05780968	-0.002128815	-0.0005688217	-0.1283564	-0.1407654	
-0.1304323	-0.1547289	-0.002128815	-0.0005688217	-0.1094551	0.2427549	0.001074671	0.002674137	
-0.0003592566	0.0009875857	-0.1283564	-0.1407654	0.001074671	0.002674137	-0.1158488	0.2311432	

4.854e+10	-0.2360498	0.07090815	0.0001654381	-0.00173272	-0.1315536	-0.1462077	-0.0003315876	0.0008954369	
0.0001654381	-0.00173272	-0.2502985	0.05439088	-0.00236509	-0.0001898752	-0.1263376	-0.1337852	
-0.1315536	-0.1462077	-0.00236509	-0.0001898752	-0.1167508	0.2336551	0.001589974	0.002554499	
-0.0003315876	0.0008954369	-0.1263376	-0.1337852	0.001589974	0.002554499	-0.1266566	0.2239559	

4.856e+10	-0.2352699	0.06475994	4.85313e-05	-0.001806348	-0.1312484	-0.1378244	-0.0003530346	0.0008607874	
4.85313e-05	-0.001806348	-0.2526572	0.05158741	-0.002502244	0.0003134452	-0.12353	-0.1277405	
-0.1312484	-0.1378244	-0.002502244	0.0003134452	-0.1258155	0.225953	0.002078002	0.002293808	
-0.0003530346	0.0008607874	-0.12353	-0.1277405	0.002078002	0.002293808	-0.1386822	0.2192041	

4.858e+10	-0.2355695	0.05864673	-0.0001203342	-0.001933659	-0.1295063	-0.1299591	-0.0003821255	0.0008967478	
-0.0001203342	-0.001933659	-0.2552294	0.04947289	-0.00247183	0.0008991842	-0.1201388	-0.1227245	
-0.1295063	-0.1299591	-0.00247183	0.0008991842	-0.1364289	0.2200372	0.002479174	0.001917852	
-0.0003821255	0.0008967478	-0.1201388	-0.1227245	0.002479174	0.001917852	-0.1512876	0.2171078	

4.86e+10	-0.2369309	0.05278669	-0.0003859188	-0.002080205	-0.1265631	-0.1228626	-0.0003781367	0.0009897237	
-0.0003859188	-0.002080205	-0.2578182	0.0480631	-0.00222962	0.00148304	-0.1165478	-0.1186828	
-0.1265631	-0.1228626	-0.00222962	0.00148304	-0.1481872	0.21626	0.002759565	0.001486991	
-0.0003781367	0.0009897237	-0.1165478	-0.1186828	0.002759565	0.001486991	-0.1639686	0.2176728	

4.862e+10	-0.2392452	0.04737182	-0.0007709279	-0.002185515	-0.1226313	-0.1167802	-0.0003183617	0.001105887	
-0.0007709279	-0.002185515	-0.2602639	0.04720413	-0.001781515	0.00195992	-0.1128825	-0.1155539	
-0.1226313	-0.1167802	-0.001781515	0.00195992	-0.1605756	0.2148803	0.002930855	0.001071265	
-0.0003183617	0.001105887	-0.1128825	-0.1155539	0.002930855	0.001071265	-0.1760544	0.2208556	

4.864e+10	-0.242354	0.04260272	-0.00125948	-0.002176217	-0.1179559	-0.1118578	-0.0002084053	0.001207041	
-0.00125948	-0.002176217	-0.262439	0.04674751	-0.001195117	0.002233562	-0.1093104	-0.1131547	
-0.1179559	-0.1118578	-0.001195117	0.002233562	-0.1731299	0.2160241	0.003052407	0.0007148678	
-0.0002084053	0.001207041	-0.1093104	-0.1131547	0.003052407	0.0007148678	-0.1869934	0.2265188	

4.866e+10	-0.2461075	0.0384954	-0.001794501	-0.001995095	-0.1128328	-0.1082027	-7.670643e-05	0.001275696	
-0.001794501	-0.001995095	-0.2642911	0.0465541	-0.0005853367	0.002256828	-0.1058974	-0.1113977	
-0.1128328	-0.1082027	-0.0005853367	0.002256828	-0.1853964	0.2196979	0.003202647	0.000407752	
-7.670643e-05	0.001275696	-0.1058974	-0.1113977	0.003202647	0.000407752	-0.196384	0.2342903	

4.868e+10	-0.250294	0.03522108	-0.002290811	-0.001620785	-0.107564	-0.1057767	4.808477e-05	0.001323327	
-0.002290811	-0.001620785	-0.2657958	0.04648441	-8.112903e-05	0.002052998	-0.1026693	-0.1101378	
-0.107564	-0.1057767	-8.112903e-05	0.002052998	-0.1967328	0.2258372	0.003436169	7.998173e-05	
4.808477e-05	0.001323327	-0.1026693	-0.1101378	0.003436169	7.998173e-05	-0.2035863	0.2438322	

4.87e+10	-0.2547765	0.03272802	-0.002661559	-0.001078583	-0.1023382	-0.1045774	0.0001593576	0.00138003	
-0.002661559	-0.001078583	-0.2670446	0.04636664	0.0002187944	0.001713891	-0.09958795	-0.1092924	
-0.1023382	-0.1045774	0.0002187944	0.001713891	-0.2066955	0.2342851	0.003749007	-0.0003667213	
0.0001593576	0.00138003	-0.09958795	-0.1092924	0.003749007	-0.0003667213	-0.2084458	0.2544897	

4.872e+10	-0.2593716	0.03102002	-0.002844437	-0.0004362762	-0.09745534	-0.1044715	0.0002838444	0.001474121	
-0.002844437	-0.0004362762	-0.2681143	0.04616682	0.0002830828	0.001371898	-0.09663446	-0.108842	
-0.09745534	-0.1044715	0.0002830828	0.001371898	-0.2148243	0.2447016	0.004065717	-0.001022822	
0.0002838444	0.001474121	-0.09663446	-0.108842	0.004065717	-0.001022822	-0.2105691	0.2656721	

4.874e+10	-0.2639622	0.0300747	-0.002817089	0.0002217097	-0.09305111	-0.1053232	0.0004661957	0.001602359	
-0.002817089	0.0002217097	-0.2691667	0.04576778	0.0001551403	0.001154422	-0.09378733	-0.1087688	
-0.09305111	-0.1053232	0.0001551403	0.001154422	-0.2206522	0.2567131	0.004264429	-0.001918479	
0.0004661957	0.001602359	-0.09378733	-0.1087688	0.004264429	-0.001918479	-0.2099652	0.2766189	

4.876e+10	-0.2684533	0.0297798	-0.002599149	0.0008105402	-0.08927986	-0.1069671	0.0007441173	0.001732564	
-0.002599149	0.0008105402	-0.2703192	0.04518742	-6.044116e-05	0.001150213	-0.09106764	-0.109109	
-0.08927986	-0.1069671	-6.044116e-05	0.001150213	-0.2238451	0.2698142	0.004215112	-0.003023737	
0.0007441173	0.001732564	-0.09106764	-0.109109	0.004215112	-0.003023737	-0.207071	0.2864782	

4.878e+10	-0.2727329	0.03011	-0.002245043	0.001269667	-0.08625465	-0.1092173	0.001131246	0.001806301	
-0.002245043	0.001269667	-0.2716835	0.04453857	-0.0002235389	0.001377581	-0.08850381	-0.1098408	
-0.08625465	-0.1092173	-0.0002235389	0.001377581	-0.2241365	0.283399	0.003804481	-0.004242099	
0.001131246	0.001806301	-0.08850381	-0.1098408	0.003804481	-0.004242099	-0.2023473	0.2947476	

4.88e+10	-0.2767797	0.03099691	-0.001826205	0.001572448	-0.08401231	-0.1118532	0.001606654	0.001765071	
-0.001826205	0.001572448	-0.2733151	0.04397372	-0.000202422	0.001778015	-0.08613379	-0.110963	
-0.08401231	-0.1118532	-0.000202422	0.001778015	-0.2215357	0.2966722	0.002965457	-0.005429784	
0.001606654	0.001765071	-0.08613379	-0.110963	0.002965457	-0.005429784	-0.1965776	0.3010897	

4.882e+10	-0.2805597	0.03236262	-0.001411005	0.001730064	-0.0824744	-0.114733	0.002121053	0.001564118	
-0.001411005	0.001730064	-0.2752467	0.04354555	8.494899e-05	0.00222648	-0.08391596	-0.1124999	
-0.0824744	-0.114733	8.494899e-05	0.00222648	-0.2161052	0.3089745	0.001692127	-0.006412601	
0.002121053	0.001564118	-0.08391596	-0.1124999	0.001692127	-0.006412601	-0.1904348	0.3055896	

4.884e+10	-0.284022	0.03416927	-0.001046485	0.001782978	-0.08163494	-0.1176763	0.002609184	0.001184347	
-0.001046485	0.001782978	-0.2774586	0.04344886	0.0006426636	0.002570892	-0.08192547	-0.1144745	
-0.08163494	-0.1176763	0.0006426636	0.002570892	-0.208327	0.3195729	5.754127e-05	-0.007014464	
0.002609184	0.001184347	-0.08192547	-0.1144745	5.754127e-05	-0.007014464	-0.184654	0.3085344	

4.886e+10	-0.2871414	0.03632531	-0.0007489138	0.001777252	-0.08139348	-0.12058	0.00300364	0.0006387173	
-0.0007489138	0.001777252	-0.2798572	0.04377442	0.001395678	0.002681644	-0.08022914	-0.1169089	
-0.08139348	-0.12058	0.001395678	0.002681644	-0.1987882	0.3279799	-0.001789839	-0.007094198	
0.00300364	0.0006387173	-0.08022914	-0.1169089	-0.001789839	-0.007094198	-0.179581	0.3104174	

4.888e+10	-0.2898936	0.03888606	-0.000509299	0.001754161	-0.08156741	-0.123422	0.003245682	-3.764757e-05	
-0.000509299	0.001754161	-0.2823068	0.04461199	0.00221349	0.002484629	-0.0788465	-0.1198499	
-0.08156741	-0.123422	0.00221349	0.002484629	-0.1882364	0.3339295	-0.003641721	-0.006583382	
0.003245682	-3.764757e-05	-0.0788465	-0.1198499	-0.003641721	-0.006583382	-0.1752502	0.311782	

4.89e+10	-0.2922259	0.04179807	-0.0003033928	0.001736394	-0.08214415	-0.1261532	0.003293662	-0.000787942	
-0.0003033928	0.001736394	-0.2846587	0.04605366	0.00295124	0.001980535	-0.07798367	-0.1232627	
-0.08214415	-0.1261532	0.00295124	0.001980535	-0.1775202	0.3374104	-0.005274378	-0.005509687	
0.003293662	-0.000787942	-0.07798367	-0.1232627	-0.005274378	-0.005509687	-0.1715395	0.3130638	

4.892e+10	-0.2940967	0.04500312	-0.0001057769	0.001726964	-0.08297097	-0.1288939	0.003129986	-0.001544693	
-0.0001057769	0.001726964	-0.2867527	0.04798594	0.003488964	0.001235918	-0.07768004	-0.1271605	
-0.08297097	-0.1288939	0.003488964	0.001235918	-0.1671514	0.3388004	-0.006498538	-0.003994801	
0.003129986	-0.001544693	-0.07768004	-0.1271605	-0.006498538	-0.003994801	-0.1682437	0.3145637	

4.894e+10	-0.295466	0.04843737	0.0001011646	0.001714418	-0.08414237	-0.131671	0.00276248	-0.00223789	
0.0001011646	0.001714418	-0.2884323	0.05044324	0.003757827	0.0003596731	-0.07814867	-0.1314083	
-0.08414237	-0.131671	0.003757827	0.0003596731	-0.1577086	0.3385157	-0.007196692	-0.002226372	
0.00276248	-0.00223789	-0.07814867	-0.1314083	-0.007196692	-0.002226372	-0.165065	0.3164125	

4.896e+10	-0.2962772	0.05208172	0.0003209273	0.001681244	-0.08561609	-0.1345976	0.002226884	-0.002805402	
0.0003209273	0.001681244	-0.2895651	0.05330188	0.003747381	-0.0005330244	-0.0794616	-0.1359278	
-0.08561609	-0.1345976	0.003747381	-0.0005330244	-0.1493331	0.3371481	-0.007347397	-0.0004094969	
0.002226884	-0.002805402	-0.0794616	-0.1359278	-0.007347397	-0.0004094969	-0.161664	0.3186571	

4.898e+10	-0.2964541	0.05585483	0.0005450504	0.001613527	-0.08757764	-0.1376283	0.001577701	-0.003206029	
0.0005450504	0.001613527	-0.2900315	0.05642895	0.00349581	-0.001344927	-0.08171685	-0.1405164	
-0.08757764	-0.1376283	0.00349581	-0.001344927	-0.1420585	0.3351566	-0.007009171	0.001275046	
0.001577701	-0.003206029	-0.08171685	-0.1405164	-0.007009171	0.001275046	-0.1578159	0.3211486	

4.9e+10	-0.2960039	0.05957734	0.0007584559	0.001506777	-0.09008312	-0.1407508	0.0008779474	-0.003425584	
0.0007584559	0.001506777	-0.2898257	0.05959812	0.003069423	-0.002016771	-0.08494787	-0.145022	
-0.09008312	-0.1407508	0.003069423	-0.002016771	-0.1356127	0.332973	-0.006295925	0.002704943	
0.0008779474	-0.003425584	-0.08494787	-0.145022	-0.006295925	0.002704943	-0.1531926	0.3237889	

4.902e+10	-0.2948688	0.06326823	0.0009475998	0.001366367	-0.09327251	-0.1438468	0.0001831023	-0.003474078	
0.0009475998	0.001366367	-0.2888879	0.06277651	0.002536846	-0.002526594	-0.08916472	-0.1492197	
-0.09327251	-0.1438468	0.002536846	-0.002526594	-0.1297671	0.3307868	-0.005335632	0.003821346	
0.0001831023	-0.003474078	-0.08916472	-0.1492197	-0.005335632	0.003821346	-0.1479129	0.3262236	

4.904e+10	-0.2930774	0.06669314	0.001103827	0.001203435	-0.0971484	-0.1468309	-0.0004646316	-0.003378298	
0.001103827	0.001203435	-0.2872948	0.06569376	0.001958191	-0.002879445	-0.09426185	-0.152981	
-0.0971484	-0.1468309	0.001958191	-0.002879445	-0.1241466	0.328718	-0.004247052	0.004617017	
-0.0004646316	-0.003378298	-0.09426185	-0.152981	-0.004247052	0.004617017	-0.1417376	0.328322	

4.906e+10	-0.2906778	0.06983923	0.001225817	0.001029531	-0.1017833	-0.1494888	-0.001039588	-0.00317125	
0.001225817	0.001029531	-0.2850644	0.06833267	0.001375538	-0.003096197	-0.1002256	-0.1560575	
-0.1017833	-0.1494888	0.001375538	-0.003096197	-0.1186947	0.326643	-0.003124018	0.005119972	
-0.001039588	-0.00317125	-0.1002256	-0.1560575	-0.003124018	0.005119972	-0.1348549	0.3297936	

4.908e+10	-0.2877269	0.072539	0.001317434	0.0008552576	-0.1070964	-0.1517064	-0.001532722	-0.002886276	
0.001317434	0.0008552576	-0.2823024	0.07049056	0.0008129954	-0.003203755	-0.106867	-0.1583773	
-0.1070964	-0.1517064	0.0008129954	-0.003203755	-0.1130519	0.3244586	-0.002029084	0.005375489	
-0.001532722	-0.002886276	-0.106867	-0.1583773	-0.002029084	0.005375489	-0.1273631	0.3304127	

4.91e+10	-0.2843023	0.07469139	0.001386085	0.0006874558	-0.1130671	-0.1533045	-0.001946277	-0.002551157	
0.001386085	0.0006874558	-0.2791131	0.07207962	0.0002801833	-0.00322716	-0.1140826	-0.1598199	
-0.1130671	-0.1533045	0.0002801833	-0.00322716	-0.1072374	0.3219921	-0.0009952371	0.005433301	
-0.001946277	-0.002551157	-0.1140826	-0.1598199	-0.0009952371	0.005433301	-0.119297	0.3300942	

4.912e+10	-0.2804651	0.07630581	0.001440176	0.0005285408	-0.1195966	-0.1541829	-0.002288428	-0.002186105	
0.001440176	0.0005285408	-0.2755649	0.0731162	-0.0002217665	-0.003184989	-0.1217217	-0.1603043	
-0.1195966	-0.1541829	-0.0002217665	-0.003184989	-0.1011596	0.3190887	-3.994e-05	0.00533415	
-0.002288428	-0.002186105	-0.1217217	-0.1603043	-3.994e-05	0.00533415	-0.1109848	0.3286459	

4.914e+10	-0.2763294	0.07730855	0.001488121	0.0003756407	-0.1265417	-0.1542189	-0.002572192	-0.001799731	
0.001488121	0.0003756407	-0.2717775	0.0735348	-0.0006972212	-0.003088787	-0.1296563	-0.1597699	
-0.1265417	-0.1542189	-0.0006972212	-0.003088787	-0.09496355	0.3155293	0.0008355682	0.005110341	
-0.002572192	-0.001799731	-0.1296563	-0.1597699	0.0008355682	0.005110341	-0.1024877	0.3260414	

4.916e+10	-0.2719783	0.07762904	0.001534362	0.0002238173	-0.1337754	-0.1534036	-0.002805098	-0.001396737	
0.001534362	0.0002238173	-0.2678255	0.07331901	-0.001149156	-0.002944396	-0.1376978	-0.1582358	
-0.1337754	-0.1534036	-0.001149156	-0.002944396	-0.08865046	0.3112099	0.001629668	0.004783835	
-0.002805098	-0.001396737	-0.1376978	-0.1582358	0.001629668	0.004783835	-0.09403709	0.3222079	

4.918e+10	-0.2674732	0.07730332	0.001581906	6.641768e-05	-0.1412034	-0.1515812	-0.002994122	-0.0009757387	
0.001581906	6.641768e-05	-0.2638302	0.07242329	-0.00158278	-0.002751427	-0.1457488	-0.1556416	
-0.1412034	-0.1515812	-0.00158278	-0.002751427	-0.08239107	0.3059918	0.002348317	0.004367505	
-0.002994122	-0.0009757387	-0.1457488	-0.1556416	0.002348317	0.004367505	-0.08586292	0.3171216	

4.92e+10	-0.2629203	0.07623616	0.001629654	-0.0001044796	-0.1486809	-0.1487847	-0.003140798	-0.00053179	
0.001629654	-0.0001044796	-0.2598558	0.07084483	-0.001997471	-0.00250757	-0.1536924	-0.1519851	
-0.1486809	-0.1487847	-0.001997471	-0.00250757	-0.07635682	0.2997783	0.002990907	0.003868666	
-0.003140798	-0.00053179	-0.1536924	-0.1519851	0.002990907	0.003868666	-0.07806643	0.3107955	

4.922e+10	-0.2583733	0.07442909	0.001673609	-0.0002960964	-0.1560676	-0.1449255	-0.003241924	-6.111607e-05	
0.001673609	-0.0002960964	-0.2559703	0.06858705	-0.002390458	-0.002208943	-0.1613634	-0.1472934	
-0.1560676	-0.1449255	-0.002390458	-0.002208943	-0.07081001	0.2924702	0.003553478	0.003292862	
-0.003241924	-6.111607e-05	-0.1613634	-0.1472934	0.003553478	0.003292862	-0.07095199	0.3032194	

4.924e+10	-0.2539331	0.07195157	0.001706165	-0.0005146667	-0.1632173	-0.139993	-0.003288876	0.000439414	
0.001706165	-0.0005146667	-0.2523029	0.06567297	-0.002755761	-0.001848306	-0.16866	-0.1415225	
-0.1632173	-0.139993	-0.002755761	-0.001848306	-0.06579407	0.2840804	0.004029805	0.002640246	
-0.003288876	0.000439414	-0.16866	-0.1415225	0.004029805	0.002640246	-0.06462705	0.2944307	

4.926e+10	-0.2496981	0.06863768	0.001717742	-0.0007645364	-0.1699504	-0.1339781	-0.003270528	0.0009712586	
0.001717742	-0.0007645364	-0.2489208	0.06201678	-0.003082807	-0.001421846	-0.1754113	-0.1347438	
-0.1699504	-0.1339781	-0.003082807	-0.001421846	-0.06177109	0.2745468	0.004407341	0.001916001	
-0.003270528	0.0009712586	-0.1754113	-0.1347438	0.004407341	0.001916001	-0.0593293	0.2844894	

4.928e+10	-0.2457602	0.06456568	0.00169509	-0.001046296	-0.1760695	-0.1268919	-0.003171532	0.001528401	
0.00169509	-0.001046296	-0.2459156	0.05776956	-0.003357329	-0.0009279152	-0.1814677	-0.1269235	
-0.1760695	-0.1268919	-0.003357329	-0.0009279152	-0.05885211	0.2639383	0.004670081	0.001128949	
-0.003171532	0.001528401	-0.1814677	-0.1269235	0.004670081	0.001128949	-0.05528563	0.2734471	

4.93e+10	-0.2422758	0.05968802	0.001624339	-0.001356714	-0.1814312	-0.11868	-0.002974617	0.002102251	
0.001624339	-0.001356714	-0.2434473	0.05281309	-0.003561334	-0.0003680281	-0.1866565	-0.1181362	
-0.1814312	-0.11868	-0.003561334	-0.0003680281	-0.05742928	0.2523681	0.004799921	0.000290431	
-0.002974617	0.002102251	-0.1866565	-0.1181362	0.004799921	0.000290431	-0.05276282	0.2614389	

4.932e+10	-0.2393773	0.05403382	0.001490255	-0.001687985	-0.1857013	-0.1095174	-0.002664779	0.002673164	
0.001490255	-0.001687985	-0.2416092	0.04727048	-0.003675269	0.0002505547	-0.1907657	-0.108414	
-0.1857013	-0.1095174	-0.003675269	0.0002505547	-0.05787966	0.2399788	0.004777878	-0.0005753948	
-0.002664779	0.002673164	-0.1907657	-0.108414	0.004777878	-0.0005753948	-0.05207422	0.2486149	

4.934e+10	-0.2372212	0.04770294	0.001278841	-0.002026292	-0.1886811	-0.09948027	-0.002228095	0.003216579	
0.001278841	-0.002026292	-0.2405636	0.0411635	-0.00367903	0.0009145577	-0.1935856	-0.09787194	
-0.1886811	-0.09948027	-0.00367903	0.0009145577	-0.06050547	0.2270773	0.004589594	-0.001441019	
-0.002228095	0.003216579	-0.1935856	-0.09787194	0.004589594	-0.001441019	-0.0534852	0.2352259	

4.936e+10	-0.2360194	0.04068279	0.0009789897	-0.002351987	-0.1900943	-0.08872322	-0.001659728	0.00369824	
0.0009789897	-0.002351987	-0.2404562	0.03465027	-0.003555137	0.001602219	-0.1948621	-0.08667671	
-0.1900943	-0.08872322	-0.003555137	0.001602219	-0.06561735	0.21409	0.004228218	-0.002265061	
-0.001659728	0.00369824	-0.1948621	-0.08667671	0.004228218	-0.002265061	-0.05727581	0.2216287	

4.938e+10	-0.235957	0.03311959	0.0005839928	-0.002639671	-0.1896846	-0.07756336	-0.0009615431	0.004080335	
0.0005839928	-0.002639671	-0.2414488	0.02776577	-0.003289277	0.002286107	-0.1943602	-0.07511431	
-0.1896846	-0.07756336	-0.003289277	0.002286107	-0.07348597	0.2015726	0.003697127	-0.003006074	
-0.0009615431	0.004080335	-0.1943602	-0.07511431	0.003697127	-0.003006074	-0.06367856	0.2082832	

4.94e+10	-0.2372236	0.02531002	9.479049e-05	-0.002858929	-0.1872398	-0.06641546	-0.000151593	0.004319441	
9.479049e-05	-0.002858929	-0.2436562	0.02088871	-0.002875005	0.002931761	-0.191909	-0.06343066	
-0.1872398	-0.06641546	-0.002875005	0.002931761	-0.0843229	0.1901958	0.003017045	-0.003614366	
-0.000151593	0.004319441	-0.191909	-0.06343066	0.003017045	-0.003614366	-0.07296036	0.1957661	

4.942e+10	-0.2399661	0.01745359	-0.0004763315	-0.002976831	-0.1826356	-0.05573276	0.000736779	0.004375603	
-0.0004763315	-0.002976831	-0.2471869	0.01412285	-0.002316476	0.00350114	-0.1873325	-0.052128	
-0.1826356	-0.05573276	-0.002316476	0.00350114	-0.09792111	0.1808749	0.002226273	-0.004051418	
0.000736779	0.004375603	-0.1873325	-0.052128	0.002226273	-0.004051418	-0.08494636	0.1848566	

4.944e+10	-0.2442679	0.009938919	-0.00110556	-0.002961681	-0.1759331	-0.04608955	0.001652487	0.004217949	
-0.00110556	-0.002961681	-0.2520469	0.007876861	-0.001631828	0.003955193	-0.1806287	-0.04170143	
-0.1759331	-0.04608955	-0.001631828	0.003955193	-0.1140677	0.1744466	0.001382142	-0.004287634	
0.001652487	0.004217949	-0.1806287	-0.04170143	0.001382142	-0.004287634	-0.09961855	0.1762905	

4.946e+10	-0.2500908	0.003099243	-0.001755341	-0.002788513	-0.1672926	-0.03816151	0.002531589	0.003832803	
-0.001755341	-0.002788513	-0.2581685	0.002433253	-0.0008455138	0.004262348	-0.171874	-0.03266238	
-0.1672926	-0.03816151	-0.0008455138	0.004262348	-0.1319421	0.171826	0.0005483024	-0.00432206	
0.002531589	0.003832803	-0.171874	-0.03266238	0.0005483024	-0.00432206	-0.1163115	0.1709546	

4.948e+10	-0.2572677	-0.002514574	-0.0023781	-0.002445454	-0.1572286	-0.03238881	0.003302721	0.003234264	
-0.0023781	-0.002445454	-0.2653542	-0.001759921	5.374392e-07	0.004399	-0.1613838	-0.02558956	
-0.1572286	-0.03238881	5.374392e-07	0.004399	-0.1505635	0.1736314	-0.0002085732	-0.004182302	
0.003302721	0.003234264	-0.1613838	-0.02558956	-0.0002085732	-0.004182302	-0.1343714	0.1694738	

4.95e+10	-0.2654761	-0.006673548	-0.002919816	-0.001938452	-0.146352	-0.02921746	0.003903374	0.002462655	
-0.002919816	-0.001938452	-0.273294	-0.004436378	0.000866164	0.004354898	-0.1496108	-0.02094655	
-0.146352	-0.02921746	0.000866164	0.004354898	-0.1686156	0.1801235	-0.0008469726	-0.003924034	
0.003903374	0.002462655	-0.1496108	-0.02094655	-0.0008469726	-0.003924034	-0.1526555	0.1723031	

4.952e+10	-0.2743023	-0.00900369	-0.003330315	-0.001292413	-0.1354293	-0.02881109	0.004292369	0.001579625	
-0.003330315	-0.001292413	-0.2815862	-0.00550506	0.001710223	0.004131086	-0.137192	-0.0191346	
-0.1354293	-0.02881109	0.001710223	0.004131086	-0.1846388	0.1911323	-0.001362319	-0.003614811	
0.004292369	0.001579625	-0.137192	-0.0191346	-0.001362319	-0.003614811	-0.1699214	0.1794985	

4.954e+10	-0.2832576	-0.009594594	-0.003570462	-0.0005508225	-0.1252721	-0.0309553	0.004456546	0.0006575848	
-0.003570462	-0.0005508225	-0.2897785	-0.004906329	0.002495987	0.003739888	-0.1249158	-0.02020956	
-0.1252721	-0.0309553	0.002495987	0.003739888	-0.1973854	0.2058316	-0.001784136	-0.0033135	
0.004456546	0.0006575848	-0.1249158	-0.02020956	-0.001784136	-0.0033135	-0.1849745	0.1906124	

4.956e+10	-0.2918304	-0.008355461	-0.003617108	0.0002313722	-0.1164819	-0.03532329	0.004410655	-0.000242208	
-0.003617108	0.0002313722	-0.2974082	-0.002647354	0.003191674	0.003194349	-0.1134903	-0.0241438	
-0.1164819	-0.03532329	0.003191674	0.003194349	-0.2058436	0.2231487	-0.002172806	-0.003039425	
0.004410655	-0.000242208	-0.1134903	-0.0241438	-0.002172806	-0.003039425	-0.1967463	0.2048787	

4.958e+10	-0.2996477	-0.005596579	-0.00346896	0.0009966744	-0.1095226	-0.04129778	0.004186023	-0.001074788	
-0.00346896	0.0009966744	-0.3041085	0.0009553882	0.00376813	0.002512936	-0.1036677	-0.03053074	
-0.1095226	-0.04129778	0.00376813	0.002512936	-0.2096007	0.2416286	-0.002584524	-0.002767687	
0.004186023	-0.001074788	-0.1036677	-0.03053074	-0.002584524	-0.002767687	-0.204711	0.2211452	

4.96e+10	-0.3064055	-0.00165783	-0.003142279	0.001691235	-0.1045831	-0.04825774	0.00381552	-0.001814273	
-0.003142279	0.001691235	-0.3096309	0.005512743	0.004195649	0.001718366	-0.09595248	-0.03882577	
-0.1045831	-0.04825774	0.004195649	0.001718366	-0.208808	0.2597976	-0.003042785	-0.002438602	
0.00381552	-0.001814273	-0.09595248	-0.03882577	-0.003042785	-0.002438602	-0.2086967	0.2382245	

4.962e+10	-0.3119435	0.003212333	-0.002668583	0.002271142	-0.101592	-0.05559695	0.003326501	-0.002446867	
-0.002668583	0.002271142	-0.3138163	0.01073936	0.004445676	0.000841948	-0.09068189	-0.04837895	
-0.101592	-0.05559695	0.004445676	0.000841948	-0.2039834	0.2764742	-0.003522838	-0.001984207	
0.003326501	-0.002446867	-0.09068189	-0.04837895	-0.003522838	-0.001984207	-0.208851	0.2551661	

4.964e+10	-0.3161728	0.008610607	-0.002091528	0.002705145	-0.1003745	-0.06289161	0.002741719	-0.002957576	
-0.002091528	0.002705145	-0.3166598	0.01631835	0.004496738	-7.111534e-05	-0.0879342	-0.05848973	
-0.1003745	-0.06289161	0.004496738	-7.111534e-05	-0.1959511	0.2908378	-0.003954567	-0.001368619	
0.002741719	-0.002957576	-0.0879342	-0.05848973	-0.003954567	-0.001368619	-0.2056796	0.2710711	

4.966e+10	-0.3190987	0.01432277	-0.001457499	0.002979072	-0.1006724	-0.06986498	0.002085629	-0.003331749	
-0.001457499	0.002979072	-0.31822	0.02186146	0.004340833	-0.000967746	-0.08760639	-0.06856882	
-0.1006724	-0.06986498	0.004340833	-0.000967746	-0.1857672	0.3024332	-0.004255759	-0.0006003805	
0.002085629	-0.003331749	-0.08760639	-0.06856882	-0.004255759	-0.0006003805	-0.1997459	0.2854787	

4.968e+10	-0.3207863	0.02001354	-0.0008140843	0.003094302	-0.1022267	-0.07636406	0.001389798	-0.003557674	
-0.0008140843	0.003094302	-0.3186303	0.02709218	0.003989509	-0.001791283	-0.08946593	-0.07810112	
-0.1022267	-0.07636406	0.003989509	-0.001791283	-0.1744243	0.3112021	-0.004358209	0.000267323	
0.001389798	-0.003557674	-0.08946593	-0.07810112	-0.004358209	0.000267323	-0.1916369	0.2980472	

4.97e+10	-0.3213231	0.02545797	-0.0002023687	0.003066229	-0.104841	-0.0823241	0.0006908812	-0.003633093	
-0.0002023687	0.003066229	-0.3180584	0.03185858	0.003474297	-0.002492676	-0.0931546	-0.08674656	
-0.104841	-0.0823241	0.003474297	-0.002492676	-0.1626272	0.3173915	-0.004230777	0.001154236	
0.0006908812	-0.003633093	-0.0931546	-0.08674656	-0.004230777	0.001154236	-0.1819384	0.3086238	

4.972e+10	-0.3208637	0.03050006	0.0003466931	0.002920897	-0.1084337	-0.08762005	2.665349e-05	-0.003568	
0.0003466931	0.002920897	-0.3166875	0.03602599	0.002842192	-0.003037551	-0.09836753	-0.09423225	
-0.1084337	-0.08762005	0.002842192	-0.003037551	-0.1508968	0.3213997	-0.003883608	0.00197709	
2.665349e-05	-0.003568	-0.09836753	-0.09423225	-0.003883608	0.00197709	-0.1710639	0.3171695	

4.974e+10	-0.3195295	0.03499417	0.000815682	0.002689112	-0.1128194	-0.09227589	-0.0005735459	-0.003385257	
0.000815682	0.002689112	-0.3146699	0.03958468	0.00214504	-0.003413	-0.1047243	-0.1004621	
-0.1128194	-0.09227589	0.00214504	-0.003413	-0.1395072	0.323621	-0.003359114	0.002672917	
-0.0005735459	-0.003385257	-0.1047243	-0.1004621	-0.003359114	0.002672917	-0.159313	0.3237667	

4.976e+10	-0.3175129	0.03876069	0.001198283	0.002400655	-0.1179478	-0.09616163	-0.001090778	-0.003113031	
0.001198283	0.002400655	-0.3121871	0.04237581	0.001431415	-0.003623839	-0.1119395	-0.105339	
-0.1179478	-0.09616163	0.001431415	-0.003623839	-0.128574	0.3244099	-0.002715421	0.003205316	
-0.001090778	-0.003113031	-0.1119395	-0.105339	-0.002715421	0.003205316	-0.1471752	0.328399	

4.978e+10	-0.3149781	0.04180326	0.001497719	0.002081459	-0.1236836	-0.0992311	-0.001518917	-0.002781268	
0.001497719	0.002081459	-0.3093779	0.04441669	0.0007377344	-0.003688649	-0.1197399	-0.1088786	
-0.1236836	-0.0992311	0.0007377344	-0.003688649	-0.118069	0.32404	-0.002007353	0.003566843	
-0.001518917	-0.002781268	-0.1197399	-0.1088786	-0.002007353	0.003566843	-0.1347113	0.3312561	

4.98e+10	-0.3121117	0.04408666	0.001722478	0.001751277	-0.1299252	-0.1013992	-0.001860571	-0.002415129	
0.001722478	0.001751277	-0.3063674	0.04578692	9.067124e-05	-0.003632168	-0.1279211	-0.1110826	
-0.1299252	-0.1013992	9.067124e-05	-0.003632168	-0.108016	0.3226388	-0.00128417	0.003765762	
-0.001860571	-0.002415129	-0.1279211	-0.1110826	-0.00128417	0.003765762	-0.1222839	0.3323579	

4.982e+10	-0.309019	0.04563196	0.001883986	0.001423659	-0.1364966	-0.1026709	-0.00212369	-0.002034412	
0.001883986	0.001423659	-0.3032618	0.04645975	-0.000495796	-0.003480161	-0.1362516	-0.1120378	
-0.1364966	-0.1026709	-0.000495796	-0.003480161	-0.09835346	0.3202995	-0.0005803352	0.003822396	
-0.00212369	-0.002034412	-0.1362516	-0.1120378	-0.0005803352	0.003822396	-0.1100551	0.3318042	

4.984e+10	-0.3058295	0.04647078	0.001994146	0.001106374	-0.1433246	-0.1029892	-0.002320043	-0.001651818	
0.001994146	0.001106374	-0.3001645	0.04646792	-0.001016738	-0.003256362	-0.1445924	-0.111794	
-0.1433246	-0.1029892	-0.001016738	-0.003256362	-0.08906421	0.3170684	8.289451e-05	0.003759886	
-0.002320043	-0.001651818	-0.1445924	-0.111794	8.289451e-05	0.003759886	-0.09811558	0.3297527	

4.986e+10	-0.3026561	0.04658322	0.002063987	0.0008024749	-0.1502025	-0.1024228	-0.00246098	-0.001275106	
0.002063987	0.0008024749	-0.2971726	0.04579233	-0.001473156	-0.002979395	-0.1527862	-0.1104363	
-0.1502025	-0.1024228	-0.001473156	-0.002979395	-0.08023252	0.3129385	0.0006934569	0.003600732	
-0.00246098	-0.001275106	-0.1527862	-0.1104363	0.0006934569	0.003600732	-0.08674338	0.3262347	

4.988e+10	-0.2995804	0.04605631	0.002102026	0.0005124964	-0.1570748	-0.1009177	-0.002556505	-0.0009063102	
0.002102026	0.0005124964	-0.2943528	0.04451667	-0.001870257	-0.002662095	-0.1607047	-0.1080298	
-0.1570748	-0.1009177	-0.001870257	-0.002662095	-0.07177691	0.3079559	0.001248219	0.003361747	
-0.002556505	-0.0009063102	-0.1607047	-0.1080298	0.001248219	0.003361747	-0.07591783	0.3214056	

4.99e+10	-0.2966607	0.04497164	0.002115147	0.0002344448	-0.1638218	-0.09847297	-0.002614351	-0.0005447379	
0.002115147	0.0002344448	-0.291769	0.04272053	-0.002213141	-0.002313493	-0.1682701	-0.1046167	
-0.1638218	-0.09847297	-0.002213141	-0.002313493	-0.06387437	0.3020603	0.001744403	0.003056901	
-0.002614351	-0.0005447379	-0.1682701	-0.1046167	0.001744403	0.003056901	-0.06586818	0.3152932	

4.992e+10	-0.2939553	0.04325028	0.002108211	-3.49145e-05	-0.1703246	-0.09519118	-0.002639793	-0.0001882965	
0.002108211	-3.49145e-05	-0.2894879	0.04037578	-0.002506913	-0.001937562	-0.175376	-0.1002763	
-0.1703246	-0.09519118	-0.002506913	-0.001937562	-0.05659765	0.295295	0.002183565	0.002694266	
-0.002639793	-0.0001882965	-0.175376	-0.1002763	0.002183565	0.002694266	-0.05670351	0.3080446	

4.994e+10	-0.2915305	0.04107572	0.002083439	-0.0002998124	-0.1764864	-0.09105241	-0.002634861	0.0001662331	
0.002083439	-0.0002998124	-0.2875684	0.03755278	-0.002755511	-0.001535588	-0.1819121	-0.09514179	
-0.1764864	-0.09105241	-0.002755511	-0.001535588	-0.05000577	0.2876762	0.002563358	0.00228026	
-0.002634861	0.0001662331	-0.1819121	-0.09514179	0.002563358	0.00228026	-0.04848514	0.2997541	

4.996e+10	-0.2894586	0.03836496	0.002040858	-0.0005652896	-0.1821847	-0.08615723	-0.002599182	0.000523615	
0.002040858	-0.0005652896	-0.2860793	0.03431546	-0.002959532	-0.001104169	-0.1877903	-0.08924975	
-0.1821847	-0.08615723	-0.002959532	-0.001104169	-0.04424352	0.2792164	0.002882494	0.001815906	
-0.002599182	0.000523615	-0.1877903	-0.08924975	0.002882494	0.001815906	-0.04136268	0.2905203	

4.998e+10	-0.2877614	0.0352307	0.001977528	-0.0008355439	-0.1873183	-0.08051702	-0.002529077	0.0008866614	
0.001977528	-0.0008355439	-0.2850645	0.03076657	-0.003115567	-0.0006423681	-0.1929409	-0.08265473	
-0.1873183	-0.08051702	-0.003115567	-0.0006423681	-0.03944885	0.2699832	0.003134019	0.001304053	
-0.002529077	0.0008866614	-0.1929409	-0.08265473	0.003134019	0.001304053	-0.03544764	0.2804789	

5e+10	-0.2865678	0.03173863	0.001888319	-0.001113549	-0.1917433	-0.07425686	-0.002417497	0.001256861	
0.001888319	-0.001113549	-0.2846312	0.02690557	-0.003216834	-0.0001472008	-0.197225	-0.07554964	
-0.1917433	-0.07425686	-0.003216834	-0.0001472008	-0.03589816	0.2601045	0.003307711	0.0007487619	
-0.002417497	0.001256861	-0.197225	-0.07554964	0.003307711	0.0007487619	-0.03097091	0.2698183	

