!
#	Hz	S	RI	R	50
0	0.056222	7.916307e-20	0.95207	1.292734e-20	0.046999	1.143234e-20	-0.0026828	3.285482e-19	
0.95207	1.292734e-20	0.054853	2.44559e-19	-0.0036121	4.423547e-19	0.047205	-6.238934e-22	
0.046999	1.143234e-20	-0.0036121	4.423547e-19	0.056387	4.051011e-20	0.95179	6.806713e-21	
-0.0026828	3.285482e-19	0.047205	-6.238934e-22	0.95179	6.806713e-21	0.055576	1.31365e-19	

2e+07	0.07127041	0.005725267	0.7426238	-0.5730545	0.0593784	0.07312767	-0.002380278	0.006376519	
0.7426238	-0.5730545	0.07082289	0.009020235	-0.002380183	0.006383065	0.05954099	0.07256382	
0.0593784	0.07312767	-0.002379034	0.006383387	0.0712642	0.005740165	0.7430833	-0.5725405	
-0.002380243	0.006376425	0.05954099	0.07256382	0.7430833	-0.5725405	0.07077408	0.009102278	

4e+07	0.0815858	-0.02933088	0.2527064	-0.8818147	0.142645	0.04528255	0.008600754	0.008177802	
0.2527064	-0.8818147	0.08374698	-0.01988339	0.008620843	0.008188599	0.1418526	0.04400027	
0.142645	0.04528255	0.008620843	0.008188599	0.08175942	-0.02932081	0.25401	-0.8814817	
0.00860104	0.008177502	0.1418526	0.04400027	0.25401	-0.8814817	0.08388306	-0.01960665	

6e+07	0.0499793	-0.06099975	-0.3065307	-0.8514218	0.1420361	-0.03969996	0.01558453	-0.006144253	
-0.3065307	-0.8514218	0.06158194	-0.04888629	0.01561998	-0.006174297	0.1400132	-0.040164	
0.1420361	-0.03969996	0.01561998	-0.006174297	0.05036944	-0.06136005	-0.3046116	-0.8521528	
0.01558453	-0.006144253	0.1400132	-0.040164	-0.3046116	-0.8521528	0.0621845	-0.04869056	

8e+07	0.004692362	-0.05105683	-0.7430845	-0.506328	0.06338736	-0.06446292	0.002528991	-0.01853426	
-0.7430845	-0.506328	0.0256868	-0.04602523	0.002506919	-0.0185978	0.06161981	-0.06312874	
0.06338736	-0.06446292	0.002506919	-0.0185978	0.004849095	-0.05199538	-0.7416284	-0.5085645	
0.002528991	-0.01853426	0.06161981	-0.06312874	-0.7416284	-0.5085645	0.02655695	-0.04643868	

1e+08	-0.00731973	-0.01063436	-0.8903388	0.030469	0.01834454	0.001698414	-0.01188848	-0.01195507	
-0.8903388	0.030469	0.01340214	-0.01749698	-0.01196768	-0.01195515	0.01848516	0.004546208	
0.01834454	0.001698414	-0.01196768	-0.01195515	-0.007921829	-0.01170049	-0.8905345	0.02720829	
-0.01188848	-0.01195507	0.01848516	0.004546208	-0.8905345	0.02720829	0.01387511	-0.01853241	

1.2e+08	0.02036683	0.0054329	-0.6917877	0.5379605	0.07725572	0.04945651	-0.01487655	-0.002735726	
-0.6917877	0.5379605	0.03637337	-0.001540967	-0.01489958	-0.002664753	0.08570764	0.07110028	
0.07725572	0.04945651	-0.01489958	-0.002664753	0.01928889	0.00512841	-0.6943168	0.534889	
-0.01487655	-0.002735726	0.08570764	0.07110028	-0.6943168	0.534889	0.03613003	-0.002449922	

1.4e+08	0.03262474	-0.007664681	-0.2451143	0.8285538	0.1225732	0.0246639	-0.01411944	0.005730441	
-0.2451143	0.8285538	0.04778801	-0.02129259	-0.01407421	0.005775123	0.1524319	0.01857938	
0.1225732	0.0246639	-0.01407421	0.005775123	0.03193037	-0.007348231	-0.249478	0.8273548	
-0.01411944	0.005730441	0.1524319	0.01857938	-0.249478	0.8273548	0.04755998	-0.02170341	

1.6e+08	0.0320456	-0.02936026	0.2740852	0.8076606	0.1375767	-0.03627999	-0.01199908	0.01436092	
0.2740852	0.8076606	0.04017463	-0.02600008	-0.01198124	0.01434975	0.1375907	-0.03957828	
0.1375767	-0.03627999	-0.01198124	0.01434975	0.03221687	-0.02910813	0.2693444	0.8093488	
-0.01199908	0.01436092	0.1375907	-0.03957828	0.2693444	0.8093488	0.04033184	-0.02609583	

1.8e+08	0.002769377	-0.02811293	0.6899974	0.4973489	0.06929194	-0.06105039	0.002051674	0.02112963	
0.6899974	0.4973489	0.0250464	-0.02472154	0.002060833	0.02115486	0.06628335	-0.0613812	
0.06929194	-0.06105039	0.002060833	0.02115486	0.002968176	-0.02866373	0.6867644	0.5019732	
0.002051674	0.02112963	0.06628335	-0.0613812	0.6867644	0.5019732	0.02557988	-0.0250733	

2e+08	-0.009267297	0.002264265	0.8464487	-0.00149255	0.02389413	-0.003891834	0.01551901	0.01293684	
0.8464487	-0.00149255	0.02302899	-0.01041106	0.015603	0.01293593	0.0225459	-0.001311359	
0.02389413	-0.003891834	0.015603	0.01293593	-0.009980743	0.00155402	0.8465367	0.004743073	
0.01551901	0.01293684	0.0225459	-0.001311359	0.8465367	0.004743073	0.02359341	-0.01107859	

2.2e+08	0.01238634	0.02615977	0.6766201	-0.4907278	0.06345186	0.05597972	0.01751573	0.001287658	
0.6766201	-0.4907278	0.0370649	-0.007020908	0.01755817	0.001153162	0.06596635	0.05869544	
0.06345186	0.05597972	0.01755817	0.001153162	0.01115547	0.02652355	0.6806612	-0.4853138	
0.01751573	0.001287658	0.06596635	0.05869544	0.6806612	-0.4853138	0.03763685	-0.007821624	

2.4e+08	0.03904786	0.01848453	0.2637789	-0.780512	0.129643	0.03711087	0.01634327	-0.006927882	
0.2637789	-0.780512	0.04380982	-0.0220101	0.01619021	-0.007036009	0.1384534	0.03802465	
0.129643	0.03711087	0.01619021	-0.007036009	0.03869906	0.01999204	0.2706774	-0.7782418	
0.01634327	-0.006927882	0.1384534	0.03802465	0.2706774	-0.7782418	0.04453871	-0.02307878	

2.6e+08	0.03492723	-0.004729609	-0.2306173	-0.7866108	0.1204479	-0.03357528	0.01151752	-0.01922381	
-0.2306173	-0.7866108	0.03711405	-0.03732843	0.01134089	-0.01908582	0.1603288	-0.03885576	
0.1204479	-0.03357528	0.01134089	-0.01908582	0.03608824	-0.003431299	-0.2230858	-0.7888941	
0.01151752	-0.01922381	0.1603288	-0.03885576	-0.2230858	-0.7888941	0.03778464	-0.03893629	

2.8e+08	0.02293439	-0.00759415	-0.6419227	-0.5047806	0.07407084	-0.05231902	-0.004044584	-0.02268323	
-0.6419227	-0.5047806	0.009092555	-0.0283149	-0.003989755	-0.02246649	0.07628379	-0.07137762	
0.07407084	-0.05231902	-0.003989755	-0.02246649	0.02478355	-0.0073624	-0.6367844	-0.511439	
-0.004044584	-0.02268323	0.07628379	-0.07137762	-0.6367844	-0.511439	0.008831408	-0.03039395	

3e+08	0.01289067	0.00825439	-0.8125682	-0.03519332	0.03117389	-0.01010255	-0.01753279	-0.01376229	
-0.8125682	-0.03519332	0.01145128	0.0003287043	-0.01735504	-0.01374064	0.02441633	-0.01206147	
0.03117389	-0.01010255	-0.01735504	-0.01374064	0.01413025	0.007539781	-0.8122919	-0.04413435	
-0.01753279	-0.01376229	0.02441633	-0.01206147	-0.8122919	-0.04413435	0.0103198	-0.0007769275	

3.2e+08	0.03048658	0.02783027	-0.6727349	0.4417362	0.06176045	0.04811903	-0.01898942	-0.0006034016	
-0.6727349	0.4417362	0.03842524	0.007770223	-0.01893252	-0.0006876064	0.05790736	0.05204128	
0.06176045	0.04811903	-0.01893252	-0.0006876064	0.03104291	0.02772146	-0.6779722	0.4339148	
-0.01898942	-0.0006034016	0.05790736	0.05204128	-0.6779722	0.4339148	0.03793819	0.008113161	

3.4e+08	0.0581974	0.0210373	-0.2888505	0.7393378	0.1263353	0.0384607	-0.0165371	0.006876957	
-0.2888505	0.7393378	0.05653943	-0.01628506	-0.01650598	0.006860637	0.1279088	0.04229437	
0.1263353	0.0384607	-0.01650598	0.006860637	0.05963029	0.02197631	-0.2980161	0.7357666	
-0.0165371	0.006876957	0.1279088	0.04229437	-0.2980161	0.7357666	0.05806609	-0.01587855	

3.6e+08	0.06690501	-0.004527106	0.1862379	0.7647907	0.1392137	-0.02413322	-0.01331421	0.01666052	
0.1862379	0.7647907	0.04178312	-0.04461294	-0.0132115	0.01655569	0.1443021	-0.02528131	
0.1392137	-0.02413322	-0.0132115	0.01655569	0.07025167	-0.003974418	0.176142	0.7671686	
-0.01331421	0.01666052	0.1443021	-0.02528131	0.176142	0.7671686	0.04459821	-0.04632498	

3.8e+08	0.05153495	-0.02058747	0.5924024	0.5177513	0.08310243	-0.05355997	0.0009186595	0.02518525	
0.5924024	0.5177513	0.008758075	-0.04486822	0.0008190672	0.02491354	0.09347817	-0.06556603	
0.08310243	-0.05355997	0.0008190672	0.02491354	0.0558752	-0.0221	0.5850847	0.5260365	
0.0009186595	0.02518525	0.09347817	-0.06556603	0.5850847	0.5260365	0.01015675	-0.04914442	

4e+08	0.03894042	-0.008674962	0.7829844	0.07512388	0.04524365	-0.007407309	0.01878798	0.01725164	
0.7829844	0.07512388	-0.004876678	-0.01694002	0.01839818	0.01725711	0.03801656	-0.039552	
0.04524365	-0.007407309	0.01839818	0.01725711	0.04217672	-0.01199048	0.7819073	0.08670601	
0.01878798	0.01725164	0.03801656	-0.039552	0.7819073	0.08670601	-0.006671842	-0.02114751	

4.2e+08	0.04491345	0.001544632	0.6732855	-0.3922234	0.0610161	0.03851467	0.02233009	0.001703898	
0.6732855	-0.3922234	0.01728236	0.01558843	0.02213023	0.00208257	0.05006305	0.0358218	
0.0610161	0.03851467	0.02213023	0.00208257	0.04672853	-0.00194527	0.6794049	-0.3818725	
0.02233009	0.001703898	0.05006305	0.0358218	0.6794049	-0.3818725	0.01381587	0.0147227	

4.4e+08	0.06478276	-0.003514179	0.3177114	-0.7005858	0.1185619	0.03618239	0.01834073	-0.007996101	
0.3177114	-0.7005858	0.05418039	0.00480459	0.01858051	-0.007676932	0.1147537	0.04243957	
0.1185619	0.03618239	0.01858051	-0.007676932	0.06655713	-0.006010795	0.3289463	-0.6955142	
0.01834073	-0.007996101	0.1147537	0.04243957	0.3289463	-0.6955142	0.05337038	0.007049942	

4.6e+08	0.07194431	-0.02830481	-0.1406553	-0.7494147	0.1373285	-0.02049889	0.01452352	-0.01687859	
-0.1406553	-0.7494147	0.05920567	-0.03335115	0.01482972	-0.01692792	0.1399651	-0.01445954	
0.1373285	-0.02049889	0.01482972	-0.01692792	0.07520965	-0.03109443	-0.1280581	-0.751619	
0.01452352	-0.01687859	0.1399651	-0.01445954	-0.1280581	-0.751619	0.06271213	-0.03213701	

4.8e+08	0.05499946	-0.04919074	-0.5449425	-0.5316015	0.09094088	-0.05823742	0.002101186	-0.02679976	
-0.5449425	-0.5316015	0.02706847	-0.05531959	0.002188872	-0.02694624	0.0968478	-0.05700674	
0.09094088	-0.05823742	0.002188872	-0.02694624	0.05890738	-0.05430299	-0.5353959	-0.5410321	
0.002101186	-0.02679976	0.0968478	-0.05700674	-0.5353959	-0.5410321	0.03186998	-0.0587926	

5e+08	0.03125274	-0.04580964	-0.7523272	-0.1167353	0.04010207	-0.02690077	-0.01831258	-0.02284149	
-0.7523272	-0.1167353	-0.006789661	-0.03576218	-0.01821861	-0.02292035	0.04475113	-0.03158366	
0.04010207	-0.02690077	-0.01821861	-0.02292035	0.03334688	-0.05326682	-0.7499964	-0.1307604	
-0.01831258	-0.02284149	0.04475113	-0.03158366	-0.7499964	-0.1307604	-0.005791107	-0.04285448	

5.2e+08	0.02989176	-0.02769558	-0.6754851	0.3413601	0.0607728	0.03432621	-0.02739408	-0.00446141	
-0.6754851	0.3413601	-0.0007421986	0.0008817015	-0.02728942	-0.00479222	0.06113587	0.01998346	
0.0607728	0.03432621	-0.02728942	-0.00479222	0.02903851	-0.03510278	-0.6821243	0.3282843	
-0.02739408	-0.00446141	0.06113587	0.01998346	-0.6821243	0.3282843	-0.004901515	-0.004284911	

5.4e+08	0.04401921	-0.02922969	-0.3488722	0.663659	0.1137244	0.02719158	-0.02274956	0.01105641	
-0.3488722	0.663659	0.03149553	0.0081981	-0.02310978	0.0107174	0.1032861	0.02274105	
0.1137244	0.02719158	-0.02310978	0.0107174	0.0422435	-0.03478325	-0.3622229	0.6567074	
-0.02274956	0.01105641	0.1032861	0.02274105	-0.3622229	0.6567074	0.02691066	0.008452893	

5.6e+08	0.04903756	-0.0419472	0.09536985	0.7360169	0.1335217	-0.01327499	-0.01441916	0.01997796	
0.09536985	0.7360169	0.05642022	-0.01446106	-0.01497858	0.02012461	0.1315044	-0.0135435	
0.1335217	-0.01327499	-0.01497858	0.02012461	0.04805919	-0.04671757	0.08025916	0.7379584	
-0.01441916	0.01997796	0.1315044	-0.0135435	0.08025916	0.7379584	0.05650877	-0.01110707	

5.8e+08	0.0336386	-0.05843321	0.4996304	0.5462453	0.09542442	-0.05182633	-0.001482552	0.02795271	
0.4996304	0.5462453	0.04263417	-0.04583489	-0.001601311	0.02855213	0.09672937	-0.05157493	
0.09542442	-0.05182633	-0.001601311	0.02855213	0.03318322	-0.06464802	0.487851	0.5567774	
-0.001482552	0.02795271	0.09672937	-0.05157493	0.487851	0.5567774	0.04782684	-0.04533365	

6e+08	0.00836287	-0.05340417	0.7238009	0.1558038	0.04425991	-0.02859578	0.01879586	0.02467578	
0.7238009	0.1558038	0.008770347	-0.04586703	0.01924074	0.02500266	0.04830718	-0.03041006	
0.04425991	-0.02859578	0.01924074	0.02500266	0.005849396	-0.06133169	0.7201331	0.1719186	
0.01879586	0.02467578	0.04830718	-0.03041006	0.7201331	0.1719186	0.01386003	-0.05140322	

6.2e+08	0.0008864867	-0.02986885	0.6757287	-0.2937591	0.04939457	0.02866183	0.03022573	0.005588368	
0.6757287	-0.2937591	-0.002982403	-0.01593633	0.03058261	0.005418961	0.05444638	0.02247565	
0.04939457	0.02866183	0.03058261	0.005418961	-0.004970774	-0.0368664	0.6825317	-0.2780637	
0.03022573	0.005588368	0.05444638	0.02247565	0.6825317	-0.2780637	-0.003317585	-0.02415625	

6.4e+08	0.01647194	-0.01683645	0.3765357	-0.624486	0.1059236	0.04211786	0.02498758	-0.01280386	
0.3765357	-0.624486	0.01972131	0.003502958	0.02506835	-0.01296812	0.1093159	0.03097655	
0.1059236	0.04211786	0.02506835	-0.01296812	0.009269865	-0.02056204	0.3915143	-0.6156208	
0.02498758	-0.01280386	0.1093159	0.03097655	0.3915143	-0.6156208	0.01474517	-0.00118857	

6.6e+08	0.02965707	-0.02993582	-0.04861239	-0.7219853	0.1379698	-0.01127773	0.01491374	-0.02321182	
-0.04861239	-0.7219853	0.04636487	-0.01330455	0.01511111	-0.02335822	0.1404648	-0.02549639	
0.1379698	-0.01127773	0.01511111	-0.02335822	0.02401726	-0.03119943	-0.03106284	-0.7233333	
0.01491374	-0.02321182	0.1404648	-0.02549639	-0.03106284	-0.7233333	0.04239208	-0.01251205	

6.8e+08	0.01903927	-0.04068885	-0.4554074	-0.5609786	0.1018712	-0.04576776	-0.001236135	-0.02910476	
-0.4554074	-0.5609786	0.03787418	-0.03959985	-0.001224076	-0.02957568	0.09251811	-0.06432092	
0.1018712	-0.04576776	-0.001224076	-0.02957568	0.014875	-0.04232945	-0.441437	-0.5723906	
-0.001236135	-0.02910476	0.09251811	-0.06432092	-0.441437	-0.5723906	0.03891555	-0.03733953	

7e+08	0.003891225	-0.03743732	-0.6946523	-0.1936891	0.05954154	-0.03039948	-0.01929294	-0.02393563	
-0.6946523	-0.1936891	0.01503595	-0.0431313	-0.01985284	-0.02429001	0.04293205	-0.03738345	
0.05954154	-0.03039948	-0.01985284	-0.02429001	-0.0009637604	-0.04006441	-0.6896652	-0.2115101	
-0.01929294	-0.02393563	0.04293205	-0.03738345	-0.6896652	-0.2115101	0.01987298	-0.04430622	

7.2e+08	-0.0007022868	-0.01564024	-0.6744566	0.2461489	0.05947359	0.02151623	-0.03015776	-0.005431671	
-0.6744566	0.2461489	0.001617433	-0.02101084	-0.03081775	-0.005007947	0.04536885	0.02260624	
0.05947359	0.02151623	-0.03081775	-0.005007947	-0.007852641	-0.01697133	-0.6810444	0.2281386	
-0.03015776	-0.005431671	0.04536885	0.02260624	-0.6810444	0.2281386	0.005251759	-0.02695516	

7.4e+08	0.01806069	-0.0009565407	-0.4022216	0.5856739	0.1112094	0.0401936	-0.02471911	0.01303842	
-0.4022216	0.5856739	0.01835764	-0.002043244	-0.02460543	0.01380793	0.103675	0.04154684	
0.1112094	0.0401936	-0.02460543	0.01380793	0.0106025	0.001477839	-0.4182285	0.5747979	
-0.02471911	0.01303842	0.103675	0.04154684	-0.4182285	0.5747979	0.01769837	-0.009111349	

7.6e+08	0.03877762	-0.01015793	0.00718008	0.7032033	0.1489236	-0.001378789	-0.01329542	0.0221711	
0.00718008	0.7032033	0.04178118	-0.01193717	-0.0126778	0.02237148	0.1435719	-0.007351423	
0.1489236	-0.001378789	-0.0126778	0.02237148	0.03420653	-0.004787995	-0.01244072	0.70358	
-0.01329542	0.0221711	0.1435719	-0.007351423	-0.01244072	0.70358	0.03845372	-0.0162878	

7.8e+08	0.03949817	-0.02999595	0.4067163	0.5712069	0.1242097	-0.05214153	-0.0005401259	0.02743168	
0.4067163	0.5712069	0.04160404	-0.03910024	-0.0002338065	0.02717199	0.1155755	-0.06725576	
0.1242097	-0.05214153	-0.0002338065	0.02717199	0.03853891	-0.02479096	0.3905116	0.582899	
-0.0005401259	0.02743168	0.1155755	-0.06725576	0.3905116	0.582899	0.03905619	-0.04026909	

8e+08	0.02133782	-0.03491858	0.6642201	0.2326326	0.0709713	-0.04361916	0.01849785	0.02524543	
0.6642201	0.2326326	0.01484192	-0.05370383	0.01860468	0.0251382	0.04552796	-0.06746749	
0.0709713	-0.04361916	0.01860468	0.0251382	0.02149293	-0.03180108	0.6574435	0.2520135	
0.01849785	0.02524543	0.04552796	-0.06746749	0.6574435	0.2520135	0.0151608	-0.05393988	

8.2e+08	0.01843235	-0.02175931	0.6725074	-0.1974706	0.06833179	-0.0001703892	0.02992398	0.006682223	
0.6725074	-0.1974706	-0.007261252	-0.02771766	0.03018541	0.006417208	0.02549451	0.004403438	
0.06833179	-0.0001703892	0.03018541	0.006417208	0.0176797	-0.01859603	0.6784067	-0.1773693	
0.02992398	0.006682223	0.02549451	0.004403438	0.6784067	-0.1773693	-0.005012658	-0.02941799	

8.4e+08	0.0322621	-0.01367584	0.4285114	-0.5457158	0.1107785	0.01709656	0.02532877	-0.01183415	
0.4285114	-0.5457158	0.00873929	0.0001728994	0.02521493	-0.01249267	0.08152549	0.047369	
0.1107785	0.01709656	0.02521493	-0.01249267	0.03193254	-0.008213737	0.4451786	-0.5325976	
0.02532877	-0.01183415	0.08152549	0.047369	0.4451786	-0.5325976	0.01136639	-0.003724334	

8.6e+08	0.05090786	-0.02555502	0.03590665	-0.6851398	0.1475601	-0.01978047	0.01386709	-0.02096599	
0.03590665	-0.6851398	0.0398821	-0.002258525	0.01303325	-0.02123421	0.1389836	0.01499366	
0.1475601	-0.01978047	0.01303325	-0.02123421	0.05415812	-0.01830202	0.05728821	-0.6839449	
0.01386709	-0.02096599	0.1389836	0.01499366	0.05728821	-0.6839449	0.04131588	-0.007855272	

8.8e+08	0.05144715	-0.05050052	-0.3602351	-0.5791924	0.1292725	-0.07150363	0.002762342	-0.02559839	
-0.3602351	-0.5791924	0.05154287	-0.03210508	0.00210419	-0.02491731	0.1325784	-0.04884504	
0.1292725	-0.07150363	0.00210419	-0.02491731	0.05917786	-0.04478834	-0.3415374	-0.5906075	
0.002762342	-0.02559839	0.1325784	-0.04884504	-0.3415374	-0.5906075	0.050911	-0.03821533	

9e+08	0.03202576	-0.06532941	-0.6277222	-0.2678757	0.0760215	-0.07773638	-0.01335682	-0.02622554	
-0.6277222	-0.2678757	0.02951791	-0.05737405	-0.01305851	-0.02542002	0.07390262	-0.06979345	
0.0760215	-0.07773638	-0.01305851	-0.02542002	0.04176957	-0.06360503	-0.6187232	-0.2883839	
-0.01335682	-0.02622554	0.07390262	-0.06979345	-0.6187232	-0.2883839	0.02681697	-0.06214587	

9.2e+08	0.01370876	-0.05712307	-0.6683186	0.1451062	0.05163486	-0.0311592	-0.03010215	-0.01265996	
-0.6683186	0.1451062	-0.004107201	-0.0500317	-0.02948439	-0.01263093	0.03377482	-0.03150104	
0.05163486	-0.0311592	-0.02948439	-0.01263093	0.02228465	-0.05833329	-0.672974	0.1225428	
-0.03010215	-0.01265996	0.03377482	-0.03150104	-0.672974	0.1225428	-0.006926908	-0.05178376	

9.4e+08	0.01870535	-0.04452655	-0.4563506	0.5054078	0.09090378	-0.005630783	-0.02999228	0.01067977	
-0.4563506	0.5054078	-0.01331276	-0.01668855	-0.02986258	0.01053385	0.04884706	0.02351165	
0.09090378	-0.005630783	-0.02986258	0.01053385	0.02625076	-0.04523943	-0.4734668	0.4896047	
-0.02999228	0.01067977	0.04884706	0.02351165	-0.4734668	0.4896047	-0.01306977	-0.01663857	

9.6e+08	0.02726077	-0.05238084	-0.07979312	0.6688673	0.1193636	-0.03446607	-0.01655469	0.02330332	
-0.07979312	0.6688673	0.01644241	0.005692731	-0.01631102	0.02334654	0.1092394	0.02590967	
0.1193636	-0.03446607	-0.01631102	0.02334654	0.03710418	-0.0527665	-0.1030503	0.6657416	
-0.01655469	0.02330332	0.1092394	0.02590967	-0.1030503	0.6657416	0.020307	0.00416141	

9.8e+08	0.02215108	-0.0718782	0.3158629	0.5892054	0.1020304	-0.08072054	-0.002844298	0.02733241	
0.3158629	0.5892054	0.04739336	-0.009329996	-0.002375842	0.0269555	0.1295087	-0.02087286	
0.1020304	-0.08072054	-0.002375842	0.0269555	0.0352819	-0.07496427	0.2946176	0.6000104	
-0.002844298	0.02733241	0.1295087	-0.02087286	0.2946176	0.6000104	0.05191842	-0.0155427	

1e+09	-0.002667012	-0.08315524	0.5954072	0.3008532	0.04816041	-0.0885051	0.01254681	0.02709167	
0.5954072	0.3008532	0.04918992	-0.04236082	0.01237542	0.02624678	0.09736177	-0.05314069	
0.04816041	-0.0885051	0.01237542	0.02624678	0.01115405	-0.09163565	0.5838486	0.3223815	
0.01254681	0.02709167	0.09736177	-0.05314069	0.5838486	0.3223815	0.0495604	-0.05185656	

1.02e+09	-0.02940432	-0.07067411	0.6600009	-0.09774767	0.01578199	-0.04564781	0.02938756	0.01578588	
0.6600009	-0.09774767	0.02206363	-0.06010961	0.02844752	0.01558101	0.05993162	-0.03834556	
0.01578199	-0.04564781	0.02844752	0.01558101	-0.01873138	-0.08352542	0.6631325	-0.07283097	
0.02938756	0.01578588	0.05993162	-0.03834556	0.6631325	-0.07283097	0.0170775	-0.06734134	

1.04e+09	-0.03517848	-0.04626204	0.4803893	-0.4610954	0.03906421	-0.003591903	0.03424901	-0.007501939	
0.4803893	-0.4610954	-0.005502545	-0.04644216	0.03377252	-0.006768032	0.06012314	-0.00539832	
0.03906421	-0.003591903	0.03377252	-0.006768032	-0.02844241	-0.05968436	0.4978189	-0.4423262	
0.03424901	-0.007501939	0.06012314	-0.00539832	0.4978189	-0.4423262	-0.01091321	-0.04738349	

1.06e+09	-0.02254326	-0.03687388	0.124821	-0.6511849	0.08278234	-0.01412051	0.02115029	-0.02741073	
0.124821	-0.6511849	-0.008238631	-0.02005794	0.02159983	-0.02693112	0.08526811	-0.001932175	
0.08278234	-0.01412051	0.02159983	-0.02693112	-0.01669837	-0.0490231	0.1501798	-0.645921	
0.02115029	-0.02741073	0.08526811	-0.001932175	0.1501798	-0.645921	-0.007748782	-0.01754396	

1.08e+09	-0.02403636	-0.04693075	-0.2735648	-0.6002833	0.07027752	-0.05823786	2.726483e-05	-0.03254499	
-0.2735648	-0.6002833	0.01063088	-0.002305471	0.0002153583	-0.03272929	0.09410323	-0.01324662	
0.07027752	-0.05823786	0.0002153583	-0.03272929	-0.01665397	-0.06075165	-0.2494748	-0.6107098	
2.726483e-05	-0.03254499	0.09410323	-0.01324662	-0.2494748	-0.6107098	0.01707871	-0.003893982	

1.1e+09	-0.04185538	-0.04566113	-0.5664705	-0.3312839	0.02382034	-0.0588273	-0.01711623	-0.02642731	
-0.5664705	-0.3312839	0.03737764	-0.01108595	-0.01725883	-0.02631408	0.08893374	-0.02667125	
0.02382034	-0.0588273	-0.01725883	-0.02631408	-0.0358054	-0.06385669	-0.5525085	-0.3540237	
-0.01711623	-0.02642731	0.08893374	-0.02667125	-0.5525085	-0.3540237	0.04316331	-0.01999821	

1.12e+09	-0.06127635	-0.02444679	-0.6513119	0.05652425	-0.006036937	-0.01313732	-0.02969368	-0.01243941	
-0.6513119	0.05652425	0.04442114	-0.03470684	-0.02937428	-0.01209521	0.0788856	-0.01930318	
-0.006036937	-0.01313732	-0.02937428	-0.01209521	-0.06040181	-0.04574785	-0.6531524	0.02931679	
-0.02969368	-0.01243941	0.0788856	-0.01930318	-0.6531524	0.02931679	0.04309443	-0.04656872	

1.14e+09	-0.05938191	0.008959468	-0.496397	0.4205286	0.01757603	0.03634642	-0.03218938	0.007960104	
-0.496397	0.4205286	0.03048693	-0.05388546	-0.03161789	0.007649173	0.08738636	-0.01035724	
0.01757603	0.03634642	-0.03161789	0.007649173	-0.06453804	-0.01105488	-0.5141331	0.39909	
-0.03218938	0.007960104	0.08738636	-0.01035724	-0.5141331	0.39909	0.02327292	-0.0605901	

1.16e+09	-0.03657944	0.02880587	-0.1622822	0.6265963	0.06529054	0.03843604	-0.0208343	0.02629577	
-0.1622822	0.6265963	0.006980209	-0.05542519	-0.02102406	0.02563157	0.09814359	-0.02218602	
0.06529054	0.03843604	-0.02102406	0.02563157	-0.04434023	0.01276462	-0.1893838	0.6194464	
-0.0208343	0.02629577	0.09814359	-0.02218602	-0.1893838	0.6194464	0.001860885	-0.05454427	

1.18e+09	-0.01730211	0.02632993	0.2274583	0.6041823	0.07886931	0.001358121	-0.0002338307	0.03357719	
0.2274583	0.6041823	-0.00990265	-0.03812595	-0.00085688	0.0336891	0.08461138	-0.04198857	
0.07886931	0.001358121	-0.00085688	0.0336891	-0.02432635	0.01225084	0.2009562	0.6140641	
-0.0002338307	0.03357719	0.08461138	-0.04198857	0.2009562	0.6140641	-0.00719142	-0.0357621	

1.2e+09	-0.01848522	0.01976757	0.5350084	0.3613026	0.04321298	-0.01519905	0.02071366	0.026382	
0.5350084	0.3613026	-0.007844463	-0.0141169	0.02086451	0.02694786	0.05390669	-0.03454374	
0.04321298	-0.01519905	0.02086451	0.02694786	-0.0259313	0.004186022	0.5188107	0.3850219	
0.02071366	0.026382	0.05390669	-0.03454374	0.5188107	0.3850219	-0.0001654287	-0.01826225	

1.22e+09	-0.02356025	0.0375874	0.6414495	-0.01792739	0.01947332	0.02760826	0.030294	0.00653098	
0.6414495	-0.01792739	0.01896437	0.002716896	0.0308019	0.006312078	0.05594654	0.005568724	
0.01947332	0.02760826	0.0308019	0.006312078	-0.03572355	0.02136317	0.6422127	0.01117858	
0.030294	0.00653098	0.05594654	0.005568724	0.6422127	0.01117858	0.02272081	-0.008583214	

1.24e+09	-0.007048254	0.0604817	0.5073843	-0.3814536	0.05081855	0.07088585	0.02578746	-0.01050215	
0.5073843	-0.3814536	0.05015288	-0.01626373	0.02558401	-0.01102139	0.09743789	0.01706522	
0.05081855	0.07088585	0.02558401	-0.01102139	-0.02405147	0.04813455	0.5249977	-0.358156	
0.02578746	-0.01050215	0.09743789	0.01706522	0.5249977	-0.358156	0.04633551	-0.02728063	

1.26e+09	0.02634307	0.07049901	0.1942095	-0.5975733	0.1055101	0.07056089	0.01542412	-0.02084374	
0.1942095	-0.5975733	0.0512943	-0.0539491	0.01492699	-0.02071888	0.1283869	-0.01686598	
0.1055101	0.07056089	0.01492699	-0.02071888	0.008246769	0.06459974	0.2221088	-0.5887258	
0.01542412	-0.02084374	0.1283869	-0.01686598	0.2221088	-0.5887258	0.0445933	-0.05833617	

1.28e+09	0.05733574	0.05731173	-0.1816513	-0.5982603	0.1307207	0.0301384	0.002567988	-0.0262517	
-0.1816513	-0.5982603	0.01747119	-0.07734325	0.002627533	-0.02589906	0.108524	-0.06372413	
0.1307207	0.0301384	0.002627533	-0.02589906	0.04214149	0.05586479	-0.1534982	-0.6070644	
0.002567988	-0.0262517	0.108524	-0.06372413	-0.1534982	-0.6070644	0.01524261	-0.07653899	

1.3e+09	0.06865702	0.03536069	-0.4927542	-0.3853974	0.1096788	0.0005152641	-0.01413476	-0.02433477	
-0.4927542	-0.3853974	-0.02421413	-0.0597219	-0.01400502	-0.02449379	0.05202952	-0.06644881	
0.1096788	0.0005152641	-0.01400502	-0.02449379	0.05620031	0.0343816	-0.4745507	-0.4090433	
-0.01413476	-0.02433477	0.05202952	-0.06644881	-0.4745507	-0.4090433	-0.02004926	-0.06058789	

1.32e+09	0.06657953	0.02681611	-0.6252156	-0.02817219	0.08153645	0.01697148	-0.0270475	-0.009313203	
-0.6252156	-0.02817219	-0.03109538	-0.01074344	-0.02751658	-0.009335264	0.02211883	-0.01464736	
0.08153645	0.01697148	-0.02751658	-0.009335264	0.05334569	0.02556928	-0.6240894	-0.05844437	
-0.0270475	-0.009313203	0.02211883	-0.01464736	-0.6240894	-0.05844437	-0.02564715	-0.01786509	

1.34e+09	0.07495698	0.03286169	-0.5201133	0.3393164	0.1025177	0.05504327	-0.0235213	0.009815065	
-0.5201133	0.3393164	0.01088161	0.0203572	-0.0236815	0.01062302	0.06041066	0.03960546	
0.1025177	0.05504327	-0.0236815	0.01062302	0.05946388	0.03496123	-0.5369281	0.3141327	
-0.0235213	0.009815065	0.06041066	0.03960546	-0.5369281	0.3141327	0.01146208	0.009527838	

1.36e+09	0.1021404	0.02609034	-0.2260521	0.5680438	0.1536382	0.04628956	-0.01160108	0.0159441	
-0.2260521	0.5680438	0.06367514	-0.0035853	-0.01074171	0.0164589	0.1299337	0.021982	
0.1536382	0.04628956	-0.01074171	0.0164589	0.08837082	0.03424485	-0.254072	0.5572523	
-0.01160108	0.0159441	0.1299337	0.021982	-0.254072	0.5572523	0.05964011	-0.01151726	

1.38e+09	0.1234677	-0.0007467315	0.1359053	0.5896096	0.1759424	-0.001640424	-0.005782572	0.01749512	
0.1359053	0.5896096	0.06795523	-0.06362698	-0.004933626	0.01694852	0.1434746	-0.04783894	
0.1759424	-0.001640424	-0.004933626	0.01694852	0.1151759	0.0109997	0.1067286	0.5965173	
-0.005782572	0.01749512	0.1434746	-0.04783894	0.1067286	0.5965173	0.06450572	-0.06714386	

1.4e+09	0.1262753	-0.03651913	0.4466514	0.4069205	0.153926	-0.0425544	0.002824258	0.02218193	
0.4466514	0.4069205	0.01705699	-0.0985853	0.002789185	0.02136168	0.0868539	-0.09018838	
0.153926	-0.0425544	0.002789185	0.02136168	0.1236701	-0.02544206	0.426186	0.4293366	
0.002824258	0.02218193	0.0868539	-0.09018838	0.426186	0.4293366	0.01732947	-0.1008621	

1.42e+09	0.1105264	-0.06147019	0.6014297	0.07637713	0.119276	-0.04183531	0.01900928	0.01844187	
0.6014297	0.07637713	-0.04196798	-0.07029033	0.01866343	0.01812912	0.02207886	-0.05703783	
0.119276	-0.04183531	0.01866343	0.01812912	0.1101518	-0.053048	0.5974188	0.1070836	
0.01900928	0.01844187	0.02207886	-0.05703783	0.5974188	0.1070836	-0.03928638	-0.07508407	

1.44e+09	0.09692485	-0.06742476	0.5334972	-0.2870305	0.1180781	-0.01510248	0.02671332	0.0003784033	
0.5334972	-0.2870305	-0.0446901	-0.001662143	0.02654389	7.541728e-05	0.02444023	0.0162276	
0.1180781	-0.01510248	0.02654389	7.541728e-05	0.0961832	-0.05915842	0.5483395	-0.2593746	
0.02671332	0.0003784033	0.02444023	0.0162276	0.5483395	-0.2593746	-0.04312375	-0.009213446	

1.46e+09	0.09992616	-0.07185714	0.2657094	-0.5386157	0.152403	-0.0112819	0.01803873	-0.0142012	
0.2657094	-0.5386157	0.0154199	0.03188624	0.01739483	-0.01464054	0.08887628	0.04129648	
0.152403	-0.0112819	0.01739483	-0.01464054	0.1009386	-0.0608084	0.293764	-0.5247252	
0.01803873	-0.0142012	0.08887628	0.04129648	0.293764	-0.5247252	0.01476806	0.02431212	

1.48e+09	0.1060798	-0.09450372	-0.09056014	-0.5858621	0.1732276	-0.057464	0.008976468	-0.01692716	
-0.09056014	-0.5858621	0.07275369	-0.00469457	0.007832551	-0.01652359	0.1406619	-0.001509032	
0.1732276	-0.057464	0.007832551	-0.01652359	0.1128208	-0.08194502	-0.05977932	-0.5903611	
0.008976468	-0.01692716	0.1406619	-0.001509032	-0.05977932	-0.5903611	0.07143516	-0.01096633	

1.5e+09	0.09205551	-0.1257825	-0.4043819	-0.4282204	0.1426728	-0.09849688	0.003419473	-0.02220121	
-0.4043819	-0.4282204	0.07060481	-0.07455295	0.003112958	-0.02083675	0.1242706	-0.06901765	
0.1426728	-0.09849688	0.003112958	-0.02083675	0.1048148	-0.1165926	-0.381154	-0.4492824	
0.003419473	-0.02220121	0.1242706	-0.06901765	-0.381154	-0.4492824	0.0702321	-0.0801803	

1.52e+09	0.0599284	-0.1455558	-0.5774539	-0.1218992	0.09680657	-0.09998389	-0.01262827	-0.02627481	
-0.5774539	-0.1218992	0.008206001	-0.1073568	-0.01170527	-0.02528615	0.06029382	-0.08229664	
0.09680657	-0.09998389	-0.01170527	-0.02528615	0.07499824	-0.1421145	-0.5699804	-0.1530457	
-0.01262827	-0.02627481	0.06029382	-0.08229664	-0.5699804	-0.1530457	0.008106898	-0.1136813	

1.54e+09	0.02675695	-0.1424794	-0.5445359	0.2340637	0.07844279	-0.07102536	-0.03112111	-0.01211484	
-0.5445359	0.2340637	-0.05111876	-0.06710296	-0.03005556	-0.01218597	0.0219635	-0.03104773	
0.07844279	-0.07102536	-0.03005556	-0.01218597	0.04037965	-0.1429462	-0.5566837	0.2036071	
-0.03112111	-0.01211484	0.0219635	-0.03104773	-0.5566837	0.2036071	-0.05192599	-0.07341919	

1.56e+09	0.01240262	-0.1293266	-0.3072073	0.5060628	0.0973753	-0.05588026	-0.03041207	0.01235525	
-0.3072073	0.5060628	-0.04210831	0.003839567	-0.02983157	0.0119499	0.05161588	0.02289564	
0.0973753	-0.05588026	-0.02983157	0.0119499	0.02513675	-0.1299105	-0.335278	0.4881976	
-0.03041207	0.01235525	0.05161588	0.02289564	-0.335278	0.4881976	-0.04274547	-0.001388139	

1.58e+09	0.009811233	-0.1292481	0.04151559	0.5862017	0.114775	-0.08004435	-0.01510273	0.02508555	
0.04151559	0.5862017	0.0228736	0.0269535	-0.01454986	0.02458288	0.1073492	0.01676226	
0.114775	-0.08004435	-0.01454986	0.02458288	0.02540216	-0.12992	0.008351576	0.5878107	
-0.01510273	0.02508555	0.1073492	0.01676226	0.008351576	0.5878107	0.02400206	0.02179352	

1.6e+09	-0.002881132	-0.1424109	0.3672967	0.453509	0.09334055	-0.1160632	-0.001454231	0.02801028	
0.3672967	0.453509	0.07010492	-0.01755712	-0.001166051	0.02691175	0.1206138	-0.03173922	
0.09334055	-0.1160632	-0.001166051	0.02691175	0.01658225	-0.1471386	0.3407468	0.4736583	
-0.001454231	0.02801028	0.1206138	-0.03173922	0.3407468	0.4736583	0.07222354	-0.02499694	

1.62e+09	-0.03721042	-0.1468386	0.5592002	0.1618807	0.04054599	-0.1149381	0.01421008	0.0285222	
0.5592002	0.1618807	0.05706764	-0.07739901	0.01333752	0.02727344	0.09170046	-0.06028178	
0.04054599	-0.1149381	0.01333752	0.02727344	-0.01739307	-0.1588406	0.5484804	0.1940332	
0.01421008	0.0285222	0.09170046	-0.06028178	0.5484804	0.1940332	0.05695436	-0.08692277	

1.64e+09	-0.0689911	-0.1248226	0.5520803	-0.1881478	0.0173414	-0.07417997	0.03348182	0.01625718	
0.5520803	-0.1881478	-0.0009910926	-0.09723195	0.03185875	0.01624405	0.05440191	-0.05133393	
0.0173414	-0.07417997	0.03185875	0.01624405	-0.05368226	-0.141991	0.5619411	-0.1548266	
0.03348182	0.01625718	0.05440191	-0.05133393	0.5619411	-0.1548266	-0.004106587	-0.1056002	

1.66e+09	-0.07929756	-0.09099663	0.342894	-0.4733416	0.03398434	-0.04215789	0.0382546	-0.01121978	
0.342894	-0.4733416	-0.04277901	-0.05635927	0.03736818	-0.01008831	0.04970846	-0.01640967	
0.03398434	-0.04215789	0.03736818	-0.01008831	-0.06879649	-0.1086153	0.3708844	-0.4516024	
0.0382546	-0.01121978	0.04970846	-0.01640967	0.3708844	-0.4516024	-0.04612348	-0.06096405	

1.68e+09	-0.07013905	-0.07031064	0.005377442	-0.5835152	0.05796908	-0.04879375	0.02062879	-0.03273769	
0.005377442	-0.5835152	-0.02664118	-0.004014832	0.02072629	-0.03168878	0.07674038	-0.0006346358	
0.05796908	-0.04879375	0.02072629	-0.03168878	-0.06051342	-0.08661502	0.04110021	-0.5822111	
0.02062879	-0.03273769	0.07674038	-0.0006346358	0.04110021	-0.5822111	-0.02605973	-0.006691001	

1.7e+09	-0.06620227	-0.06829159	-0.3310734	-0.4774182	0.04860003	-0.07377585	-0.002841739	-0.0358676	
-0.3310734	-0.4774182	0.02264858	0.005341795	-0.002498853	-0.0351533	0.09668142	-0.01705972	
0.04860003	-0.07377585	-0.002498853	-0.0351533	-0.05514068	-0.08665362	-0.3010863	-0.4969569	
-0.002841739	-0.0358676	0.09668142	-0.01705972	-0.3010863	-0.4969569	0.02700688	-0.0005257731	

1.72e+09	-0.07971186	-0.06454939	-0.5435496	-0.1993413	0.01105772	-0.07325412	-0.02125305	-0.02807101	
-0.5435496	-0.1993413	0.05148816	-0.02978784	-0.02057506	-0.02735366	0.08771353	-0.03656552	
0.01105772	-0.07325412	-0.02057506	-0.02735366	-0.07020064	-0.08819109	-0.5299317	-0.2328444	
-0.02125305	-0.02807101	0.08771353	-0.03656552	-0.5299317	-0.2328444	0.0544419	-0.04087911	

1.74e+09	-0.09684539	-0.04146798	-0.5584404	0.1496336	-0.01243632	-0.03282512	-0.03545719	-0.01220197	
-0.5584404	0.1496336	0.03518968	-0.06797777	-0.03409977	-0.01205527	0.07193416	-0.03339988	
-0.01243632	-0.03282512	-0.03409977	-0.01205527	-0.0935081	-0.06876394	-0.566657	0.1137436	
-0.03545719	-0.01220197	0.07193416	-0.03339988	-0.566657	0.1137436	0.03243295	-0.08013339	

1.76e+09	-0.09026643	-0.002899818	-0.3689698	0.4434805	0.01173109	0.009246383	-0.03722843	0.01294246	
-0.3689698	0.4434805	0.001469651	-0.07340329	-0.03613179	0.01181667	0.07425674	-0.02390272	
0.01173109	0.009246383	-0.03613179	0.01181667	-0.09408662	-0.02826314	-0.3970276	0.4186724	
-0.03722843	0.01294246	0.07425674	-0.02390272	-0.3970276	0.4186724	-0.004642281	-0.08034099	

1.78e+09	-0.06166861	0.01661638	-0.04587175	0.5736388	0.0504311	0.00702472	-0.02113156	0.03369966	
-0.04587175	0.5736388	-0.0198418	-0.0517977	-0.02134396	0.0322472	0.08062523	-0.02718823	
0.0504311	0.00702472	-0.02134396	0.0322472	-0.06773796	-0.004000649	-0.08331358	0.569771	
-0.02113156	0.03369966	0.08062523	-0.02718823	-0.08331358	0.569771	-0.02245036	-0.05359048	

1.8e+09	-0.03748063	0.01311819	0.2928705	0.4939766	0.05797061	-0.0195363	0.004070129	0.03849845	
0.2928705	0.4939766	-0.01248876	-0.02625395	0.003135229	0.0378594	0.07806295	-0.03505832	
0.05797061	-0.0195363	0.003135229	0.0378594	-0.04211573	-0.005754161	0.2599786	0.5125789	
0.004070129	0.03849845	0.07806295	-0.03505832	0.2599786	0.5125789	-0.008606303	-0.02909168	

1.82e+09	-0.03326786	0.004853255	0.5232275	0.2335361	0.03351234	-0.02661778	0.02520779	0.02765545	
0.5232275	0.2335361	0.009287834	-0.01969926	0.024442	0.02760141	0.06728381	-0.03266546	
0.03351234	-0.02661778	0.024442	0.02760141	-0.03833242	-0.01628694	0.5069633	0.2678458	
0.02520779	0.02765545	0.06728381	-0.03266546	0.5069633	0.2678458	0.01504991	-0.02914119	

1.84e+09	-0.03731214	0.01259318	0.5600482	-0.111553	0.0174003	0.002317833	0.03592956	0.007797789	
0.5600482	-0.111553	0.02449557	-0.03166272	0.03517532	0.007888405	0.06614503	-0.01813867	
0.0174003	0.002317833	0.03517532	0.007888405	-0.04732902	-0.00984445	0.5665879	-0.07376893	
0.03592956	0.007797789	0.06614503	-0.01813867	0.5665879	-0.07376893	0.02497607	-0.04570491	

1.86e+09	-0.02673041	0.03254213	0.3911139	-0.4125661	0.03793011	0.03624173	0.03361895	-0.01450853	
0.3911139	-0.4125661	0.02405044	-0.04807581	0.03279125	-0.01386236	0.08031275	-0.01089225	
0.03793011	0.03624173	0.03279125	-0.01386236	-0.04239862	0.01387439	0.4186062	-0.3852924	
0.03361895	-0.01450853	0.08031275	-0.01089225	0.4186062	-0.3852924	0.01819782	-0.05928176	

1.88e+09	0.003265402	0.04120582	0.08123211	-0.559423	0.0822899	0.03539196	0.0184384	-0.03131719	
0.08123211	-0.559423	0.01265831	-0.05678831	0.01834423	-0.03005267	0.09734676	-0.024035	
0.0822899	0.03539196	0.01834423	-0.03005267	-0.01366376	0.02938232	0.119611	-0.5531762	
0.0184384	-0.03131719	0.09734676	-0.024035	0.119611	-0.5531762	0.006632117	-0.06111922	

1.9e+09	0.03060172	0.0227957	-0.253547	-0.5023734	0.09744649	-0.0005418854	-0.002760223	-0.03543566	
-0.253547	-0.5023734	0.0006683139	-0.0573201	-0.00187283	-0.03461437	0.08812614	-0.04946622	
0.09744649	-0.0005418854	-0.00187283	-0.03461437	0.0175522	0.0150069	-0.2185386	-0.5193752	
-0.002760223	-0.03543566	0.08812614	-0.04946622	-0.2185386	-0.5193752	0.00111566	-0.0586914	

1.92e+09	0.0332589	-0.002113687	-0.4956254	-0.2649729	0.07507534	-0.02126541	-0.02258066	-0.02781524	
-0.4956254	-0.2649729	-0.009476846	-0.0482593	-0.02165631	-0.02787894	0.05936419	-0.05040865	
0.07507534	-0.02126541	-0.02165631	-0.02787894	0.02284493	-0.01102007	-0.4765725	-0.2990693	
-0.02258066	-0.02781524	0.05936419	-0.05040865	-0.4765725	-0.2990693	-0.003851933	-0.05426847	

1.94e+09	0.02215087	-0.0111325	-0.5568711	0.07005296	0.05453404	-0.005331158	-0.03506175	-0.009145973	
-0.5568711	0.07005296	-0.007385392	-0.03359069	-0.03456933	-0.009470069	0.04846401	-0.02277341	
0.05453404	-0.005331158	-0.03456933	-0.009470069	0.009791523	-0.02145973	-0.5609466	0.03077256	
-0.03506175	-0.009145973	0.04846401	-0.02277341	-0.5609466	0.03077256	-0.00361649	-0.04614751	

1.96e+09	0.0202917	-0.003619617	-0.4117192	0.3776679	0.06783378	0.02096952	-0.03301421	0.01360074	
-0.4117192	0.3776679	0.00735305	-0.02662428	-0.03255825	0.01326027	0.07105709	-0.001406176	
0.06783378	0.02096952	-0.03255825	0.01326027	0.004446385	-0.01091186	-0.4379244	0.3478419	
-0.03301421	0.01360074	0.07105709	-0.001406176	-0.4379244	0.3478419	0.004697918	-0.04020949	

1.98e+09	0.03597118	-0.001223959	-0.1179224	0.5422049	0.1019534	0.01917031	-0.01820971	0.02911901	
-0.1179224	0.5422049	0.02207835	-0.03618293	-0.01786376	0.0283562	0.09922784	-0.01427933	
0.1019534	0.01917031	-0.01786376	0.0283562	0.02066464	-0.002377896	-0.1565757	0.5330289	
-0.01820971	0.02911901	0.09922784	-0.01427933	-0.1565757	0.5330289	0.0161089	-0.04471481	

2e+09	0.05227712	-0.01806682	0.213371	0.5091809	0.1180708	-0.0118098	0.0007719929	0.03365615	
0.213371	0.5091809	0.02092685	-0.05418533	0.0004019261	0.03270953	0.09644043	-0.04466186	
0.1180708	-0.0118098	0.0004019261	0.03270953	0.04209046	-0.01561903	0.1763692	0.523889	
0.0007719929	0.03365615	0.09644043	-0.04466186	0.1763692	0.523889	0.01797804	-0.05808124	

2.02e+09	0.04809154	-0.04523684	0.4659582	0.2937817	0.09673176	-0.04163126	0.01956454	0.02818641	
0.4659582	0.2937817	0.005227214	-0.06298747	0.01865694	0.02783472	0.07064395	-0.05609416	
0.09673176	-0.04163126	0.01865694	0.02783472	0.04295715	-0.04430358	0.4439077	0.3271574	
0.01956454	0.02818641	0.07064395	-0.05609416	0.4439077	0.3271574	0.007221565	-0.06748471	

2.04e+09	0.02494137	-0.05501867	0.5498397	-0.02795759	0.06670112	-0.03035388	0.03364898	0.01234775	
0.5498397	-0.02795759	-0.01195654	-0.05492977	0.03292802	0.01259045	0.04661463	-0.03631072	
0.06670112	-0.03035388	0.03292802	0.01259045	0.01982613	-0.0576152	0.5508608	0.01238631	
0.03364898	0.01234775	0.04661463	-0.03631072	0.5508608	0.01238631	-0.008253422	-0.06402018	

2.06e+09	0.01001934	-0.04317159	0.4315406	-0.3399061	0.06889553	-0.0021153	0.03496965	-0.01097692	
0.4315406	-0.3399061	-0.01181722	-0.03581584	0.03449038	-0.01061194	0.0582648	-0.00750369	
0.06889553	-0.0021153	0.03449038	-0.01061194	0.002102781	-0.04510801	0.4559034	-0.3072445	
0.03496965	-0.01097692	0.0582648	-0.00750369	0.4559034	-0.3072445	-0.01131391	-0.04793593	

2.08e+09	0.01566264	-0.03094499	0.1551015	-0.5238824	0.09662091	0.002852282	0.02059202	-0.02926906	
0.1551015	-0.5238824	0.005818061	-0.02874818	0.02014138	-0.02866786	0.09007921	-0.009152613	
0.09662091	0.002852282	0.02014138	-0.02866786	0.008021163	-0.02850182	0.1940207	-0.5112738	
0.02059202	-0.02926906	0.09007921	-0.009152613	0.1940207	-0.5112738	0.002981004	-0.03944351	

2.1e+09	0.02750495	-0.03629559	-0.1732683	-0.5148562	0.1116272	-0.02269052	0.0001282924	-0.03450976	
-0.1732683	-0.5148562	0.01890266	-0.04157229	0.0001198245	-0.03348979	0.09923123	-0.0392724	
0.1116272	-0.02269052	0.0001198245	-0.03348979	0.02485647	-0.03121419	-0.1341144	-0.5269201	
0.0001282924	-0.03450976	0.09923123	-0.0392724	-0.1341144	-0.5269201	0.01613827	-0.04942182	

2.12e+09	0.02457984	-0.05241042	-0.4361237	-0.3215381	0.0949905	-0.04708552	-0.01894373	-0.02905962	
-0.4361237	-0.3215381	0.01276669	-0.05778244	-0.01813005	-0.02821879	0.07327749	-0.05725477	
0.0949905	-0.04708552	-0.01813005	-0.02821879	0.02711419	-0.04982402	-0.410743	-0.3540437	
-0.01894373	-0.02905962	0.07327749	-0.05725477	-0.410743	-0.3540437	0.01205061	-0.06497496	

2.14e+09	0.005873089	-0.05789989	-0.5418669	-0.01201282	0.06675579	-0.04202047	-0.03383646	-0.01351307	
-0.5418669	-0.01201282	-0.004118865	-0.05723699	-0.03269422	-0.01348226	0.04725049	-0.0381386	
0.06675579	-0.04202047	-0.03269422	-0.01348226	0.009026788	-0.06004831	-0.5397158	-0.05349028	
-0.03383646	-0.01351307	0.04725049	-0.0381386	-0.5397158	-0.05349028	-0.003990583	-0.06573498	

2.16e+09	-0.009757239	-0.04008661	-0.447883	0.3034677	0.06096947	-0.0112351	-0.03569038	0.01070763	
-0.447883	0.3034677	-0.007193491	-0.04382252	-0.03484906	0.01012459	0.05835888	-0.00986019	
0.06096947	-0.0112351	-0.03484906	0.01012459	-0.009859784	-0.04385837	-0.470362	0.2680722	
-0.03569038	0.01070763	0.05835888	-0.00986019	-0.470362	0.2680722	-0.007718859	-0.05270477	

2.18e+09	0.0007912107	-0.01901254	-0.1891607	0.5035207	0.0900615	0.002143334	-0.02108556	0.02944114	
-0.1891607	0.5035207	0.002395805	-0.037723	-0.02063006	0.02855173	0.08711561	-0.009736326	
0.0900615	0.002143334	-0.02063006	0.02855173	-0.0005725677	-0.01939455	-0.2279935	0.4875998	
-0.02108556	0.02944114	0.08711561	-0.009736326	-0.2279935	0.4875998	0.002012711	-0.04619117	

2.2e+09	0.02168951	-0.01738341	0.1340935	0.5174579	0.1116344	-0.01814881	-7.239905e-06	0.034568	
0.1340935	0.5174579	0.0111034	-0.04701465	-6.88054e-05	0.03340893	0.0987792	-0.03932699	
0.1116344	-0.01814881	-6.88054e-05	0.03340893	0.02416659	-0.01516555	0.09314232	0.5266774	
-7.239905e-06	0.034568	0.0987792	-0.03932699	0.09314232	0.5266774	0.01185985	-0.05594983	

2.22e+09	0.03068344	-0.03135588	0.4054109	0.3456056	0.1016895	-0.04313531	0.01891679	0.02832382	
0.4054109	0.3456056	0.003777391	-0.05895611	0.01800303	0.02729681	0.07462377	-0.06201548	
0.1016895	-0.04313531	0.01800303	0.02729681	0.03803739	-0.03148404	0.3769088	0.3767115	
0.01891679	0.02832382	0.07462377	-0.06201548	0.3769088	0.3767115	0.004477357	-0.07001499	

2.24e+09	0.0228111	-0.0398143	0.5301268	0.04925397	0.07752096	-0.04176343	0.03265671	0.01270475	
0.5301268	0.04925397	-0.01135817	-0.05470226	0.03116655	0.01257819	0.04321817	-0.04666811	
0.07752096	-0.04176343	0.03116655	0.01257819	0.0308243	-0.04515286	0.5246025	0.09154459	
0.03265671	0.01270475	0.04321817	-0.04666811	0.5246025	0.09154459	-0.01335765	-0.0668485	

2.26e+09	0.01586821	-0.03060372	0.4604502	-0.2660768	0.0727017	-0.01919504	0.03438864	-0.01022295	
0.4604502	-0.2660768	-0.01159656	-0.03618414	0.0332465	-0.009319504	0.04557842	-0.0086179	
0.0727017	-0.01919504	0.0332465	-0.009319504	0.02031802	-0.03826418	0.4806453	-0.2281141	
0.03438864	-0.01022295	0.04557842	-0.0086179	0.4806453	-0.2281141	-0.01619001	-0.04576996	

2.28e+09	0.02750445	-0.017142	0.2198724	-0.4811745	0.09622047	-0.005419991	0.01967862	-0.0287442	
0.2198724	-0.4811745	0.008952007	-0.02829568	0.01937356	-0.02743632	0.08483433	0.002561838	
0.09622047	-0.005419991	0.01937356	-0.02743632	0.02964432	-0.02231913	0.2583404	-0.4620185	
0.01967862	-0.0287442	0.08483433	0.002561838	0.2583404	-0.4620185	0.005930446	-0.03372961	

2.3e+09	0.05362535	-0.02060847	-0.09676114	-0.5150497	0.1224101	-0.02445996	-0.001060289	-0.03148115	
-0.09676114	-0.5150497	0.02557438	-0.04990797	-0.0006315572	-0.03027641	0.1094346	-0.03239939	
0.1224101	-0.02445996	-0.0006315572	-0.03027641	0.05845802	-0.02263447	-0.05463809	-0.5213347	
-0.001060289	-0.03148115	0.1094346	-0.03239939	-0.05463809	-0.5213347	0.02803263	-0.05515271	

2.32e+09	0.06726917	-0.04542318	-0.3716448	-0.364832	0.1168905	-0.05636368	-0.01596999	-0.02514527	
-0.3716448	-0.364832	0.01017882	-0.07529409	-0.01487528	-0.02431234	0.08622996	-0.06852163	
0.1168905	-0.05636368	-0.01487528	-0.02431234	0.07702135	-0.04924206	-0.3403313	-0.3938605	
-0.01596999	-0.02514527	0.08622996	-0.06852163	-0.3403313	-0.3938605	0.01527777	-0.08604723	

2.34e+09	0.06051548	-0.06804532	-0.5129324	-0.08592748	0.09213845	-0.06428863	-0.0278094	-0.01344958	
-0.5129324	-0.08592748	-0.02228981	-0.07364158	-0.02628576	-0.01349165	0.04363661	-0.06396168	
0.09213845	-0.06428863	-0.02628576	-0.01349165	0.07146633	-0.07717121	-0.503526	-0.12816	
-0.0278094	-0.01344958	0.04363661	-0.06396168	-0.503526	-0.12816	-0.02119236	-0.08978997	

2.36e+09	0.04793816	-0.07369996	-0.4684453	0.2256489	0.08149644	-0.04816423	-0.03193937	0.006138992	
-0.4684453	0.2256489	-0.03613954	-0.04046249	-0.03081216	0.0050236	0.03003809	-0.02249754	
0.08149644	-0.04816423	-0.03081216	0.0050236	0.05548147	-0.0861267	-0.4854213	0.1851702	
-0.03193937	0.006138992	0.03003809	-0.02249754	-0.4854213	0.1851702	-0.0422438	-0.05531259	

2.38e+09	0.04895421	-0.07083349	-0.2502273	0.453473	0.09674547	-0.03802521	-0.02049785	0.02458483	
-0.2502273	0.453473	-0.009320634	-0.01142415	-0.02044862	0.02308859	0.0630578	0.007772355	
0.09674547	-0.03802521	-0.02044862	0.02308859	0.05343704	-0.08159506	-0.2877161	0.4304349	
-0.02049785	0.02458483	0.0630578	0.007772355	-0.2877161	0.4304349	-0.01740276	-0.0187014	

2.4e+09	0.06103095	-0.08008557	0.05698304	0.5107511	0.1136623	-0.05407538	-0.001497388	0.02927573	
0.05698304	0.5107511	0.03132199	-0.02375143	-0.002285529	0.0282216	0.103905	-0.008596226	
0.1136623	-0.05407538	-0.002285529	0.0282216	0.06726474	-0.08808373	0.01339306	0.5135154	
-0.001497388	0.02927573	0.103905	-0.008596226	0.01339306	0.5135154	0.02962017	-0.0258457	

2.42e+09	0.06438753	-0.1061951	0.3367455	0.3822183	0.1086045	-0.08396939	0.01252862	0.0232264	
0.3367455	0.3822183	0.03923373	-0.06792195	0.01141596	0.02282201	0.1070646	-0.05457099	
0.1086045	-0.08396939	0.01141596	0.02282201	0.07486415	-0.1155233	0.3025471	0.4089883	
0.01252862	0.0232264	0.1070646	-0.05457099	0.3025471	0.4089883	0.0452387	-0.07349134	

2.44e+09	0.04614945	-0.1339214	0.492175	0.1212906	0.07860102	-0.09677029	0.0218009	0.01531568	
0.492175	0.1212906	0.0009607438	-0.0982943	0.02062752	0.01553323	0.0664976	-0.07586069	
0.07860102	-0.09677029	0.02062752	0.01553323	0.05825896	-0.1487587	0.4786798	0.1629652	
0.0218009	0.01531568	0.0664976	-0.07586069	0.4786798	0.1629652	0.007543515	-0.1128582	

2.46e+09	0.0161208	-0.1417764	0.4732747	-0.182242	0.0564015	-0.08208311	0.03001974	0.001455448	
0.4732747	-0.182242	-0.04600039	-0.07716638	0.02913954	0.002409634	0.0304915	-0.05026228	
0.0564015	-0.08208311	0.02913954	0.002409634	0.02465703	-0.1611344	0.4861847	-0.139347	
0.03001974	0.001455448	0.0304915	-0.05026228	0.4861847	-0.139347	-0.04745221	-0.09639316	

2.48e+09	-0.00252829	-0.1338661	0.281642	-0.4219373	0.0602965	-0.06615821	0.02600127	-0.01887855	
0.281642	-0.4219373	-0.04853543	-0.02452764	0.02600619	-0.01755725	0.0379208	-0.008994852	
0.0602965	-0.06615821	0.02600619	-0.01755725	0.001557829	-0.1528321	0.3177287	-0.3941032	
0.02600127	-0.01887855	0.0379208	-0.008994852	0.3177287	-0.3941032	-0.05785084	-0.03856713	

2.5e+09	-0.006318084	-0.1310578	-0.01408978	-0.5050535	0.0721449	-0.07304959	0.007975157	-0.03004247	
-0.01408978	-0.5050535	-0.001338661	0.001584652	0.008798756	-0.02919075	0.07698991	0.001044906	
0.0721449	-0.07304959	0.008798756	-0.02919075	-0.002447522	-0.1472897	0.03148511	-0.5035266	
0.007975157	-0.03004247	0.07698991	0.001044906	0.03148511	-0.5035266	-0.009244556	-0.003057345	

2.52e+09	-0.01348942	-0.1426235	-0.3000973	-0.4020254	0.06407428	-0.09323563	-0.00951216	-0.0269962	
-0.3000973	-0.4020254	0.04381604	-0.02876425	-0.008570867	-0.02687227	0.100979	-0.02709126	
0.06407428	-0.09323563	-0.008570867	-0.02687227	-0.006552723	-0.1596055	-0.262194	-0.4266907	
-0.00951216	-0.0269962	0.100979	-0.02709126	-0.262194	-0.4266907	0.04493597	-0.03076945	

2.54e+09	-0.03780156	-0.1544822	-0.4735768	-0.1568957	0.03644968	-0.09891813	-0.02125584	-0.01856226	
-0.4735768	-0.1568957	0.03890221	-0.08226111	-0.02053029	-0.01882573	0.08843113	-0.05696377	
0.03644968	-0.09891813	-0.02053029	-0.01882573	-0.03017081	-0.1764694	-0.4560458	-0.1987677	
-0.02125584	-0.01856226	0.08843113	-0.05696377	-0.4560458	-0.1987677	0.04620947	-0.09104446	

2.56e+09	-0.07325024	-0.1488641	-0.4769484	0.1415502	0.010478	-0.0817936	-0.02996278	-0.005580324	
-0.4769484	0.1415502	-0.01001587	-0.1048628	-0.02940329	-0.006078425	0.05918308	-0.06292227	
0.010478	-0.0817936	-0.02940329	-0.006078425	-0.06976279	-0.1753952	-0.4862819	0.09637461	
-0.02996278	-0.005580324	0.05918308	-0.06292227	-0.4862819	0.09637461	-0.005631668	-0.1218599	

2.58e+09	-0.09804299	-0.1216363	-0.3102661	0.3896391	0.009254887	-0.05363031	-0.03092915	0.01467963	
-0.3102661	0.3896391	-0.05439769	-0.07276784	-0.03067505	0.01383099	0.04092852	-0.04033283	
0.009254887	-0.05363031	-0.03067505	0.01383099	-0.1009255	-0.1481734	-0.3447246	0.3572222	
-0.03092915	0.01467963	0.04092852	-0.04033283	-0.3447246	0.3572222	-0.05847189	-0.09128947	

2.6e+09	-0.1007754	-0.09483321	-0.02909645	0.4978204	0.02370878	-0.04486137	-0.01518428	0.03268185	
-0.02909645	0.4978204	-0.0470403	-0.01971598	-0.01557829	0.03184144	0.05115837	-0.01779821	
0.02370878	-0.04486137	-0.01557829	0.03184144	-0.1064334	-0.1174621	-0.07667345	0.4916472	
-0.01518428	0.03268185	0.05115837	-0.01779821	-0.07667345	0.4916472	-0.05604105	-0.03139734	

2.62e+09	-0.09838543	-0.08426695	0.2633333	0.4222572	0.02477474	-0.05456498	0.008467607	0.03411896	
0.2633333	0.4222572	0.001646703	-0.002553715	0.007732441	0.03381313	0.07218646	-0.01777211	
0.02477474	-0.05456498	0.007732441	0.03381313	-0.1024889	-0.1051711	0.221078	0.4450661	
0.008467607	0.03411896	0.07218646	-0.01777211	0.221078	0.4450661	-0.003385377	-0.007329986	

2.64e+09	-0.1089146	-0.07918919	0.4565242	0.1923459	0.005370833	-0.05525258	0.02543397	0.02199899	
0.4565242	0.1923459	0.03848343	-0.03576978	0.02486766	0.02207777	0.08019946	-0.03244829	
0.005370833	-0.05525258	0.02486766	0.02207777	-0.1125689	-0.1029698	0.4351252	0.2352124	
0.02543397	0.02199899	0.08019946	-0.03244829	0.4351252	0.2352124	0.04085129	-0.04119641	

2.66e+09	-0.1278782	-0.05984808	0.4821765	-0.104356	-0.01091815	-0.03264984	0.03350297	0.004575755	
0.4821765	-0.104356	0.02868247	-0.08178528	0.03301921	0.004721027	0.07489795	-0.04215462	
-0.01091815	-0.03264984	0.03301921	0.004721027	-0.1360963	-0.08666954	0.4889951	-0.0566885	
0.03350297	0.004575755	0.07489795	-0.04215462	0.4889951	-0.0566885	0.03351653	-0.09352574	

2.68e+09	-0.1346448	-0.02395965	0.3343337	-0.361427	-0.00474253	-0.00249094	0.03178901	-0.01614074	
0.3343337	-0.361427	-0.01259249	-0.09537933	0.03122569	-0.01573016	0.06856962	-0.04443611	
-0.00474253	-0.00249094	0.03122569	-0.01573016	-0.1496092	-0.04884204	0.3676918	-0.3257297	
0.03178901	-0.01614074	0.06856962	-0.04443611	0.3676918	-0.3257297	-0.01176569	-0.1116618	

2.7e+09	-0.1187987	0.01236048	0.06590198	-0.4874856	0.01889997	0.0135116	0.01631304	-0.03354918	
0.06590198	-0.4874856	-0.0441875	-0.0708523	0.01605165	-0.03265291	0.06206154	-0.04622724	
0.01889997	0.0135116	0.01605165	-0.03265291	-0.1372009	-0.006398234	0.11449	-0.4776195	
0.01631304	-0.03354918	0.06206154	-0.04622724	0.11449	-0.4776195	-0.04824542	-0.08590205	

2.72e+09	-0.09033242	0.02766912	-0.2269217	-0.4366566	0.03779867	0.005543473	-0.008237471	-0.03721831	
-0.2269217	-0.4366566	-0.04059487	-0.03252262	-0.007734521	-0.0363257	0.05410195	-0.04136257	
0.03779867	0.005543473	-0.007734521	-0.0363257	-0.1067886	0.01421071	-0.1813089	-0.4572343	
-0.008237471	-0.03721831	0.05410195	-0.04136257	-0.1813089	-0.4572343	-0.04579221	-0.04348558	

2.74e+09	-0.07380502	0.02847899	-0.4371423	-0.2250466	0.03417363	-0.001818955	-0.02906071	-0.02381134	
-0.4371423	-0.2250466	-0.008935472	-0.01737163	-0.02818166	-0.02349674	0.05097227	-0.03136448	
0.03417363	-0.001818955	-0.02818166	-0.02349674	-0.08764007	0.0152326	-0.4120754	-0.2684237	
-0.02906071	-0.02381134	0.05097227	-0.03136448	-0.4120754	-0.2684237	-0.01142898	-0.02603595	

2.76e+09	-0.06936085	0.03632266	-0.4850819	0.06903738	0.02721051	0.01169675	-0.03639784	-0.001506431	
-0.4850819	0.06903738	0.01871746	-0.03472579	-0.03560745	-0.001635608	0.05891679	-0.02067162	
0.02721051	0.01169675	-0.03560745	-0.001635608	-0.08506077	0.02179243	-0.4897521	0.01924241	
-0.03639784	-0.001506431	0.05891679	-0.02067162	-0.4897521	0.01924241	0.01877683	-0.04454855	

2.78e+09	-0.05752269	0.05716239	-0.3543739	0.3344125	0.04112491	0.03355142	-0.02955517	0.0195844	
-0.3543739	0.3344125	0.0201976	-0.0652076	-0.02880906	0.01915519	0.0762289	-0.02169855	
0.04112491	0.03355142	-0.02880906	0.01915519	-0.07767718	0.04564586	-0.3867802	0.2964652	
-0.02955517	0.0195844	0.0762289	-0.02169855	-0.3867802	0.2964652	0.02041729	-0.07698247	

2.8e+09	-0.02678537	0.07423657	-0.09712897	0.4748583	0.07101359	0.03732883	-0.01246687	0.03259628	
-0.09712897	0.4748583	-0.001536423	-0.08335284	-0.01193407	0.03163268	0.08670821	-0.03965053	
0.07101359	0.03732883	-0.01193407	0.03163268	-0.04780504	0.07007957	-0.1456895	0.4623493	
-0.01246687	0.03259628	0.08670821	-0.03965053	-0.1456895	0.4623493	-0.002097024	-0.09587507	

2.82e+09	0.01113046	0.0703226	0.1924304	0.4430882	0.09350415	0.02013262	0.008654047	0.03349406	
0.1924304	0.4430882	-0.02722769	-0.07753311	0.008376078	0.03218389	0.07378024	-0.06211993	
0.09350415	0.02013262	0.008376078	0.03218389	-0.005122553	0.0721163	0.1453653	0.4608996	
0.008654047	0.03349406	0.07378024	-0.06211993	0.1453653	0.4608996	-0.02807845	-0.09026048	

2.84e+09	0.03771061	0.04870042	0.4114435	0.2516689	0.09514168	-0.001591955	0.02639691	0.02210649	
0.4114435	0.2516689	-0.04015229	-0.05530548	0.02519912	0.02132131	0.04360651	-0.06085057	
0.09514168	-0.001591955	0.02519912	0.02132131	0.02768255	0.05131763	0.3831772	0.293555	
0.02639691	0.02210649	0.04360651	-0.06085057	0.3831772	0.293555	-0.04144717	-0.06897968	

2.86e+09	0.04390716	0.028096	0.4810073	-0.03168877	0.08511943	-0.006377304	0.034516	0.002167632	
0.4810073	-0.03168877	-0.02926731	-0.02969957	0.03319832	0.002400536	0.03040789	-0.03041744	
0.08511943	-0.006377304	0.03319832	0.002400536	0.03622943	0.02814803	0.4822363	0.01898842	
0.034516	0.002167632	0.03040789	-0.03041744	0.4822363	0.01898842	-0.03243854	-0.04337728	

2.88e+09	0.04828292	0.0222046	0.3726078	-0.3031018	0.08984574	0.002253524	0.02811019	-0.01884585	
0.3726078	-0.3031018	-0.001243925	-0.02453849	0.02728685	-0.01801629	0.05227717	-0.004654853	
0.08984574	0.002253524	0.02728685	-0.01801629	0.03927496	0.02262973	0.4029459	-0.2625969	
0.02811019	-0.01884585	0.05227717	-0.004654853	0.4029459	-0.2625969	-0.005546155	-0.03602558	

2.9e+09	0.06567863	0.01791837	0.128344	-0.4592742	0.1105291	-0.001549823	0.01072947	-0.03006375	
0.128344	-0.4592742	0.01972649	-0.0463422	0.01037899	-0.028989	0.08632097	-0.01351781	
0.1105291	-0.001549823	0.01037899	-0.028989	0.05767027	0.02290666	0.1761491	-0.4437249	
0.01072947	-0.03006375	0.08632097	-0.01351781	0.1761491	-0.4437249	0.01733253	-0.05538947	

2.92e+09	0.08821894	-0.002185297	-0.1573031	-0.4464376	0.1230984	-0.02588257	-0.007263599	-0.02900328	
-0.1573031	-0.4464376	0.01306571	-0.07757843	-0.006992571	-0.02773613	0.09460384	-0.04849669	
0.1230984	-0.02588257	-0.006992571	-0.02773613	0.08645662	0.006274493	-0.1093653	-0.4608509	
-0.007263599	-0.02900328	0.09460384	-0.04849669	-0.1093653	-0.4608509	0.01437092	-0.08741358	

2.94e+09	0.0967166	-0.03648637	-0.3829136	-0.2751514	0.1130349	-0.05083546	-0.0210199	-0.02049814	
-0.3829136	-0.2751514	-0.01743168	-0.09001366	-0.01986663	-0.01954334	0.0682423	-0.07200293	
0.1130349	-0.05083546	-0.01986663	-0.01954334	0.1025442	-0.03016874	-0.3515143	-0.3142901	
-0.0210199	-0.02049814	0.0682423	-0.07200293	-0.3515143	-0.3142901	-0.01498575	-0.1040969	

2.96e+09	0.08460619	-0.06722169	-0.4711138	-0.005838265	0.09360652	-0.05974883	-0.02967717	-0.0060271	
-0.4711138	-0.005838265	-0.04556428	-0.07072902	-0.0281001	-0.006111402	0.03331435	-0.06114092	
0.09360652	-0.05974883	-0.0281001	-0.006111402	0.09379558	-0.06664227	-0.4676581	-0.05642722	
-0.02967717	-0.0060271	0.03331435	-0.06114092	-0.4676581	-0.05642722	-0.04658069	-0.08804993	

2.98e+09	0.06436973	-0.08095865	-0.388432	0.2665629	0.08171869	-0.05249671	-0.02873935	0.01303675	
-0.388432	0.2665629	-0.04500202	-0.034882	-0.02768708	0.01197553	0.02769458	-0.02401858	
0.08171869	-0.05249671	-0.02768708	0.01197553	0.07248609	-0.08449932	-0.4150177	0.2229037	
-0.02873935	0.01303675	0.02769458	-0.02401858	-0.4150177	0.2229037	-0.05102722	-0.05060152	

3e+09	0.05443237	-0.08202045	-0.1621831	0.4408008	0.08634232	-0.04830257	-0.01445176	0.0278327	
-0.1621831	0.4408008	-0.01184887	-0.01682801	-0.0142721	0.0265728	0.05768842	-0.003621866	
0.08634232	-0.04830257	-0.0142721	0.0265728	0.06146774	-0.08517698	-0.2091833	0.4206594	
-0.01445176	0.0278327	0.05768842	-0.003621866	-0.2091833	0.4206594	-0.01837369	-0.02684415	

3.02e+09	0.05560091	-0.08881096	0.1207477	0.449225	0.09077034	-0.0589447	0.00425613	0.02770397	
0.1207477	0.449225	0.02019413	-0.03711259	0.004008757	0.02659457	0.08696121	-0.02082939	
0.09077034	-0.0589447	0.004008757	0.02659457	0.06561986	-0.09076362	0.07112237	0.4595287	
0.00425613	0.02770397	0.08696121	-0.02082939	0.07112237	0.4595287	0.01894379	-0.0442995	

3.04e+09	0.05278022	-0.1139499	0.3530904	0.2996014	0.08158357	-0.07913733	0.01606065	0.02302496	
0.3530904	0.2996014	0.01822635	-0.07787349	0.01500177	0.02197694	0.08459765	-0.05513799	
0.08158357	-0.07913733	0.01500177	0.02197694	0.06919621	-0.1189817	0.3176392	0.3361995	
0.01606065	0.02302496	0.08459765	-0.05513799	0.3176392	0.3361995	0.02193772	-0.08903928	

3.06e+09	0.02555337	-0.1333232	0.4610091	0.04332005	0.05491719	-0.08083246	0.02796257	0.0115105	
0.4610091	0.04332005	-0.01804858	-0.09452432	0.02635784	0.01134821	0.05591837	-0.06534257	
0.05491719	-0.08083246	0.02635784	0.01134821	0.04362364	-0.1467535	0.4525147	0.09422207	
0.02796257	0.0115105	0.05591837	-0.06534257	0.4525147	0.09422207	-0.01590935	-0.111925	

3.08e+09	-0.006018735	-0.1305814	0.402433	-0.2296741	0.04020388	-0.06344415	0.03173167	-0.007547845	
0.402433	-0.2296741	-0.04859673	-0.07237412	0.0303584	-0.006630304	0.03727545	-0.04702149	
0.04020388	-0.06344415	0.0303584	-0.006630304	0.007589594	-0.1505488	0.4252684	-0.1822878	
0.03173167	-0.007547845	0.03727545	-0.04702149	0.4252684	-0.1822878	-0.05291189	-0.09094823	

3.1e+09	-0.02332001	-0.1155503	0.1973131	-0.4188183	0.0431008	-0.04979555	0.02214334	-0.02590728	
0.1973131	-0.4188183	-0.04577196	-0.03655236	0.02153768	-0.02427469	0.04191971	-0.02583055	
0.0431008	-0.04979555	0.02153768	-0.02427469	-0.01492869	-0.1353089	0.2435816	-0.3937003	
0.02214334	-0.02590728	0.04191971	-0.02583055	0.2435816	-0.3937003	-0.05309932	-0.04979386	

3.12e+09	-0.02714294	-0.1020107	-0.08087202	-0.4563191	0.04973908	-0.04854003	0.001205128	-0.03516135	
-0.08087202	-0.4563191	-0.01286458	-0.02255402	0.001818463	-0.03358781	0.06248029	-0.02153687	
0.04973908	-0.04854003	0.001818463	-0.03358781	-0.01896727	-0.1207089	-0.02832231	-0.4624034	
0.001205128	-0.03516135	0.06248029	-0.02153687	-0.02832231	-0.4624034	-0.01714418	-0.0309544	

3.14e+09	-0.02889605	-0.1016423	-0.3285456	-0.3250095	0.04435895	-0.05510639	-0.01980351	-0.02851475	
-0.3285456	-0.3250095	0.01212456	-0.04438994	-0.01849739	-0.02763106	0.07076158	-0.0364243	
0.04435895	-0.05510639	-0.01849739	-0.02763106	-0.01872953	-0.1225268	-0.2889886	-0.3602011	
-0.01980351	-0.02851475	0.07076158	-0.0364243	-0.2889886	-0.3602011	0.01389972	-0.05389754	

3.16e+09	-0.04393126	-0.1019583	-0.4544208	-0.07628858	0.02760794	-0.04913044	-0.03277119	-0.01216146	
-0.4544208	-0.07628858	0.004334067	-0.07408634	-0.03117622	-0.0120862	0.06118947	-0.04652955	
0.02760794	-0.04913044	-0.03117622	-0.0120862	-0.03487255	-0.1288856	-0.4419398	-0.1280609	
-0.03277119	-0.01216146	0.06118947	-0.04652955	-0.4419398	-0.1280609	0.00727637	-0.08973146	

3.18e+09	-0.0628995	-0.08594127	-0.4148547	0.1989432	0.02086947	-0.02611187	-0.03511836	0.009706187	
-0.4148547	0.1989432	-0.02236673	-0.08032509	-0.03364346	0.008794823	0.05239642	-0.04157507	
0.02086947	-0.02611187	-0.03364346	0.008794823	-0.06046413	-0.1172475	-0.4345819	0.1487059	
-0.03511836	0.009706187	0.05239642	-0.04157507	-0.4345819	0.1487059	-0.02463936	-0.09933994	

3.2e+09	-0.0657539	-0.05717915	-0.2239091	0.4014604	0.03574751	-0.005318584	-0.02244737	0.03053604	
-0.2239091	0.4014604	-0.0370829	-0.06272874	-0.02181863	0.0287867	0.05724149	-0.0351285	
0.03574751	-0.005318584	-0.02181863	0.0287867	-0.07117524	-0.0867736	-0.2697341	0.3716662	
-0.02244737	0.03053604	0.05724149	-0.0351285	-0.2697341	0.3716662	-0.04432595	-0.07812299	

3.22e+09	-0.04840057	-0.03661835	0.04950193	0.4561921	0.05785721	-0.003224692	0.002070689	0.0380497	
0.04950193	0.4561921	-0.02859372	-0.04680728	0.001405738	0.03627878	0.06354349	-0.04218943	
0.05785721	-0.003224692	0.001405738	0.03627878	-0.05688735	-0.06074863	-0.005381668	0.4588284	
0.002070689	0.0380497	0.06354349	-0.04218943	-0.005381668	0.4588284	-0.03398223	-0.05626636	

3.24e+09	-0.02691254	-0.03390653	0.303485	0.3415471	0.06980087	-0.01245857	0.02500802	0.02707058	
0.303485	0.3415471	-0.01741793	-0.04848635	0.02343182	0.02620062	0.05298575	-0.05171205	
0.06980087	-0.01245857	0.02343182	0.02620062	-0.03420406	-0.0549939	0.2605176	0.3756185	
0.02500802	0.02707058	0.05298575	-0.05171205	0.2605176	0.3756185	-0.01636569	-0.05802835	

3.26e+09	-0.01544623	-0.04678724	0.4396881	0.1023348	0.07182957	-0.0228188	0.03183005	0.005548363	
0.4396881	0.1023348	-0.01491348	-0.05287922	0.03029959	0.005623356	0.03942334	-0.04016794	
0.07182957	-0.0228188	0.03029959	0.005623356	-0.02142743	-0.06833323	0.424317	0.1543549	
0.03183005	0.005548363	0.03942334	-0.04016794	0.424317	0.1543549	-0.01195066	-0.06838259	

3.28e+09	-0.02551286	-0.04859483	0.4191597	-0.1661263	0.06477938	-0.01830508	0.03148106	-0.01073174	
0.4191597	-0.1661263	-0.01740836	-0.05798833	0.03000255	-0.009791858	0.04407871	-0.02452886	
0.06477938	-0.01830508	0.03000255	-0.009791858	-0.0349037	-0.07301309	0.4360998	-0.1139451	
0.03148106	-0.01073174	0.04407871	-0.02452886	0.4360998	-0.1139451	-0.01892854	-0.07794353	

3.3e+09	-0.01972584	-0.03305104	0.2451134	-0.3788151	0.08037755	-0.006475779	0.01842305	-0.03074126	
0.2451134	-0.3788151	-0.01928131	-0.05257489	0.01795157	-0.02899697	0.06273719	-0.01677048	
0.08037755	-0.006475779	0.01795157	-0.02899697	-0.03577955	-0.05340652	0.290136	-0.3460036	
0.01842305	-0.03074126	0.06273719	-0.01677048	0.290136	-0.3460036	-0.02733059	-0.0697753	

3.32e+09	-0.00195226	-0.03079017	-0.01802107	-0.4450053	0.1000937	-0.01957592	-0.00459484	-0.03153501	
-0.01802107	-0.4450053	-0.00990491	-0.05692267	-0.004136682	-0.02984973	0.08284569	-0.0375735	
0.1000937	-0.01957592	-0.004136682	-0.02984973	-0.01725066	-0.04363694	0.03702461	-0.4450125	
-0.00459484	-0.03153501	0.08284569	-0.0375735	0.03702461	-0.4450125	-0.0172705	-0.06649273	

3.34e+09	0.01213563	-0.03796875	-0.2645324	-0.3533505	0.09953096	-0.03831203	-0.01680813	-0.02250882	
-0.2645324	-0.3533505	-0.01500471	-0.07095688	-0.0153361	-0.02115488	0.06860469	-0.06737059	
0.09953096	-0.03831203	-0.0153361	-0.02115488	0.001203083	-0.04843106	-0.2200153	-0.3841684	
-0.01680813	-0.02250882	0.06860469	-0.06737059	-0.2200153	-0.3841684	-0.01466814	-0.07883502	

3.36e+09	0.0299437	-0.05621882	-0.4240654	-0.1381146	0.1019069	-0.04894158	-0.03128065	-0.01040569	
-0.4240654	-0.1381146	-0.0287412	-0.07409923	-0.02906783	-0.01064882	0.03647448	-0.06777446	
0.1019069	-0.04894158	-0.02906783	-0.01064882	0.0208986	-0.06621741	-0.4045896	-0.1892653	
-0.03128065	-0.01040569	0.03647448	-0.06777446	-0.4045896	-0.1892653	-0.02383851	-0.08834943	

3.38e+09	0.02601779	-0.07691044	-0.4249261	0.1329195	0.09689248	-0.05599728	-0.03149834	0.01130906	
-0.4249261	0.1329195	-0.04614426	-0.06011464	-0.03017329	0.00972245	0.01650702	-0.03761652	
0.09689248	-0.05599728	-0.03017329	0.00972245	0.01695327	-0.0876006	-0.4385691	0.07946431	
-0.03149834	0.01130906	0.01650702	-0.03761652	-0.4385691	0.07946431	-0.04523774	-0.08174557	

3.4e+09	0.01961209	-0.08460564	-0.2685145	0.3531144	0.1005187	-0.05932586	-0.01777264	0.02866433	
-0.2685145	0.3531144	-0.03846024	-0.03336233	-0.0177834	0.02684742	0.03650161	-0.003613171	
0.1005187	-0.05932586	-0.0177834	0.02684742	0.008782846	-0.09274004	-0.3108388	0.3173074	
-0.01777264	0.02866433	0.03650161	-0.003613171	-0.3108388	0.3173074	-0.04615442	-0.05426963	

3.42e+09	0.02356141	-0.09268512	-0.01448388	0.4403218	0.1094714	-0.0756547	0.004486141	0.03225956	
-0.01448388	0.4403218	-0.007162261	-0.02777439	0.003570948	0.03095269	0.07713824	-0.006212493	
0.1094714	-0.0756547	0.003570948	0.03095269	0.01483398	-0.09519516	-0.06962367	0.435844	
0.004486141	0.03225956	0.07713824	-0.006212493	-0.06962367	0.435844	-0.01774416	-0.0404415	

3.44e+09	0.02666424	-0.1142395	0.2395657	0.3648843	0.1039019	-0.1039309	0.02134713	0.02061324	
0.2395657	0.3648843	0.01411058	-0.05659444	0.01996263	0.02000867	0.09358036	-0.04505127	
0.1039019	-0.1039309	0.01996263	0.02000867	0.02505489	-0.1140606	0.1924118	0.3927613	
0.02134713	0.02061324	0.09358036	-0.04505127	0.1924118	0.3927613	0.009933743	-0.06324056	

3.46e+09	0.01325627	-0.1422235	0.402268	0.1606759	0.0788564	-0.1237035	0.02630472	0.004843956	
0.402268	0.1606759	-0.00264985	-0.09266412	0.02478272	0.005114665	0.06717413	-0.07887075	
0.0788564	-0.1237035	0.02478272	0.005114665	0.01839681	-0.1453605	0.379434	0.2100814	
0.02630472	0.004843956	0.06717413	-0.07887075	0.379434	0.2100814	0.001396028	-0.1025405	

3.48e+09	-0.01638071	-0.1590286	0.4203916	-0.09789781	0.05180272	-0.1236686	0.02439625	-0.008923416	
0.4203916	-0.09789781	-0.04565121	-0.09675065	0.02335291	-0.007745853	0.02507581	-0.07325714	
0.05180272	-0.1236686	0.02335291	-0.007745853	-0.009517872	-0.1677702	0.4295705	-0.04401977	
0.02439625	-0.008923416	0.02507581	-0.07325714	0.4295705	-0.04401977	-0.04068332	-0.1154622	

3.5e+09	-0.04661607	-0.1577776	0.2875587	-0.3211541	0.03778142	-0.1171903	0.01611502	-0.02163729	
0.2875587	-0.3211541	-0.07238311	-0.05865653	0.01613888	-0.02015975	0.0073664	-0.03295268	
0.03778142	-0.1171903	0.01613888	-0.02015975	-0.04143719	-0.1688292	0.3263822	-0.281825	
0.01611502	-0.02163729	0.0073664	-0.03295268	0.3263822	-0.281825	-0.07469343	-0.08243318	

3.52e+09	-0.06590298	-0.1494221	0.04966962	-0.4271922	0.03022093	-0.1173202	-0.0002442039	-0.02770592	
0.04966962	-0.4271922	-0.05032473	-0.01356923	0.0005431199	-0.0267995	0.03522268	0.001992565	
0.03022093	-0.1173202	0.0005431199	-0.0267995	-0.06024357	-0.1595984	0.1044706	-0.417611	
-0.0002442039	-0.02770592	0.03522268	0.001992565	0.1044706	-0.417611	-0.06064464	-0.03311947	

3.54e+09	-0.07894517	-0.1466171	-0.2048164	-0.3755039	0.01529676	-0.1254508	-0.01677638	-0.02077635	
-0.2048164	-0.3755039	0.002417927	-0.01260112	-0.01595891	-0.02048537	0.07847543	-0.005967543	
0.01529676	-0.1254508	-0.01595891	-0.02048537	-0.06894013	-0.1572737	-0.1548466	-0.3994252	
-0.01677638	-0.02077635	0.07847543	-0.005967543	-0.1548466	-0.3994252	-0.00743891	-0.02339374	

3.56e+09	-0.1006881	-0.1491077	-0.3804061	-0.1880084	-0.01399642	-0.1269608	-0.02330922	-0.006490513	
-0.3804061	-0.1880084	0.0284775	-0.05932283	-0.02254527	-0.006392421	0.09130778	-0.04584319	
-0.01399642	-0.1269608	-0.02254527	-0.006392421	-0.08643144	-0.1653984	-0.3533156	-0.2358996	
-0.02330922	-0.006490513	0.09130778	-0.04584319	-0.3533156	-0.2358996	0.02622395	-0.06681606	

3.58e+09	-0.1340149	-0.1409757	-0.4168838	0.06275009	-0.04421296	-0.1091018	-0.0217571	0.005647031	
-0.4168838	0.06275009	0.0003423876	-0.1060394	-0.02081824	0.005407227	0.06505982	-0.07598171	
-0.04421296	-0.1091018	-0.02081824	0.005407227	-0.1206426	-0.1653211	-0.4216151	0.007948199	
-0.0217571	0.005647031	0.06505982	-0.07598171	-0.4216151	0.007948199	0.004267057	-0.1183431	

3.6e+09	-0.1645797	-0.1131971	-0.3059366	0.2888046	-0.05839314	-0.07993038	-0.01688714	0.01614334	
-0.3059366	0.2888046	-0.05504001	-0.1061376	-0.01614763	0.01524338	0.02786793	-0.0714002	
-0.05839314	-0.07993038	-0.01614763	0.01524338	-0.1566592	-0.142449	-0.3412355	0.2459258	
-0.01688714	0.01614334	0.02786793	-0.0714002	-0.3412355	0.2459258	-0.0520107	-0.1258133	

3.62e+09	-0.1772314	-0.07533981	-0.08523849	0.4126892	-0.05813561	-0.0572495	-0.00539642	0.02517205	
-0.08523849	0.4126892	-0.08370502	-0.05874161	-0.00541307	0.02398065	0.01158668	-0.03967992	
-0.05813561	-0.0572495	-0.00541307	0.02398065	-0.1741529	-0.1045589	-0.1396622	0.3976998	
-0.00539642	0.02517205	0.01158668	-0.03967992	-0.1396622	0.3976998	-0.08701912	-0.08131718	

3.64e+09	-0.1755791	-0.0438419	0.168702	0.3864194	-0.06105732	-0.04436074	0.01201889	0.02430129	
0.168702	0.3864194	-0.05754617	-0.0093823	0.01141985	0.02345572	0.02749151	-0.008085979	
-0.06105732	-0.04436074	0.01141985	0.02345572	-0.1731375	-0.07256703	0.115315	0.4061885	
0.01201889	0.02430129	0.02749151	-0.008085979	0.115315	0.4061885	-0.06615153	-0.02857151	

3.66e+09	-0.1734237	-0.02107871	0.3600124	0.2170106	-0.0707924	-0.02831494	0.02450237	0.01120772	
0.3600124	0.2170106	-0.001218223	-0.007345162	0.02371047	0.01066835	0.06311087	-0.005487634	
-0.0707924	-0.02831494	0.02371047	0.01066835	-0.171053	-0.05304793	0.3281905	0.2641361	
0.02450237	0.01120772	0.06311087	-0.005487634	0.3281905	0.2641361	-0.009866773	-0.0205567	

3.68e+09	-0.1769241	0.004447524	0.4165737	-0.0302426	-0.0798216	0.001407227	0.02499056	-0.005464361	
0.4165737	-0.0302426	0.02848009	-0.05464685	0.02382353	-0.005751637	0.08363389	-0.03252848	
-0.0798216	0.001407227	0.02382353	-0.005751637	-0.1786346	-0.03285005	0.4177548	0.02627119	
0.02499056	-0.005464361	0.08363389	-0.03252848	0.4177548	0.02627119	0.02447085	-0.06503126	

3.7e+09	-0.1757546	0.04300689	0.3216078	-0.2620634	-0.07240179	0.03996794	0.01696893	-0.01766107	
0.3216078	-0.2620634	0.003808135	-0.1034099	0.01545795	-0.0170633	0.07331743	-0.06365528	
-0.07240179	0.03996794	0.01545795	-0.0170633	-0.1860619	0.00376749	0.3548311	-0.2163944	
0.01696893	-0.01766107	0.07331743	-0.06365528	0.3548311	-0.2163944	0.004388124	-0.1156468	

3.72e+09	-0.1549207	0.08636948	0.1134434	-0.3975613	-0.0465566	0.06936195	0.004689568	-0.02437091	
0.1134434	-0.3975613	-0.04963063	-0.1091568	0.003848638	-0.02260572	0.04224909	-0.07454139	
-0.0465566	0.06936195	0.003848638	-0.02260572	-0.1731973	0.05110615	0.1671286	-0.378985	
0.004689568	-0.02437091	0.04224909	-0.07454139	0.1671286	-0.378985	-0.04754435	-0.1259554	

3.74e+09	-0.1159967	0.116443	-0.1352107	-0.3909064	-0.01781992	0.08058012	-0.0109482	-0.0238909	
-0.1352107	-0.3909064	-0.08359006	-0.06868608	-0.01027625	-0.02191752	0.01406974	-0.05662006	
-0.01781992	0.08058012	-0.01027625	-0.02191752	-0.1371234	0.08745822	-0.0801268	-0.4069059	
-0.0109482	-0.0238909	0.01406974	-0.05662006	-0.0801268	-0.4069059	-0.08396068	-0.08972234	

3.76e+09	-0.07569002	0.1268202	-0.3365965	-0.2411572	0.0003262415	0.08535238	-0.02466564	-0.01231934	
-0.3365965	-0.2411572	-0.06853517	-0.01909669	-0.02291545	-0.01131557	0.0116174	-0.02119151	
0.0003262415	0.08535238	-0.02291545	-0.01131557	-0.09639882	0.1008756	-0.3009731	-0.2866128	
-0.02466564	-0.01231934	0.0116174	-0.02119151	-0.3009731	-0.2866128	-0.07393847	-0.04108604	

3.78e+09	-0.04416053	0.1306168	-0.4126488	-0.001008293	0.01601465	0.09840944	-0.02670404	0.006786923	
-0.4126488	-0.001008293	-0.01910151	-0.003861948	-0.02481423	0.006611832	0.04151929	0.002864647	
0.01601465	0.09840944	-0.02481423	0.006611832	-0.0670381	0.104744	-0.4104041	-0.05848224	
-0.02670404	0.006786923	0.04151929	0.002864647	-0.4104041	-0.05848224	-0.02880442	-0.02225456	

3.8e+09	-0.01423601	0.1372436	-0.3341281	0.2363133	0.04358832	0.1140868	-0.01504902	0.0214444	
-0.3341281	0.2363133	0.02118138	-0.03811489	-0.01345451	0.02027369	0.08059998	-0.01144137	
0.04358832	0.1140868	-0.01345451	0.02027369	-0.04268919	0.1141167	-0.3654046	0.188761	
-0.01504902	0.0214444	0.08059998	-0.01144137	-0.3654046	0.188761	0.01212965	-0.05011498	

3.82e+09	0.02605897	0.1432795	-0.1356945	0.3814959	0.08442739	0.1178487	0.001539832	0.02376016	
-0.1356945	0.3814959	0.01436088	-0.0904055	0.002277941	0.02160424	0.08944313	-0.05368975	
0.08442739	0.1178487	0.002277941	0.02160424	-0.006619749	0.1281091	-0.188056	0.3607908	
0.001539832	0.02376016	0.08944313	-0.05368975	-0.188056	0.3607908	0.0117187	-0.09929286	

3.84e+09	0.07602368	0.1339728	0.1060397	0.3872439	0.1233347	0.1009482	0.0135925	0.01665299	
0.1060397	0.3872439	-0.03312015	-0.1142981	0.01259922	0.01424584	0.05674112	-0.08547019	
0.1233347	0.1009482	0.01259922	0.01424584	0.04496861	0.1284246	0.05162343	0.3999925	
0.0135925	0.01665299	0.05674112	-0.08547019	0.05162343	0.3999925	-0.02902314	-0.1273343	

3.86e+09	0.1203748	0.1035423	0.3072841	0.2561103	0.145834	0.07379071	0.01950067	0.006091708	
0.3072841	0.2561103	-0.08104364	-0.08866083	0.01695429	0.005016941	0.009441136	-0.07494467	
0.145834	0.07379071	0.01695429	0.005016941	0.09524481	0.1037377	0.2698311	0.2976344	
0.01950067	0.006091708	0.009441136	-0.07494467	0.2698311	0.2976344	-0.07682158	-0.1105729	

3.88e+09	0.1465903	0.06316512	0.39822	0.03269626	0.1554913	0.05298201	0.0196308	-0.006519265	
0.39822	0.03269626	-0.08723324	-0.0329279	0.01714304	-0.005520535	-0.007557296	-0.02694008	
0.1554913	0.05298201	0.01714304	-0.005520535	0.1261772	0.06441816	0.3915102	0.08841734	
0.0196308	-0.006519265	-0.007557296	-0.02694008	0.3915102	0.08841734	-0.09127628	-0.0600714	

3.9e+09	0.1590212	0.02784144	0.3420862	-0.2030513	0.1694465	0.03993994	0.01067357	-0.01772664	
0.3420862	-0.2030513	-0.04177841	0.00347886	0.009602635	-0.0155723	0.02718974	0.01500644	
0.1694465	0.03993994	0.009602635	-0.0155723	0.139481	0.03032763	0.3689875	-0.1539877	
0.01067357	-0.01772664	0.02718974	0.01500644	0.3689875	-0.1539877	-0.05515025	-0.01874246	

3.92e+09	0.1719582	-0.00274018	0.1599789	-0.3595888	0.1907299	0.01885854	-0.004195741	-0.01851248	
0.1599789	-0.3595888	0.01534203	-0.01605116	-0.003866145	-0.01639328	0.08326643	0.004292552	
0.1907299	0.01885854	-0.003866145	-0.01639328	0.1537301	0.004956323	0.2096322	-0.3355728	
-0.004195741	-0.01851248	0.08326643	0.004292552	0.2096322	-0.3355728	0.001757588	-0.02698883	

3.94e+09	0.1863853	-0.03903978	-0.07423374	-0.381189	0.2055387	-0.01650043	-0.012833	-0.008701669	
-0.07423374	-0.381189	0.0290531	-0.07766473	-0.01145896	-0.007093785	0.1013712	-0.0517359	
0.2055387	-0.01650043	-0.01145896	-0.007093785	0.1741298	-0.02545122	-0.02079967	-0.3895952	
-0.012833	-0.008701669	0.1013712	-0.0517359	-0.02079967	-0.3895952	0.02591167	-0.08294799	

3.96e+09	0.1932358	-0.08710319	-0.2748436	-0.2683023	0.2030137	-0.05665189	-0.01111335	0.000570757	
-0.2748436	-0.2683023	-0.01675415	-0.1228024	-0.008879349	0.00109654	0.06148431	-0.0951422	
0.2030137	-0.05665189	-0.008879349	0.00109654	0.1904306	-0.07175269	-0.2357626	-0.3047113	
-0.01111335	0.000570757	0.06148431	-0.0951422	-0.2357626	-0.3047113	-0.009597664	-0.1347186	

3.98e+09	0.1813851	-0.1390158	-0.3766134	-0.06457868	0.1866439	-0.08682336	-0.007220535	0.003488989	
-0.3766134	-0.06457868	-0.08179958	-0.1085123	-0.005082309	0.00229048	0.002874199	-0.08313833	
0.1866439	-0.08682336	-0.005082309	0.00229048	0.1865575	-0.1270129	-0.364471	-0.1167382	
-0.007220535	0.003488989	0.002874199	-0.08313833	-0.364471	-0.1167382	-0.07521695	-0.1331081	

4e+09	0.1528415	-0.1801225	-0.345841	0.1617095	0.1703212	-0.1039563	-0.00558701	0.005565599	
-0.345841	0.1617095	-0.1058033	-0.04311292	-0.004974394	0.003244004	-0.01748428	-0.02592152	
0.1703212	-0.1039563	-0.004974394	0.003244004	0.1616766	-0.1726747	-0.3656742	0.1113095	
-0.00558701	0.005565599	-0.01748428	-0.02592152	-0.3656742	0.1113095	-0.1109769	-0.07384459	

4.02e+09	0.1217071	-0.2054925	-0.1895778	0.3304864	0.1618396	-0.1190832	-0.001285746	0.008256792	
-0.1895778	0.3304864	-0.06002012	0.01294392	-0.00236426	0.006453664	0.02301928	0.02031565	
0.1618396	-0.1190832	-0.00236426	0.006453664	0.1322104	-0.1997254	-0.2351431	0.3006449	
-0.001285746	0.008256792	0.02301928	0.02031565	-0.2351431	0.3006449	-0.07654648	-0.01007754	

4.04e+09	0.09658278	-0.2256599	0.03494236	0.3763815	0.1522401	-0.1437752	0.00399278	0.005303026	
0.03494236	0.3763815	0.01310289	0.0002353	0.002445213	0.004796931	0.08319659	0.007555963	
0.1522401	-0.1437752	0.002445213	0.004796931	0.1115186	-0.2196632	-0.01888628	0.3783089	
0.00399278	0.005303026	0.08319659	0.007555963	-0.01888628	0.3783089	-0.001704977	-0.009199235	

4.06e+09	0.06992554	-0.250462	0.2409921	0.285691	0.1290122	-0.1696474	0.002805227	0.0005742488	
0.2409921	0.285691	0.03915453	-0.06978397	0.001544217	0.0008154484	0.1004869	-0.0509821	
0.1290122	-0.1696474	0.001544217	0.0008154484	0.09218747	-0.2474879	0.1983208	0.3171825	
0.002805227	0.0005742488	0.1004869	-0.0509821	0.1983208	0.3171825	0.03702105	-0.07435995	

4.08e+09	0.03182154	-0.2747735	0.3572457	0.09798609	0.09544134	-0.1841801	-0.0004933876	0.002289746	
0.3572457	0.09798609	-0.008014025	-0.1291416	-0.00150808	0.003028711	0.05976318	-0.09396495	
0.09544134	-0.1841801	-0.00150808	0.003028711	0.05978489	-0.279252	0.3392641	0.1475726	
-0.0004933876	0.002289746	0.05976318	-0.09396495	0.3392641	0.1475726	0.0001143822	-0.14247	

4.1e+09	-0.01843197	-0.2867382	0.3491443	-0.12052	0.06319645	-0.1846869	0.002996114	0.00634664	
0.3491443	-0.12052	-0.08425355	-0.1194813	0.002583133	0.007665886	0.003329028	-0.08150204	
0.06319645	-0.1846869	0.002583133	0.007665886	0.01064553	-0.3001913	0.3618485	-0.06863365	
0.002996114	0.00634664	0.003329028	-0.08150204	0.3618485	-0.06863365	-0.0785197	-0.1459489	

4.12e+09	-0.06830617	-0.2791443	0.219705	-0.2981423	0.03993348	-0.1792251	0.00986883	0.0030385	
0.219705	-0.2981423	-0.1161924	-0.04753555	0.0105439	0.004246746	-0.01561265	-0.02732755	
0.03993348	-0.1792251	0.0105439	0.004246746	-0.04155301	-0.2989964	0.2604433	-0.261838	
0.00986883	0.0030385	-0.01561265	-0.02732755	0.2604433	-0.261838	-0.1230888	-0.07853707	

4.14e+09	-0.1054276	-0.2604188	0.009485423	-0.3713989	0.02217179	-0.1775006	0.01006725	-0.005297534	
0.009485423	-0.3713989	-0.06878303	0.01702208	0.01119659	-0.00511108	0.02137233	0.0155319	
0.02217179	-0.1775006	0.01119659	-0.00511108	-0.08020287	-0.2834309	0.06447507	-0.3652835	
0.01006725	-0.005297534	0.02137233	0.0155319	0.06447507	-0.3652835	-0.08562543	-0.005012106	

4.16e+09	-0.1325796	-0.2445883	-0.2054242	-0.3087205	-0.001147388	-0.1796163	0.005004314	-0.009647293	
-0.2054242	-0.3087205	0.01038437	0.005872801	0.00551047	-0.01011658	0.07521676	0.00362371	
-0.001147388	-0.1796163	0.00551047	-0.01011658	-0.1061102	-0.2713186	-0.1570988	-0.3355226	
0.005004314	-0.009647293	0.07521676	0.00362371	-0.1570988	-0.3355226	-0.002941919	-0.003639456	

4.18e+09	-0.1634988	-0.2320322	-0.3429202	-0.1348725	-0.03361731	-0.1732689	0.0006919731	-0.0117827	
-0.3429202	-0.1348725	0.03856076	-0.06714055	0.0007247074	-0.011924	0.09071646	-0.04566134	
-0.03361731	-0.1732689	0.0007247074	-0.011924	-0.1362061	-0.2663992	-0.3185007	-0.1839606	
0.0006919731	-0.0117827	0.09071646	-0.04566134	-0.3185007	-0.1839606	0.03712244	-0.07435857	

4.2e+09	-0.2010165	-0.2102048	-0.357152	0.08304617	-0.06248838	-0.1527419	-0.006709632	-0.01361777	
-0.357152	0.08304617	-0.009118144	-0.1271735	-0.006365362	-0.01358242	0.05817519	-0.08328371	
-0.06248838	-0.1527419	-0.006365362	-0.01358242	-0.177635	-0.2535949	-0.3642786	0.02847744	
-0.006709632	-0.01361777	0.05817519	-0.08328371	-0.3642786	0.02847744	-0.003110955	-0.1429161	

4.22e+09	-0.2340383	-0.171604	-0.2477931	0.2707032	-0.07994022	-0.1253844	-0.01747154	-0.008326014	
-0.2477931	0.2707032	-0.08400593	-0.1174248	-0.01701605	-0.008715048	0.01107272	-0.07627347	
-0.07994022	-0.1253844	-0.01701605	-0.008715048	-0.2185661	-0.2210212	-0.285001	0.2287375	
-0.01747154	-0.008326014	0.01107272	-0.07627347	-0.285001	0.2287375	-0.08140023	-0.1435235	

4.24e+09	-0.2494363	-0.1229002	-0.05049283	0.3659934	-0.08743722	-0.100656	-0.02158266	0.006582009	
-0.05049283	0.3659934	-0.113328	-0.0485256	-0.02155625	0.005986182	-0.007869825	-0.03342195	
-0.08743722	-0.100656	-0.02155625	0.005986182	-0.2419457	-0.1736636	-0.1063889	0.3525993	
-0.02158266	0.006582009	-0.007869825	-0.03342195	-0.1063889	0.3525993	-0.1209281	-0.07677294	

4.26e+09	-0.247141	-0.08020562	0.1698873	0.33129	-0.09318898	-0.08195501	-0.01214064	0.0205287	
0.1698873	0.33129	-0.06866976	0.01016476	-0.01229021	0.02017416	0.01835169	0.00409032	
-0.09318898	-0.08195501	-0.01229021	0.02017416	-0.2443454	-0.1304135	0.1158087	0.3533354	
-0.01214064	0.0205287	0.01835169	0.00409032	0.1158087	0.3533354	-0.0826336	-0.01057095	

4.28e+09	-0.2415708	-0.04949948	0.3308514	0.1730605	-0.1035432	-0.06278211	0.003437663	0.02335031	
0.3308514	0.1730605	0.001853428	-0.0006502963	0.003380288	0.02285538	0.06166556	-0.0004214297	
-0.1035432	-0.06278211	0.003380288	0.02285538	-0.2418153	-0.1017491	0.2996643	0.2225909	
0.003437663	0.02335031	0.06166556	-0.0004214297	0.2996643	0.2225909	-0.008596397	-0.01312667	

4.3e+09	-0.2419843	-0.01963964	0.3693606	-0.04872038	-0.1129531	-0.03337248	0.01614636	0.01744442	
0.3693606	-0.04872038	0.02472409	-0.06484444	0.01552261	0.01665761	0.07848513	-0.0373985	
-0.1129531	-0.03337248	0.01552261	0.01665761	-0.2484495	-0.0758164	0.3721961	0.009603939	
0.01614636	0.01744442	0.07848513	-0.0373985	0.3721961	0.009603939	0.02217902	-0.07677564	

4.32e+09	-0.2385967	0.02146209	0.2747515	-0.2504784	-0.1089365	0.002700401	0.02498931	0.005872235	
0.2747515	-0.2504784	-0.01631772	-0.1133212	0.02353253	0.005767517	0.05828849	-0.06898733	
-0.1089365	0.002700401	0.02353253	0.005767517	-0.2554957	-0.03549841	0.3103684	-0.2037654	
0.02498931	0.005872235	0.05828849	-0.06898733	0.3103684	-0.2037654	-0.01513158	-0.1309386	

4.34e+09	-0.2175085	0.06616707	0.08329746	-0.3632006	-0.09142497	0.03181965	0.02602329	-0.01134064	
0.08329746	-0.3632006	-0.07588648	-0.1046023	0.02481106	-0.01014491	0.02176867	-0.07069431	
-0.09142497	0.03181965	0.02481106	-0.01014491	-0.2441496	0.01433411	0.140054	-0.3448769	
0.02602329	-0.01134064	0.02176867	-0.07069431	0.140054	-0.3448769	-0.07692409	-0.1276192	

4.36e+09	-0.1788643	0.09849418	-0.140359	-0.3479251	-0.06985723	0.04933365	0.01403695	-0.0274637	
-0.140359	-0.3479251	-0.09815029	-0.05203372	0.01403407	-0.02574993	0.0007708159	-0.04165987	
-0.06985723	0.04933365	0.01403407	-0.02574993	-0.2103888	0.05456699	-0.08250828	-0.3661181	
0.01403695	-0.0274637	0.0007708159	-0.04165987	-0.08250828	-0.3661181	-0.1041833	-0.07613904	

4.38e+09	-0.1380411	0.1103546	-0.3175976	-0.2047561	-0.05286792	0.05996688	-0.007417438	-0.03120762	
-0.3175976	-0.2047561	-0.0662049	-0.008410586	-0.006448855	-0.02995366	0.01373167	-0.008782443	
-0.05286792	0.05996688	-0.006448855	-0.02995366	-0.170385	0.07204352	-0.2809417	-0.2538503	
-0.007417438	-0.03120762	0.01373167	-0.008782443	-0.2809417	-0.2538503	-0.07530659	-0.02951233	

4.4e+09	-0.1086017	0.1124211	-0.3785869	0.01725774	-0.03958393	0.07327008	-0.02544924	-0.01928204	
-0.3785869	0.01725774	-0.01605475	-0.01362506	-0.02399645	-0.01865384	0.04714331	-0.002941638	
-0.03958393	0.07327008	-0.02399645	-0.01865384	-0.142931	0.07631806	-0.3774754	-0.04407603	
-0.02544924	-0.01928204	0.04714331	-0.002941638	-0.3774754	-0.04407603	-0.02460492	-0.03137982	

4.42e+09	-0.08509183	0.1196474	-0.2982276	0.2326658	-0.01979819	0.0909552	-0.03125499	2.727513e-05	
-0.2982276	0.2326658	0.002967573	-0.05608154	-0.02939013	-0.0002257045	0.06815246	-0.02765583	
-0.01979819	0.0909552	-0.02939013	-0.0002257045	-0.1248506	0.08729149	-0.3326895	0.1820667	
-0.03125499	2.727513e-05	0.06815246	-0.02765583	-0.3326895	0.1820667	-0.003210905	-0.0724679	

4.44e+09	-0.05233019	0.1301754	-0.1097352	0.3607283	0.01222383	0.1015771	-0.02545594	0.01817095	
-0.1097352	0.3607283	-0.02140723	-0.09155767	-0.02391787	0.01649984	0.05954999	-0.05725421	
0.01222383	0.1015771	-0.02391787	0.01649984	-0.09683738	0.1066844	-0.1669307	0.3390986	
-0.02545594	0.01817095	0.05954999	-0.05725421	-0.1669307	0.3390986	-0.02526173	-0.1086417	

4.46e+09	-0.007987914	0.1269289	0.1169065	0.3582475	0.04522953	0.09574436	-0.01034539	0.03042419	
0.1169065	0.3582475	-0.06006106	-0.09070796	-0.01040415	0.02791625	0.03066824	-0.06676961	
0.04522953	0.09574436	-0.01040415	0.02791625	-0.05123035	0.1146879	0.05734446	0.3734833	
-0.01034539	0.03042419	0.03066824	-0.06676961	0.05734446	0.3734833	-0.0626012	-0.1097516	

4.48e+09	0.03059392	0.1034093	0.3021395	0.2265807	0.06691573	0.08043458	0.01028637	0.03169773	
0.3021395	0.2265807	-0.08049884	-0.06141254	0.008503099	0.02993163	0.006087636	-0.04827669	
0.06691573	0.08043458	0.008503099	0.02993163	-0.006400022	0.09848827	0.2620663	0.2736816	
0.01028637	0.03169773	0.006087636	-0.04827669	0.2620663	0.2736816	-0.08345476	-0.08330924	

4.5e+09	0.05061871	0.07082352	0.3785879	0.01073362	0.07845769	0.0673034	0.02843265	0.01914054	
0.3785879	0.01073362	-0.06854091	-0.02993054	0.02611897	0.01895983	0.00899888	-0.01713017	
0.07845769	0.0673034	0.02611897	0.01895983	0.0191783	0.0679421	0.3732121	0.07255861	
0.02843265	0.01914054	0.00899888	-0.01713017	0.3732121	0.07255861	-0.0744234	-0.05351804	

4.52e+09	0.05611923	0.04634178	0.3149508	-0.2105547	0.08971972	0.06060333	0.03420568	-0.002774297	
0.3149508	-0.2105547	-0.03743187	-0.02260709	0.03233932	-0.001719453	0.03735983	-0.003559308	
0.08971972	0.06060333	0.03233932	-0.001719453	0.02624783	0.04486384	0.3464196	-0.1571064	
0.03420568	-0.002774297	0.03735983	-0.003559308	0.3464196	-0.1571064	-0.04672723	-0.04455999	

4.54e+09	0.06362227	0.03214768	0.1345863	-0.3527792	0.1077138	0.0524611	0.02470744	-0.02245368	
0.1345863	-0.3527792	-0.01537981	-0.04352779	0.02362662	-0.02054048	0.06264987	-0.02148039	
0.1077138	0.0524611	0.02362662	-0.02054048	0.0346554	0.03580409	0.1909612	-0.3274335	
0.02470744	-0.02245368	0.06264987	-0.02148039	0.1909612	-0.3274335	-0.02494498	-0.06140133	

4.56e+09	0.07931699	0.01407995	-0.09273399	-0.3640754	0.1263234	0.0331474	0.006813598	-0.0315568	
-0.09273399	-0.3640754	-0.02076214	-0.07245392	0.007059769	-0.02913486	0.05907507	-0.05220091	
0.1263234	0.0331474	0.007059769	-0.02913486	0.05574778	0.0246342	-0.03227601	-0.3756359	
0.006813598	-0.0315568	0.05907507	-0.05220091	-0.03227601	-0.3756359	-0.02659526	-0.08808775	

4.58e+09	0.09068849	-0.01773321	-0.2839033	-0.2441091	0.1324498	0.005153032	-0.01201235	-0.02980647	
-0.2839033	-0.2441091	-0.04714076	-0.084107	-0.01014083	-0.0279832	0.03175483	-0.06426796	
0.1324498	0.005153032	-0.01014083	-0.0279832	0.07699786	-0.004157116	-0.2409531	-0.2880745	
-0.01201235	-0.02980647	0.03175483	-0.06426796	-0.2409531	-0.2880745	-0.04916344	-0.1021997	

4.6e+09	0.08331399	-0.05355647	-0.3722831	-0.03702756	0.1252559	-0.01636194	-0.02759428	-0.01809849	
-0.3722831	-0.03702756	-0.0710043	-0.06955683	-0.02499615	-0.01797479	0.00708581	-0.0473275	
0.1252559	-0.01636194	-0.02499615	-0.01797479	0.0781947	-0.04324239	-0.3621629	-0.09785469	
-0.02759428	-0.01809849	0.00708581	-0.0473275	-0.3621629	-0.09785469	-0.07320964	-0.09230138	

4.62e+09	0.06224834	-0.07566651	-0.3259844	0.1839827	0.1168627	-0.02641117	-0.03408777	0.001905802	
-0.3259844	0.1839827	-0.07281681	-0.04178701	-0.03212738	0.0004822628	0.009371963	-0.01773273	
0.1168627	-0.02641117	-0.03212738	0.0004822628	0.06043064	-0.07001945	-0.3527432	0.1281789	
-0.03408777	0.001905802	0.009371963	-0.01773273	-0.3527432	0.1281789	-0.07940357	-0.06674568	

4.64e+09	0.04398198	-0.08137352	-0.1599721	0.3382707	0.1154045	-0.03285424	-0.02608069	0.02269559	
-0.1599721	0.3382707	-0.04968226	-0.02573084	-0.02531888	0.02060546	0.03671233	-0.005878523	
0.1154045	-0.03285424	-0.02531888	0.02060546	0.04291915	-0.07695239	-0.2141855	0.3080578	
-0.02608069	0.02269559	0.03671233	-0.005878523	-0.2141855	0.3080578	-0.06009422	-0.04766426	

4.66e+09	0.03801808	-0.08412633	0.06446747	0.3674882	0.1175077	-0.04558531	-0.006804517	0.03317842	
0.06446747	0.3674882	-0.0244416	-0.0378099	-0.007205073	0.03101099	0.05915684	-0.02461856	
0.1175077	-0.04558531	-0.007205073	0.03101099	0.04054346	-0.07828982	0.002924773	0.3740486	
-0.006804517	0.03317842	0.05915684	-0.02461856	0.002924773	0.3740486	-0.03355954	-0.05526091	

4.68e+09	0.03523586	-0.0966365	0.2630288	0.2623228	0.1125475	-0.06456096	0.01319607	0.03006006	
0.2630288	0.2623228	-0.0229503	-0.0653894	0.01156594	0.02833864	0.05190786	-0.0523738	
0.1125475	-0.06456096	0.01156594	0.02833864	0.04500474	-0.0920246	0.2164924	0.3027728	
0.01319607	0.03006006	0.05190786	-0.0523738	0.2164924	0.3027728	-0.02760138	-0.08249183	

4.7e+09	0.02134388	-0.11405	0.3648187	0.06388496	0.09654282	-0.07894344	0.02762273	0.01768314	
0.3648187	0.06388496	-0.04653762	-0.07989547	0.0251143	0.01727672	0.02442675	-0.05818569	
0.09654282	-0.07894344	0.0251143	0.01727672	0.03724362	-0.1158821	0.3495472	0.1236713	
0.02762273	0.01768314	0.02442675	-0.05818569	0.3495472	0.1236713	-0.04931703	-0.1009807	

4.72e+09	-0.00382631	-0.119889	0.3353751	-0.1569656	0.07854558	-0.08010735	0.03405443	-0.001293716	
0.3353751	-0.1569656	-0.06995072	-0.06656663	0.031809	-5.522793e-06	0.00808465	-0.03727329	
0.07854558	-0.08010735	0.031809	-5.522793e-06	0.01276932	-0.1300446	0.3571282	-0.09875184	
0.03405443	-0.001293716	0.00808465	-0.03727329	0.3571282	-0.09875184	-0.07579069	-0.09067681	

4.74e+09	-0.02321008	-0.1089144	0.1840745	-0.3216074	0.07091385	-0.07514152	0.02737114	-0.02227249	
0.1840745	-0.3216074	-0.06927562	-0.04082274	0.0264241	-0.01996917	0.01824958	-0.01433266	
0.07091385	-0.07514152	0.0264241	-0.01996917	-0.009906535	-0.1234231	0.2357338	-0.2863242	
0.02737114	-0.02227249	0.01824958	-0.01433266	0.2357338	-0.2863242	-0.07859623	-0.06319299	

4.76e+09	-0.025996	-0.09522123	-0.03526484	-0.3686672	0.07075632	-0.07581051	0.007982519	-0.03458986	
-0.03526484	-0.3686672	-0.0471195	-0.0307051	0.008473215	-0.03225669	0.0425312	-0.01398355	
0.07075632	-0.07581051	0.008473215	-0.03225669	-0.0139036	-0.109904	0.02738612	-0.3697472	
0.007982519	-0.03458986	0.0425312	-0.01398355	0.02738612	-0.3697472	-0.05582192	-0.04935234	

4.78e+09	-0.020404	-0.09319042	-0.2409079	-0.2799825	0.06714594	-0.08404004	-0.01416943	-0.03170585	
-0.2409079	-0.2799825	-0.02952414	-0.04620113	-0.01249607	-0.02997564	0.05254922	-0.03547026	
0.06714594	-0.08404004	-0.01249607	-0.02997564	-0.005568018	-0.1090479	-0.1904288	-0.3168015	
-0.01416943	-0.03170585	0.05254922	-0.03547026	-0.1904288	-0.3168015	-0.03425448	-0.06461362	

4.8e+09	-0.02219411	-0.1011129	-0.3569255	-0.09005094	0.05461584	-0.09083496	-0.02921737	-0.01734111	
-0.3569255	-0.09005094	-0.03654985	-0.06748489	-0.02670964	-0.01681345	0.03713285	-0.05264112	
0.05461584	-0.09083496	-0.02670964	-0.01681345	-0.004772242	-0.1226072	-0.3365066	-0.1489787	
-0.02921737	-0.01734111	0.03713285	-0.05264112	-0.3365066	-0.1489787	-0.03984154	-0.09007728	

4.82e+09	-0.03481955	-0.1041855	-0.3432547	0.1310762	0.03970976	-0.08804978	-0.0341705	0.002257622	
-0.3432547	0.1310762	-0.05828659	-0.06919303	-0.03170825	0.001090654	0.01518103	-0.04561726	
0.03970976	-0.08804978	-0.03170825	0.001090654	-0.0195355	-0.1329524	-0.3601737	0.07066326	
-0.0341705	0.002257622	0.01518103	-0.04561726	-0.3601737	0.07066326	-0.06543783	-0.09482212	

4.84e+09	-0.04535122	-0.09440148	-0.2053914	0.3047347	0.0331423	-0.07823017	-0.02721317	0.02256875	
-0.2053914	0.3047347	-0.06818499	-0.05012351	-0.02600401	0.02005472	0.01279489	-0.02330464	
0.0331423	-0.07823017	-0.02600401	0.02005472	-0.03609367	-0.1268759	-0.25437	0.2646992	
-0.02721317	0.02256875	0.01279489	-0.02330464	-0.25437	0.2646992	-0.0800458	-0.07296387	

4.86e+09	-0.04034205	-0.08191369	0.008467875	0.3672124	0.03670744	-0.07345029	-0.007689469	0.03503201	
0.008467875	0.3672124	-0.05358368	-0.0353051	-0.008291536	0.03236374	0.03232025	-0.01305954	
0.03670744	-0.07345029	-0.008291536	0.03236374	-0.03572622	-0.1129653	-0.05491941	0.3630091	
-0.007689469	0.03503201	0.03232025	-0.01305954	-0.05491941	0.3630091	-0.06430577	-0.05201806	

4.88e+09	-0.02724541	-0.08385275	0.218413	0.2937612	0.037849	-0.07955209	0.01492113	0.03169323	
0.218413	0.2937612	-0.0360372	-0.04447048	0.01294453	0.02994603	0.04792806	-0.02689597	
0.037849	-0.07955209	0.01294453	0.02994603	-0.02227053	-0.1132001	0.1644575	0.3268026	
0.01492113	0.03169323	0.04792806	-0.02689597	0.1644575	0.3268026	-0.03978856	-0.06015958	

4.9e+09	-0.02304278	-0.0989422	0.3460659	0.1135866	0.02918078	-0.08658393	0.02954172	0.01634088	
0.3460659	0.1135866	-0.03938156	-0.06451734	0.02693569	0.01601487	0.04133739	-0.04661019	
0.02918078	-0.08658393	0.02693569	0.01601487	-0.0164837	-0.1308861	0.320759	0.1712693	
0.02954172	0.01634088	0.04133739	-0.04661019	0.320759	0.1712693	-0.03915831	-0.08688774	

4.92e+09	-0.03322948	-0.112109	0.3470561	-0.1055099	0.01632011	-0.08515725	0.03303856	-0.003187886	
0.3470561	-0.1055099	-0.06031849	-0.06858664	0.03065962	-0.001909063	0.02082202	-0.04866348	
0.01632011	-0.08515725	0.03065962	-0.001909063	-0.02886585	-0.1489182	0.3590248	-0.04349636	
0.03303856	-0.003187886	0.02082202	-0.04866348	0.3590248	-0.04349636	-0.06482391	-0.09801256	

4.94e+09	-0.04681481	-0.1129095	0.2229439	-0.2852525	0.009071202	-0.07686055	0.02559834	-0.02177511	
0.2229439	-0.2852525	-0.0725644	-0.04933323	0.02445867	-0.01924777	0.0100165	-0.03073815	
0.009071202	-0.07686055	0.02445867	-0.01924777	-0.04835216	-0.1516901	0.2686886	-0.2408267	
0.02559834	-0.02177511	0.0100165	-0.03073815	0.2686886	-0.2408267	-0.08612438	-0.07757396	

4.96e+09	-0.05059614	-0.1079621	0.01772375	-0.3612254	0.00976646	-0.07104788	0.007750002	-0.0332826	
0.01772375	-0.3612254	-0.0584881	-0.02936531	0.008428208	-0.03060676	0.02130884	-0.01300901	
0.00976646	-0.07104788	0.008428208	-0.03060676	-0.05691399	-0.1439685	0.08119055	-0.351423	
0.007750002	-0.0332826	0.02130884	-0.01300901	0.08119055	-0.351423	-0.07510644	-0.04832862	

4.98e+09	-0.04692645	-0.1121263	-0.1937811	-0.3039413	0.01076455	-0.07439727	-0.01397243	-0.03075923	
-0.1937811	-0.3039413	-0.03320945	-0.03532739	-0.01187388	-0.02913966	0.0425729	-0.01645142	
0.01076455	-0.07439727	-0.01187388	-0.02913966	-0.05328818	-0.1444439	-0.1364828	-0.3327794	
-0.01397243	-0.03075923	0.0425729	-0.01645142	-0.1364828	-0.3327794	-0.04233992	-0.04718861	

5e+09	-0.05154292	-0.1285411	-0.3313908	-0.1354405	0.001763008	-0.08053971	-0.02815286	-0.01572121	
-0.3313908	-0.1354405	-0.02858782	-0.06372974	-0.02566387	-0.01562843	0.04779754	-0.03750906	
0.001763008	-0.08053971	-0.02566387	-0.01562843	-0.05538056	-0.1612023	-0.3012661	-0.1914845	
-0.02815286	-0.01572121	0.04779754	-0.03750906	-0.3012661	-0.1914845	-0.02746517	-0.07949412	

5.02e+09	-0.07248939	-0.1411097	-0.3466638	0.07863284	-0.01337173	-0.07747046	-0.03093648	0.00244562	
-0.3466638	0.07863284	-0.05499226	-0.08019401	-0.0288727	0.001184885	0.03072378	-0.05086513	
-0.01337173	-0.07747046	-0.0288727	0.001184885	-0.07701898	-0.1775551	-0.3535605	0.01549861	
-0.03093648	0.00244562	0.03072378	-0.05086513	-0.3535605	0.01549861	-0.05276996	-0.1073846	

5.04e+09	-0.09864702	-0.1384513	-0.2382921	0.2617878	-0.02348976	-0.06603984	-0.02459469	0.01899523	
-0.2382921	0.2617878	-0.08278421	-0.06295057	-0.02360024	0.01678422	0.01135643	-0.0423798	
-0.02348976	-0.06603984	-0.02360024	0.01678422	-0.1078807	-0.1768063	-0.2801686	0.2132768	
-0.02459469	0.01899523	0.01135643	-0.0423798	-0.2801686	0.2132768	-0.09037343	-0.09660894	

5.06e+09	-0.1156777	-0.1248331	-0.0450841	0.3506738	-0.02527505	-0.05490141	-0.009622861	0.03040874	
-0.0450841	0.3506738	-0.07951697	-0.02884755	-0.01013238	0.02803624	0.009626998	-0.02159317	
-0.02527505	-0.05490141	-0.01013238	0.02803624	-0.1294149	-0.1606723	-0.1079712	0.3348846	
-0.009622861	0.03040874	0.009626998	-0.02159317	-0.1079712	0.3348846	-0.09762592	-0.05686527	

5.08e+09	-0.1221201	-0.114438	0.1649015	0.3122745	-0.02473729	-0.05000814	0.01048587	0.03063195	
0.1649015	0.3122745	-0.04615755	-0.01618223	0.00871012	0.02908582	0.0266485	-0.01018353	
-0.02473729	-0.05000814	0.00871012	0.02908582	-0.1361698	-0.1462799	0.1041829	0.3361243	
0.01048587	0.03063195	0.0266485	-0.01018353	0.1041829	0.3361243	-0.06407193	-0.03211281	

5.1e+09	-0.1306634	-0.1128652	0.313588	0.1592781	-0.02971909	-0.04819454	0.02630437	0.0180981	
0.313588	0.1592781	-0.01945276	-0.0412271	0.02409598	0.01787634	0.04395082	-0.01947908	
-0.02971909	-0.04819454	0.02409598	0.01787634	-0.1422263	-0.1440752	0.2780309	0.2137341	
0.02630437	0.0180981	0.04395082	-0.01947908	0.2780309	0.2137341	-0.02648214	-0.05192931	

5.12e+09	-0.1507859	-0.1093113	0.3457404	-0.04974003	-0.04058072	-0.0406658	0.03090271	-0.0002824028	
0.3457404	-0.04974003	-0.03031829	-0.07724408	0.02903853	0.0006585708	0.04427793	-0.03919861	
-0.04058072	-0.0406658	0.02903853	0.0006585708	-0.162091	-0.1436584	0.3477304	0.01491105	
0.03090271	-0.0002824028	0.04427793	-0.03919861	0.3477304	0.01491105	-0.027847	-0.09504455	

5.14e+09	-0.1749856	-0.09047156	0.2536048	-0.2369873	-0.04711603	-0.02355282	0.0253393	-0.01694141	
0.2536048	-0.2369873	-0.06803582	-0.08504419	0.02422324	-0.01518814	0.02734011	-0.04884726	
-0.04711603	-0.02355282	0.02422324	-0.01518814	-0.1906145	-0.1272202	0.2919594	-0.1847617	
0.0253393	-0.01694141	0.02734011	-0.04884726	0.2919594	-0.1847617	-0.06695547	-0.1144888	

5.16e+09	-0.186682	-0.05878898	0.07292474	-0.3386062	-0.04326152	-0.005557278	0.0121483	-0.02881374	
0.07292474	-0.3386062	-0.09352714	-0.05495985	0.01215975	-0.02664886	0.01047657	-0.03961303	
-0.04326152	-0.005557278	0.01215975	-0.02664886	-0.2075236	-0.09322127	0.1349108	-0.3173216	
0.0121483	-0.02881374	0.01047657	-0.03961303	0.1349108	-0.3173216	-0.1031266	-0.0889223	

5.18e+09	-0.1825966	-0.02941069	-0.134244	-0.3196661	-0.03434851	0.005655567	-0.006972071	-0.03173721	
-0.134244	-0.3196661	-0.07932067	-0.01850228	-0.005676299	-0.02992643	0.009450058	-0.02126912	
-0.03434851	0.005655567	-0.005676299	-0.02992643	-0.2049274	-0.0589943	-0.07062501	-0.3383578	
-0.006972071	-0.03173721	0.009450058	-0.02126912	-0.07062501	-0.3383578	-0.09786639	-0.04569825	

5.2e+09	-0.1738269	-0.01124088	-0.2939715	-0.1841936	-0.02810666	0.01139579	-0.02510252	-0.02179054	
-0.2939715	-0.1841936	-0.04080709	-0.01390776	-0.02301336	-0.02107308	0.02398101	-0.01111585	
-0.02810666	0.01139579	-0.02301336	-0.02107308	-0.1941217	-0.03833151	-0.2529574	-0.2367134	
-0.02510252	-0.02179054	0.02398101	-0.01111585	-0.2529574	-0.2367134	-0.0578012	-0.03041068	

5.22e+09	-0.1717859	0.002878569	-0.3455371	0.01901606	-0.02595814	0.01894289	-0.03315285	-0.002486957	
-0.3455371	0.01901606	-0.01903849	-0.04511433	-0.03105859	-0.003039849	0.03936502	-0.01749352	
-0.02595814	0.01894289	-0.03105859	-0.003039849	-0.1913011	-0.02562697	-0.3426041	-0.04741836	
-0.03315285	-0.002486957	0.03936502	-0.01749352	-0.3426041	-0.04741836	-0.02644149	-0.05804741	

5.24e+09	-0.1726938	0.0255936	-0.2705024	0.2132469	-0.02153056	0.03230814	-0.0281057	0.01716926	
-0.2705024	0.2132469	-0.03565452	-0.07802009	-0.02660391	0.01558346	0.04217212	-0.03322196	
-0.02153056	0.03230814	-0.02660391	0.01558346	-0.1955992	-0.00399476	-0.3061008	0.157382	
-0.0281057	0.01716926	0.04217212	-0.03322196	-0.3061008	0.157382	-0.03566681	-0.09709641	

5.26e+09	-0.1624221	0.05774011	-0.099201	0.3283624	-0.008145036	0.04694465	-0.01321366	0.03008728	
-0.099201	0.3283624	-0.07126436	-0.08032344	-0.012774	0.02782381	0.0309273	-0.04500959	
-0.008145036	0.04694465	-0.012774	0.02782381	-0.1900949	0.03133368	-0.1604699	0.3028193	
-0.01321366	0.03008728	0.0309273	-0.04500959	-0.1604699	0.3028193	-0.07243525	-0.1082025	

5.28e+09	-0.1345235	0.0846484	0.106216	0.3258348	0.01233054	0.05278698	0.006470834	0.03276413	
0.106216	0.3258348	-0.09114921	-0.0522439	0.005452032	0.03049039	0.01419512	-0.04202219	
0.01233054	0.05278698	0.005452032	0.03049039	-0.1633735	0.06494815	0.04095704	0.340143	
0.006470834	0.03276413	0.01419512	-0.04202219	0.04095704	0.340143	-0.0997247	-0.08406527	

5.3e+09	-0.100366	0.09434893	0.2743973	0.2063531	0.02991388	0.04914943	0.02503004	0.02340058	
0.2743973	0.2063531	-0.07830897	-0.02186426	0.02272465	0.02215749	0.006849654	-0.02644946	
0.02991388	0.04914943	0.02272465	0.02215749	-0.125545	0.07951969	0.2291343	0.2561378	
0.02503004	0.02340058	0.006849654	-0.02644946	0.2291343	0.2561378	-0.09395456	-0.04997756	

5.32e+09	-0.07412979	0.09246294	0.3436209	0.01045715	0.04078833	0.04376463	0.03469455	0.003845332	
0.3436209	0.01045715	-0.04740946	-0.01766911	0.03208742	0.004275391	0.01570886	-0.01174147	
0.04078833	0.04376463	0.03208742	0.004275391	-0.09566312	0.07796535	0.3357576	0.07742935	
0.03469455	0.003845332	0.01570886	-0.01174147	0.3357576	0.07742935	-0.06388296	-0.03838476	

5.34e+09	-0.05608222	0.09256629	0.2861125	-0.1897042	0.05004379	0.04187725	0.03007927	-0.01794793	
0.2861125	-0.1897042	-0.02883678	-0.04062233	0.02824723	-0.0160832	0.03302515	-0.01095272	
0.05004379	0.04187725	0.02824723	-0.0160832	-0.07776465	0.07733154	0.3184743	-0.1308042	
0.03007927	-0.01794793	0.03302515	-0.01095272	0.3184743	-0.1308042	-0.04000142	-0.05672664	

5.36e+09	-0.03385909	0.09833393	0.123889	-0.3187612	0.06378873	0.04012639	0.01315219	-0.03207632	
0.123889	-0.3187612	-0.03784019	-0.0669641	0.01270829	-0.02948707	0.04322549	-0.02495926	
0.06378873	0.04012639	0.01270829	-0.02948707	-0.05741818	0.08593238	0.1839696	-0.289454	
0.01315219	-0.03207632	0.04322549	-0.02495926	0.1839696	-0.289454	-0.04234772	-0.08464023	

5.38e+09	-0.0005888026	0.09835424	-0.08152833	-0.3306779	0.08108648	0.03148883	-0.008184569	-0.03307231	
-0.08152833	-0.3306779	-0.06337029	-0.0734411	-0.007012286	-0.03061725	0.03678446	-0.0419934	
0.08108648	0.03148883	-0.007012286	-0.03061725	-0.02259496	0.09178271	-0.01574656	-0.3411167	
-0.008184569	-0.03307231	0.03678446	-0.0419934	-0.01574656	-0.3411167	-0.06511872	-0.09742025	

5.4e+09	0.03538384	0.08110228	-0.2557919	-0.2234561	0.09405133	0.01349101	-0.02545304	-0.0218236	
-0.2557919	-0.2234561	-0.08266882	-0.05788533	-0.02294337	-0.02050653	0.01784381	-0.04654055	
0.09405133	0.01349101	-0.02294337	-0.02050653	0.01954876	0.07847579	-0.2078773	-0.269642	
-0.02545304	-0.0218236	0.01784381	-0.04654055	-0.2078773	-0.269642	-0.08774689	-0.08805373	

5.42e+09	0.05777077	0.05017512	-0.3375615	-0.03613451	0.09595089	-0.006620186	-0.03328617	-0.003193367	
-0.3375615	-0.03613451	-0.08196773	-0.033584	-0.03044207	-0.003748603	0.002958826	-0.03179261	
0.09595089	-0.006620186	-0.03044207	-0.003748603	0.04876283	0.04624025	-0.3247894	-0.1015339	
-0.03328617	-0.003193367	0.002958826	-0.03179261	-0.3247894	-0.1015339	-0.09443136	-0.06507089	

5.44e+09	0.06423525	0.02126617	-0.2967696	0.1649086	0.09194273	-0.02081295	-0.0291115	0.0169569	
-0.2967696	0.1649086	-0.06239795	-0.02015399	-0.02727991	0.01477481	0.007657011	-0.01098342	
0.09194273	-0.02081295	-0.02727991	0.01477481	0.05788823	0.0135328	-0.324104	0.103996	
-0.0291115	0.0169569	0.007657011	-0.01098342	-0.324104	0.103996	-0.08047263	-0.04590078	

5.46e+09	0.06691561	0.001769544	-0.1467668	0.3055046	0.08950301	-0.03072229	-0.01328697	0.03101578	
-0.1467668	0.3055046	-0.04023929	-0.02862829	-0.01316776	0.02830281	0.02820936	-0.004512499	
0.08950301	-0.03072229	-0.01316776	0.02830281	0.06026791	-0.007102674	-0.2042071	0.2716819	
-0.01328697	0.03101578	0.02820936	-0.004512499	-0.2042071	0.2716819	-0.05637394	-0.04615797	

5.48e+09	0.07534512	-0.01654364	0.05628859	0.3327628	0.08883102	-0.04282025	0.007799949	0.03224605	
0.05628859	0.3327628	-0.03459156	-0.05218295	0.006384896	0.03007471	0.04417526	-0.0190203	
0.08883102	-0.04282025	0.006384896	0.03007471	0.07043279	-0.02353231	-0.009735668	0.3381799	
0.007799949	0.03224605	0.04417526	-0.0190203	-0.009735668	0.3381799	-0.04220267	-0.06696485	

5.5e+09	0.08398112	-0.04475889	0.2362443	0.2384315	0.08383298	-0.05878557	0.02442265	0.02085597	
0.2362443	0.2384315	-0.0513071	-0.07054046	0.02207376	0.01990043	0.03965102	-0.03980218	
0.08383298	-0.05878557	0.02207376	0.01990043	0.08456997	-0.05138297	0.1854865	0.280282	
0.02442265	0.02085597	0.03965102	-0.03980218	0.1854865	0.280282	-0.05180667	-0.09160528	

5.52e+09	0.07962676	-0.08083947	0.3287281	0.05950298	0.07066396	-0.07369542	0.03096358	0.003272216	
0.3287281	0.05950298	-0.07674778	-0.06688062	0.02852284	0.003861204	0.01930645	-0.04702722	
0.07066396	-0.07369542	0.02852284	0.003861204	0.08579112	-0.09170726	0.3107333	0.1226141	
0.03096358	0.003272216	0.01930645	-0.04702722	0.3107333	0.1226141	-0.07902926	-0.09769755	

5.54e+09	0.05837506	-0.1113344	0.302738	-0.1392311	0.0519623	-0.08053089	0.02733146	-0.01427761	
0.302738	-0.1392311	-0.08900608	-0.04352661	0.02575321	-0.01237924	0.002320274	-0.03350074	
0.0519623	-0.08053089	0.02575321	-0.01237924	0.0661217	-0.1290687	0.3238828	-0.07678353	
0.02733146	-0.01427761	0.002320274	-0.03350074	0.3238828	-0.07678353	-0.1008137	-0.07817096	

5.56e+09	0.03173349	-0.1254279	0.1678774	-0.2877026	0.03593213	-0.07865297	0.01485733	-0.02761152	
0.1678774	-0.2877026	-0.07570045	-0.01901464	0.01474559	-0.02524618	0.005048834	-0.01186551	
0.03593213	-0.07865297	0.01474559	-0.02524618	0.03692388	-0.1478078	0.2214112	-0.2483406	
0.01485733	-0.02761152	0.005048834	-0.01186551	0.2214112	-0.2483406	-0.09600518	-0.04719879	

5.58e+09	0.01270803	-0.1301209	-0.02853349	-0.3316047	0.02531895	-0.07523809	-0.004009555	-0.03167221	
-0.02853349	-0.3316047	-0.04711196	-0.01773638	-0.002804148	-0.0298315	0.02426368	-0.003905612	
0.02531895	-0.07523809	-0.002804148	-0.0298315	0.01584795	-0.1532528	0.0381393	-0.3303859	
-0.004009555	-0.03167221	0.02426368	-0.003905612	0.0381393	-0.3303859	-0.0657951	-0.0351018	

5.6e+09	-0.0004434623	-0.1380893	-0.213878	-0.2536287	0.01540808	-0.07388958	-0.02186713	-0.02327798	
-0.213878	-0.2536287	-0.03135054	-0.04260062	-0.02001486	-0.02247208	0.03970871	-0.01622342	
0.01540808	-0.07388958	-0.02001486	-0.02247208	0.004056762	-0.1618292	-0.1588799	-0.2909229	
-0.02186713	-0.02327798	0.03970871	-0.01622342	-0.1588799	-0.2909229	-0.03959365	-0.05635697	

5.62e+09	-0.01952932	-0.1508209	-0.3192995	-0.08394538	0.002237365	-0.07099676	-0.03092974	-0.00632084	
-0.3192995	-0.08394538	-0.04527584	-0.06916238	-0.02903479	-0.00657523	0.0369214	-0.03427467	
0.002237365	-0.07099676	-0.02903479	-0.00657523	-0.01303216	-0.1787455	-0.2954672	-0.1457724	
-0.03092974	-0.00632084	0.0369214	-0.03427467	-0.2954672	-0.1457724	-0.04543039	-0.09048559	

5.64e+09	-0.04931718	-0.1568914	-0.3084773	0.1138033	-0.01177111	-0.0617063	-0.02906647	0.01211706	
-0.3084773	0.1138033	-0.07534583	-0.07043342	-0.02759102	0.0109352	0.02139294	-0.04052044	
-0.01177111	-0.0617063	-0.02759102	0.0109352	-0.04454931	-0.191137	-0.3239403	0.04916488	
-0.02906647	0.01211706	0.02139294	-0.04052044	-0.3239403	0.04916488	-0.07822464	-0.1023876	

5.66e+09	-0.08034938	-0.146822	-0.1874479	0.2695014	-0.02142203	-0.04587697	-0.01766025	0.02681371	
-0.1874479	0.2695014	-0.09173267	-0.04541682	-0.01702231	0.02501938	0.008448617	-0.03220421	
-0.02142203	-0.04587697	-0.01702231	0.02501938	-0.0812457	-0.1850829	-0.237465	0.2247951	
-0.01766025	0.02681371	0.008448617	-0.03220421	-0.237465	0.2247951	-0.1049466	-0.08006375	

5.68e+09	-0.09936563	-0.1250989	0.001226871	0.3284777	-0.02225018	-0.02820396	0.0009443849	0.0332686	
0.001226871	0.3284777	-0.07924594	-0.01936204	0.0005007377	0.03138701	0.008040688	-0.01799203	
-0.02225018	-0.02820396	0.0005007377	0.03138701	-0.1061841	-0.162886	-0.06617681	0.320683	
0.0009443849	0.0332686	0.008040688	-0.01799203	-0.06617681	0.320683	-0.09955191	-0.0466971	

5.7e+09	-0.1039428	-0.1064769	0.1904647	0.2678811	-0.01713929	-0.01511031	0.02112587	0.02719314	
0.1904647	0.2678811	-0.05116287	-0.01712879	0.01971246	0.02586319	0.01818573	-0.01051139	
-0.01713929	-0.01511031	0.01971246	0.02586319	-0.1130844	-0.1416584	0.1307059	0.3008757	
0.02112587	0.02719314	0.01818573	-0.01051139	0.1307059	0.3008757	-0.06840759	-0.03514163	

5.72e+09	-0.1066834	-0.09697237	0.309646	0.1084547	-0.01216331	-0.005731398	0.03383019	0.009287901	
0.309646	0.1084547	-0.0368341	-0.03987482	0.03193754	0.008920726	0.02800684	-0.01417121	
-0.01216331	-0.005731398	0.03193754	0.008920726	-0.1158338	-0.1319902	0.2800527	0.1699	
0.03383019	0.009287901	0.02800684	-0.01417121	0.2800527	0.1699	-0.04488724	-0.05663361	

5.74e+09	-0.1155346	-0.08801376	0.314171	-0.08957102	-0.007142751	0.004387379	0.03285097	-0.01277636	
0.314171	-0.08957102	-0.04934561	-0.0620804	0.03100569	-0.01211356	0.03059325	-0.02252316	
-0.007142751	0.004387379	0.03100569	-0.01211356	-0.1267519	-0.1252565	0.3251797	-0.02239604	
0.03285097	-0.01277636	0.03059325	-0.02252316	0.3251797	-0.02239604	-0.05254259	-0.08601105	

5.76e+09	-0.1247358	-0.07060084	0.2048496	-0.2525444	0.001978157	0.01487908	0.01916085	-0.02954348	
0.2048496	-0.2525444	-0.07309587	-0.06216548	0.01783299	-0.02791149	0.02698196	-0.02905333	
0.001978157	0.01487908	0.01783299	-0.02791149	-0.1411205	-0.108403	0.2523895	-0.2035145	
0.01916085	-0.02954348	0.02698196	-0.02905333	0.2523895	-0.2035145	-0.08008099	-0.09313562	

5.78e+09	-0.1240071	-0.04675946	0.02335601	-0.3240093	0.01526873	0.02257897	-0.001187097	-0.03582234	
0.02335601	-0.3240093	-0.08383112	-0.04295395	-0.001386632	-0.03350332	0.02011308	-0.03100458	
0.01526873	0.02257897	-0.001386632	-0.03350332	-0.1456852	-0.08118731	0.09111008	-0.3109676	
-0.001187097	-0.03582234	0.02011308	-0.03100458	0.09111008	-0.3109676	-0.098132	-0.07384041	

5.8e+09	-0.1089888	-0.02723458	-0.1675938	-0.2791436	0.03229929	0.02579896	-0.02288913	-0.0294766	
-0.1675938	-0.2791436	-0.07345873	-0.02682394	-0.02154818	-0.02733374	0.0134497	-0.02843121	
0.03229929	0.02579896	-0.02154818	-0.02733374	-0.1325834	-0.05567846	-0.104191	-0.3081734	
-0.02288913	-0.0294766	0.0134497	-0.02843121	-0.104191	-0.3081734	-0.09026318	-0.05179887	

5.82e+09	-0.08956472	-0.02251372	-0.2984831	-0.1310871	0.04909266	0.0210239	-0.03731083	-0.009962518	
-0.2984831	-0.1310871	-0.05808347	-0.02847994	-0.03481598	-0.009081861	0.009564849	-0.02128574	
0.04909266	0.0210239	-0.03481598	-0.009081861	-0.1111105	-0.04647852	-0.2638171	-0.1918855	
-0.03731083	-0.009962518	0.009564849	-0.02128574	-0.2638171	-0.1918855	-0.07115482	-0.04982314	

5.84e+09	-0.07879617	-0.02647192	-0.318938	0.06587475	0.06127939	0.01273163	-0.03653974	0.01521002	
-0.318938	0.06587475	-0.05413719	-0.03954993	-0.03402848	0.01434621	0.0120735	-0.01179109	
0.06127939	0.01273163	-0.03402848	0.01434621	-0.09854693	-0.04949931	-0.326099	-0.003699635	
-0.03653974	0.01521002	0.0120735	-0.01179109	-0.326099	-0.003699635	-0.06335949	-0.06278706	

5.86e+09	-0.07395337	-0.02646458	-0.2212921	0.2377223	0.07229988	0.004535547	-0.01991281	0.03515282	
-0.2212921	0.2377223	-0.06049606	-0.04525683	-0.01843543	0.03301337	0.02268904	-0.006988732	
0.07229988	0.004535547	-0.01843543	0.03301337	-0.09475657	-0.04819759	-0.2674194	0.185239	
-0.01991281	0.03515282	0.02268904	-0.006988732	-0.2674194	0.185239	-0.07034577	-0.07198538	

5.88e+09	-0.06386658	-0.02275443	-0.04277608	0.3207199	0.08498281	-0.007161151	0.006324266	0.04048299	
-0.04277608	0.3207199	-0.06492468	-0.04295641	0.006328725	0.03790024	0.03485367	-0.01421501	
0.08498281	-0.007161151	0.006328725	0.03790024	-0.08529457	-0.03962862	-0.1107439	0.3047628	
0.006324266	0.04048299	0.03485367	-0.01421501	-0.1107439	0.3047628	-0.07764525	-0.0697895	

5.9e+09	-0.04652734	-0.02660334	0.1499061	0.2850453	0.0952231	-0.02654198	0.03024845	0.02760611	
0.1499061	0.2850453	-0.06379467	-0.04190526	0.02874666	0.02540071	0.03560057	-0.03102902	
0.0952231	-0.02654198	0.02874666	0.02540071	-0.06381952	-0.03753258	0.08552416	0.3115339	
0.03024845	0.02760611	0.03560057	-0.03102902	0.08552416	0.3115339	-0.07668632	-0.06631073	

5.92e+09	-0.03273946	-0.04381155	0.2855152	0.1453204	0.09706388	-0.05098561	0.04021095	0.002866626	
0.2855152	0.1453204	-0.0650823	-0.0453514	0.0375269	0.00193971	0.01896281	-0.04206647	
0.09706388	-0.05098561	0.0375269	0.00193971	-0.04226097	-0.05305326	0.2487139	0.2037875	
0.04021095	0.002866626	0.01896281	-0.04206647	0.2487139	0.2037875	-0.07530501	-0.0696844	

5.94e+09	-0.03235804	-0.06753643	0.3153519	-0.04593629	0.0894635	-0.07460698	0.03292489	-0.02186365	
0.3153519	-0.04593629	-0.07344922	-0.04527467	0.03018565	-0.02081047	-0.001930973	-0.03244459	
0.0894635	-0.07460698	0.03018565	-0.02081047	-0.0356879	-0.07989351	0.318903	0.02256052	
0.03292489	-0.02186365	-0.001930973	-0.03244459	0.318903	0.02256052	-0.08300356	-0.07304885	

5.96e+09	-0.04486492	-0.08469934	0.2298801	-0.218377	0.07559541	-0.09269243	0.01288566	-0.03682037	
0.2298801	-0.218377	-0.07885185	-0.03382853	0.01153778	-0.03431948	-0.004414288	-0.007050639	
0.07559541	-0.09269243	0.01153778	-0.03431948	-0.04584588	-0.1012545	0.2719921	-0.1645815	
0.01288566	-0.03682037	-0.004414288	-0.007050639	0.2719921	-0.1645815	-0.09228672	-0.06375948	

5.98e+09	-0.05820115	-0.09156897	0.06121418	-0.3094944	0.06077483	-0.1069135	-0.01216201	-0.03699096	
0.06121418	-0.3094944	-0.06890101	-0.02061887	-0.01168818	-0.03443227	0.01747344	0.009229078	
0.06077483	-0.1069135	-0.01168818	-0.03443227	-0.05846916	-0.1098257	0.126501	-0.2898802	
-0.01216201	-0.03699096	0.01747344	0.009229078	0.126501	-0.2898802	-0.08633479	-0.04736489	

6e+09	-0.06631551	-0.09732433	-0.1282695	-0.2860799	0.04353804	-0.1212502	-0.03240311	-0.02123632	
-0.1282695	-0.2860799	-0.04936038	-0.02426692	-0.03074162	-0.01958457	0.04389396	-0.00237191	
0.04353804	-0.1212502	-0.03074162	-0.01958457	-0.06343335	-0.1160557	-0.06401275	-0.3077532	
-0.03240311	-0.02123632	0.04389396	-0.00237191	-0.06401275	-0.3077532	-0.06528304	-0.04542361	

6.02e+09	-0.07654294	-0.10895	-0.2677513	-0.1580325	0.01932883	-0.1335384	-0.0375587	0.003854815	
-0.2677513	-0.1580325	-0.04289812	-0.0467659	-0.03540283	0.004365739	0.04706991	-0.03271444	
0.01932883	-0.1335384	-0.03540283	0.004365739	-0.06826989	-0.1312571	-0.2280829	-0.2122447	
-0.0375587	0.003854815	0.04706991	-0.03271444	-0.2280829	-0.2122447	-0.05241063	-0.06698611	

6.04e+09	-0.09788914	-0.1206676	-0.3069594	0.02480521	-0.01091227	-0.1374876	-0.02572235	0.02513647	
-0.3069594	0.02480521	-0.06204637	-0.06545183	-0.02361355	0.02438432	0.02148472	-0.05139616	
-0.01091227	-0.1374876	-0.02361355	0.02438432	-0.0865092	-0.1508093	-0.3053829	-0.04172366	
-0.02572235	0.02513647	0.02148472	-0.05139616	-0.3053829	-0.04172366	-0.06757902	-0.09156154	

6.06e+09	-0.1283791	-0.1209784	-0.2350447	0.1947916	-0.04110314	-0.1314013	-0.005067296	0.0336051	
-0.2350447	0.1947916	-0.09067409	-0.05703424	-0.003814848	0.03172849	-0.009157519	-0.03867872	
-0.04110314	-0.1314013	-0.003814848	0.03172849	-0.1187443	-0.1595401	-0.271463	0.1393933	
-0.005067296	0.0336051	-0.009157519	-0.03867872	-0.271463	0.1393933	-0.09969534	-0.08995531	

6.08e+09	-0.1568124	-0.1066096	-0.0803715	0.2923848	-0.06730387	-0.1179484	0.01494878	0.02887489	
-0.0803715	0.2923848	-0.09901819	-0.02501868	0.01477911	0.02676238	-0.01470839	-0.004810285	
-0.06730387	-0.1179484	0.01477911	0.02676238	-0.1517467	-0.1506384	-0.1419837	0.2677084	
0.01494878	0.02887489	-0.01470839	-0.004810285	-0.1419837	0.2677084	-0.1161587	-0.05837093	

6.1e+09	-0.1745301	-0.08493557	0.1017256	0.2841712	-0.08906988	-0.1009944	0.02849646	0.01435966	
0.1017256	0.2841712	-0.072936	-8.932084e-18	0.02732229	0.01296189	0.01224196	0.01824202	
-0.08906988	-0.1009944	0.02732229	0.01296189	-0.1733736	-0.1316454	0.0370102	0.2995221	
0.02849646	0.01435966	0.01224196	0.01824202	0.0370102	0.2995221	-0.09465594	-0.0261437	

6.12e+09	-0.1855979	-0.06586951	0.2455534	0.1725906	-0.1096055	-0.08122226	0.03104225	-0.00577576	
0.2455534	0.1725906	-0.03645733	-0.01152294	0.02963563	-0.006377138	0.04620232	0.006653905	
-0.1096055	-0.08122226	0.02963563	-0.006377138	-0.1864674	-0.1158401	0.2017783	0.2223276	
0.03104225	-0.00577576	0.04620232	0.006653905	0.2017783	0.2223276	-0.05380694	-0.0300224	

6.14e+09	-0.1989356	-0.04798061	0.2975595	-0.0005298825	-0.1286359	-0.05494748	0.02017332	-0.02312023	
0.2975595	-0.0005298825	-0.02910218	-0.05095954	0.01864777	-0.02320974	0.05325536	-0.02894901	
-0.1286359	-0.05494748	0.01864777	-0.02320974	-0.2033007	-0.1036316	0.2903504	0.06478395	
0.02017332	-0.02312023	0.05325536	-0.02894901	0.2903504	0.06478395	-0.0375269	-0.06978252	

6.16e+09	-0.2147534	-0.02192747	0.2408299	-0.1695723	-0.1408953	-0.02125811	0.001566916	-0.02906379	
0.2408299	-0.1695723	-0.06118017	-0.07763455	-8.757034e-05	-0.02834686	0.02640813	-0.05351036	
-0.1408953	-0.02125811	-8.757034e-05	-0.02834686	-0.2267674	-0.08302996	0.2718987	-0.1121241	
0.001566916	-0.02906379	0.02640813	-0.05351036	0.2718987	-0.1121241	-0.06548498	-0.104473	

6.18e+09	-0.2231658	0.01587928	0.09962632	-0.2744362	-0.1430236	0.01520908	-0.01519025	-0.02280267	
0.09962632	-0.2744362	-0.1014852	-0.06309525	-0.01625805	-0.02105064	-0.008794095	-0.04397021	
-0.1430236	0.01520908	-0.01625805	-0.02105064	-0.2455553	-0.04666454	0.1579067	-0.2448356	
-0.01519025	-0.02280267	-0.008794095	-0.04397021	0.1579067	-0.2448356	-0.1104942	-0.09761958	

6.2e+09	-0.2158329	0.05811497	-0.07478477	-0.2802742	-0.1369213	0.05059441	-0.02447726	-0.009073846	
-0.07478477	-0.2802742	-0.1100748	-0.01990476	-0.02429224	-0.006979455	-0.02074017	-0.00859086	
-0.1369213	0.05059441	-0.02429224	-0.006979455	-0.2475754	-0.001512371	-0.009806175	-0.289504	
-0.02447726	-0.009073846	-0.02074017	-0.00859086	-0.009806175	-0.289504	-0.1280024	-0.05459763	

6.22e+09	-0.1945756	0.0947748	-0.2206446	-0.1854055	-0.1239369	0.08479784	-0.0242335	0.007247352	
-0.2206446	-0.1854055	-0.07673774	0.01064824	-0.02303524	0.008883941	0.003545236	0.02136181	
-0.1239369	0.08479784	-0.02303524	0.008883941	-0.2332433	0.0395339	-0.1729606	-0.2305295	
-0.0242335	0.007247352	0.003545236	0.02136181	-0.1729606	-0.2305295	-0.09959624	-0.01672031	

6.24e+09	-0.1647376	0.1220775	-0.2836592	-0.02546562	-0.1012242	0.1184764	-0.01285046	0.01931955	
-0.2836592	-0.02546562	-0.0326333	-0.004499222	-0.01094108	0.02044786	0.04256089	0.01494632	
-0.1012242	0.1184764	-0.01094108	0.02044786	-0.2094763	0.07192406	-0.2706635	-0.08909432	
-0.01285046	0.01931955	0.04256089	0.01494632	-0.2706635	-0.08909432	-0.05157424	-0.0240166	

6.26e+09	-0.1339789	0.1350589	-0.2480681	0.1381864	-0.06770817	0.139007	-0.001503783	0.01927944	
-0.2480681	0.1381864	-0.02625672	-0.04780031	0.001446872	0.01909125	0.05451104	-0.01934835	
-0.06770817	0.139007	0.001446872	0.01909125	-0.1823959	0.09058179	-0.273234	0.07803902	
-0.001503783	0.01927944	0.05451104	-0.01934835	-0.273234	0.07803902	-0.03737684	-0.06685058	

6.28e+09	-0.1124821	0.1523442	-0.1238834	0.2574107	-0.04085755	0.1538781	0.008809398	0.01964305	
-0.1238834	0.2574107	-0.05614703	-0.07621166	0.01114364	0.01719713	0.03607589	-0.04833787	
-0.04085755	0.1538781	0.01114364	0.01719713	-0.1668808	0.1118014	-0.1799687	0.2225604	
0.008809398	0.01964305	0.03607589	-0.04833787	-0.1799687	0.2225604	-0.06216149	-0.1006873	

6.3e+09	-0.07412033	0.1737727	0.04770515	0.2797922	-0.005232295	0.1679885	0.02037693	0.0101569	
0.04770515	0.2797922	-0.09840177	-0.06768025	0.02058625	0.006526387	-0.0009813774	-0.05078752	
-0.005232295	0.1679885	0.02058625	0.006526387	-0.1351563	0.1433241	-0.01823607	0.2841554	
0.02037693	0.0101569	-0.0009813774	-0.05078752	-0.01823607	0.2841554	-0.1057573	-0.1000447	

6.32e+09	-0.02323788	0.1756092	0.1977704	0.1992672	0.03501019	0.1680825	0.0216317	-0.005360518	
0.1977704	0.1992672	-0.1147418	-0.02649024	0.01930994	-0.008387787	-0.02485591	-0.01928022	
0.03501019	0.1680825	0.01930994	-0.008387787	-0.08482813	0.1587356	0.1470084	0.2412359	
0.0216317	-0.005360518	-0.02485591	-0.01928022	0.1470084	0.2412359	-0.1294549	-0.06260883	

6.34e+09	0.01398033	0.157049	0.2731102	0.05153559	0.06418749	0.1567468	0.01228018	-0.01541564	
0.2731102	0.05153559	-0.08794203	0.01072003	0.008498792	-0.01620568	-0.01035966	0.02025326	
0.06418749	0.1567468	0.008498792	-0.01620568	-0.04068657	0.1501657	0.2565742	0.1140733	
0.01228018	-0.01541564	-0.01035966	0.02025326	0.2565742	0.1140733	-0.1105736	-0.02163356	

6.36e+09	0.03807857	0.1483923	0.2552802	-0.1126984	0.08674841	0.1554536	0.003308853	-0.01819661	
0.2552802	-0.1126984	-0.04205152	0.006585093	-1.869369e-05	-0.01647799	0.03253089	0.02767617	
0.08674841	0.1554536	-1.869369e-05	-0.01647799	-0.01195761	0.1437836	0.2768199	-0.05269106	
0.003308853	-0.01819661	0.03253089	0.02767617	0.2768199	-0.05269106	-0.06595353	-0.01618753	

6.38e+09	0.07694805	0.1394487	0.1430571	-0.2406962	0.126812	0.1503649	-0.008529079	-0.01908486	
0.1430571	-0.2406962	-0.02192978	-0.03369161	-0.01025926	-0.01581599	0.06081568	-0.005025927	
0.126812	0.1503649	-0.01025926	-0.01581599	0.02607436	0.140918	0.1949859	-0.2039341	
-0.008529079	-0.01908486	0.06081568	-0.005025927	0.1949859	-0.2039341	-0.03795638	-0.05046138	

6.4e+09	0.1175287	0.1171314	-0.02256853	-0.2770523	0.1654838	0.1271317	-0.01970819	-0.00938344	
-0.02256853	-0.2770523	-0.04488316	-0.07219205	-0.01917429	-0.005498138	0.04753152	-0.04668953	
0.1654838	0.1271317	-0.01917429	-0.005498138	0.06985384	0.1289444	0.04049621	-0.2768135	
-0.01970819	-0.00938344	0.04753152	-0.04668953	0.04049621	-0.2768135	-0.05139285	-0.09241062	

6.42e+09	0.1558885	0.08087743	-0.1761143	-0.2117544	0.1947749	0.0929571	-0.0207539	0.005537703	
-0.1761143	-0.2117544	-0.09000724	-0.07424903	-0.01765954	0.00840804	0.004400677	-0.05765229	
0.1947749	0.0929571	-0.01765954	0.00840804	0.1170433	0.1021646	-0.1246664	-0.2472263	
-0.0207539	0.005537703	0.004400677	-0.05765229	-0.1246664	-0.2472263	-0.0940375	-0.1048065	

6.44e+09	0.1831308	0.03041924	-0.2637004	-0.07214025	0.21294	0.05424212	-0.01220778	0.0166737	
-0.2637004	-0.07214025	-0.1174312	-0.03781612	-0.007849241	0.01673352	-0.02849314	-0.02680367	
0.21294	0.05424212	-0.007849241	0.01673352	0.1562625	0.05657859	-0.2417864	-0.1302975	
-0.01220778	0.0166737	-0.02849314	-0.02680367	-0.2417864	-0.1302975	-0.129059	-0.07666012	

6.46e+09	0.1923106	-0.02562248	-0.2560555	0.09158031	0.2226758	0.01484398	0.0004537078	0.02008588	
-0.2560555	0.09158031	-0.1024782	0.006106278	0.003617954	0.01726397	-0.02018821	0.0186422	
0.2226758	0.01484398	0.003617954	0.01726397	0.1765373	0.0009839775	-0.271373	0.03154292	
0.0004537078	0.02008588	-0.02018821	0.0186422	-0.271373	0.03154292	-0.1258202	-0.03090439	

6.48e+09	0.1865865	-0.07731337	-0.1560233	0.2209315	0.2256032	-0.02567951	0.01263469	0.01554753	
-0.1560233	0.2209315	-0.05657018	0.0186431	0.01316376	0.01167173	0.0236376	0.03624064	
0.2256032	-0.02567951	0.01316376	0.01167173	0.1798826	-0.05146501	-0.2027801	0.1809246	
0.01263469	0.01554753	0.0236376	0.03624064	-0.2027801	0.1809246	-0.08491306	-0.007010965	

6.5e+09	0.1740582	-0.1222847	-0.000346676	0.2684198	0.2202789	-0.06712747	0.01991439	0.003978927	
-0.000346676	0.2684198	-0.02005613	-0.01450222	0.01817453	0.0008415437	0.06214055	0.006767743	
0.2202789	-0.06712747	0.01817453	0.0008415437	0.1765901	-0.09698495	-0.06077081	0.2625999	
0.01991439	0.003978927	0.06214055	0.006767743	-0.06077081	0.2625999	-0.04088272	-0.02937722	

6.52e+09	0.1580445	-0.1660095	0.1523435	0.2174802	0.2051419	-0.1074097	0.0174135	-0.01027905	
0.1523435	0.2174802	-0.02931251	-0.06437999	0.01430709	-0.0118119	0.0558231	-0.04156684	
0.2051419	-0.1074097	0.01430709	-0.0118119	0.1716647	-0.1427923	0.1002182	0.2465606	
0.0174135	-0.01027905	0.0558231	-0.04156684	0.1002182	0.2465606	-0.03640604	-0.08051801	

6.54e+09	0.1331739	-0.211624	0.2463148	0.09025543	0.1804493	-0.1421272	0.005551624	-0.0185292	
0.2463148	0.09025543	-0.07771551	-0.08328138	0.002080403	-0.01788743	0.01099793	-0.06051169	
0.1804493	-0.1421272	0.002080403	-0.01788743	0.1583792	-0.194594	0.2198555	0.1428904	
0.005551624	-0.0185292	0.01099793	-0.06051169	0.2198555	0.1428904	-0.07879273	-0.1123189	

6.56e+09	0.09414862	-0.2531174	0.251354	-0.06522928	0.1503927	-0.1684002	-0.00762443	-0.01620274	
0.251354	-0.06522928	-0.1210421	-0.05215402	-0.009871153	-0.01342321	-0.0284455	-0.03265368	
0.1503927	-0.1684002	-0.009871153	-0.01342321	0.1281594	-0.2460766	0.2588245	-0.007031162	
-0.00762443	-0.01620274	-0.0284455	-0.03265368	0.2588245	-0.007031162	-0.1301935	-0.09345016	

6.58e+09	0.04422359	-0.2815379	0.1685814	-0.1952	0.1187959	-0.1878366	-0.01499434	-0.006902966	
0.1685814	-0.1952	-0.1185904	0.002649776	-0.01475618	-0.003501813	-0.02603827	0.01528878	
0.1187959	-0.1878366	-0.01475618	-0.003501813	0.08304967	-0.2854125	0.2076357	-0.1512441	
-0.01499434	-0.006902966	-0.02603827	0.01528878	0.2076357	-0.1512441	-0.1428671	-0.0382544	

6.6e+09	-0.007170771	-0.2946728	0.02711338	-0.2552239	0.08519983	-0.2030493	-0.01511425	0.003894743	
0.02711338	-0.2552239	-0.06931743	0.03067385	-0.01292898	0.005946666	0.0157878	0.03905459	
0.08519983	-0.2030493	-0.01292898	0.005946666	0.03420185	-0.3082182	0.08429146	-0.2413331	
-0.01511425	0.003894743	0.0157878	0.03905459	0.08429146	-0.2413331	-0.1012472	0.003270266	

6.62e+09	-0.05462051	-0.2987784	-0.1229194	-0.2235896	0.04799735	-0.2124968	-0.008835022	0.01240914	
-0.1229194	-0.2235896	-0.01843256	0.002712022	-0.006395554	0.01260087	0.05781003	0.01565031	
0.04799735	-0.2124968	-0.006395554	0.01260087	-0.01071424	-0.3216216	-0.06834833	-0.2446314	
-0.008835022	0.01240914	0.05781003	0.01565031	-0.06834833	-0.2446314	-0.04237891	-0.01109419	

6.64e+09	-0.1005292	-0.2992347	-0.2267075	-0.1121936	0.008971606	-0.2135216	0.001765075	0.01500051	
-0.2267075	-0.1121936	-0.01645086	-0.05699534	0.003561128	0.01407034	0.05905374	-0.03234169	
0.008971606	-0.2135216	0.003561128	0.01407034	-0.05459199	-0.3330454	-0.1938814	-0.1598803	
0.001765075	0.01500051	0.05905374	-0.03234169	-0.1938814	-0.1598803	-0.02441294	-0.07106144	

6.66e+09	-0.1502599	-0.2942665	-0.2476403	0.03639171	-0.028334	-0.2057482	0.01148274	0.009261106	
-0.2476403	0.03639171	-0.06755851	-0.08955557	0.01251016	0.007690585	0.01917584	-0.05732053	
-0.028334	-0.2057482	0.01251016	0.007690585	-0.105012	-0.3409234	-0.2470102	-0.02121968	
0.01148274	0.009261106	0.01917584	-0.05732053	-0.2470102	-0.02121968	-0.06777681	-0.1176773	

6.68e+09	-0.2027136	-0.276973	-0.1820457	0.1685762	-0.06108929	-0.1917647	0.01393203	-0.001541064	
-0.1820457	0.1685762	-0.1227649	-0.06252485	0.01386617	-0.003408681	-0.02237677	-0.03719706	
-0.06108929	-0.1917647	0.01386617	-0.003408681	-0.1620871	-0.3363413	-0.2137598	0.1201036	
0.01393203	-0.001541064	-0.02237677	-0.03719706	-0.2137598	0.1201036	-0.1310063	-0.1045809	

6.7e+09	-0.2495949	-0.2451906	-0.05489284	0.2408334	-0.08985176	-0.1746077	0.008278625	-0.01014481	
-0.05489284	0.2408334	-0.129269	-0.0004963599	0.007073257	-0.01140933	-0.02824811	0.007817967	
-0.08985176	-0.1746077	0.007073257	-0.01140933	-0.2166057	-0.31481	-0.1090134	0.2183606	
0.008278625	-0.01014481	-0.02824811	0.007817967	-0.1090134	0.2183606	-0.1536661	-0.04307786	

6.72e+09	-0.2844988	-0.2049606	0.09108538	0.2293767	-0.1166938	-0.1543529	-0.0008096147	-0.01228335	
0.09108538	0.2293767	-0.07909489	0.03796384	-0.002198445	-0.01232953	0.006147278	0.03704441	
-0.1166938	-0.1543529	-0.002198445	-0.01232953	-0.2597789	-0.2821119	0.033201	0.2419022	
-0.0008096147	-0.01228335	0.006147278	0.03704441	0.033201	0.2419022	-0.1122955	0.00905481	

6.74e+09	-0.3091396	-0.1640266	0.2052709	0.1366038	-0.1414404	-0.1285656	-0.008584616	-0.008284278	
0.2052709	0.1366038	-0.01974142	0.01410222	-0.009238721	-0.007779725	0.04897414	0.02379324	
-0.1414404	-0.1285656	-0.009238721	-0.007779725	-0.2923231	-0.2479081	0.164874	0.1800987	
-0.008584616	-0.008284278	0.04897414	0.02379324	0.164874	0.1800987	-0.04546198	-0.0005237076	

6.76e+09	-0.3298254	-0.1229887	0.2456041	-0.004747144	-0.1603982	-0.09721714	-0.01198334	-0.0003682177	
0.2456041	-0.004747144	-0.01062953	-0.04903922	-0.01229313	-0.0001459047	0.05983091	-0.01937561	
-0.1603982	-0.09721714	-0.01229313	-0.0001459047	-0.3222863	-0.2140454	0.2370239	0.05387661	
-0.01198334	-0.0003682177	0.05983091	-0.01937561	0.2370239	0.05387661	-0.02059384	-0.0631562	

6.78e+09	-0.3476627	-0.0770113	0.1982786	-0.1426141	-0.1718119	-0.06355514	-0.009328519	0.008198189	
0.1982786	-0.1426141	-0.06036483	-0.08889088	-0.009906142	0.008433769	0.02915276	-0.05081306	
-0.1718119	-0.06355514	-0.009906142	0.008433769	-0.3523227	-0.1740522	0.2241486	-0.08918597	
-0.009328519	0.008198189	0.02915276	-0.05081306	0.2241486	-0.08918597	-0.06211003	-0.1160778	

6.8e+09	-0.3569644	-0.02308385	0.08268288	-0.2286708	-0.1769883	-0.03022138	-0.0009680929	0.01295688	
0.08268288	-0.2286708	-0.119602	-0.06673378	-0.001476094	0.01370574	-0.01319164	-0.0417369	
-0.1769883	-0.03022138	-0.001476094	0.01370574	-0.3761383	-0.1226504	0.1346366	-0.1986781	
-0.0009680929	0.01295688	-0.01319164	-0.0417369	0.1346366	-0.1986781	-0.1280604	-0.1075317	

6.82e+09	-0.3514147	0.03383738	-0.06060471	-0.2355277	-0.1780331	0.002454894	0.008786719	0.01022272	
-0.06060471	-0.2355277	-0.131821	-0.005110134	0.008827994	0.01117337	-0.02895374	-0.001583284	
-0.1780331	0.002454894	0.008827994	0.01117337	-0.3849257	-0.06400017	0.0001762004	-0.2403699	
0.008786719	0.01022272	-0.02895374	-0.001583284	0.0001762004	-0.2403699	-0.1551661	-0.04735022	

6.84e+09	-0.3320122	0.08499923	-0.1840428	-0.1605508	-0.1750669	0.03599977	0.01371035	0.001202731	
-0.1840428	-0.1605508	-0.0861568	0.03731909	0.01410773	0.001972795	-0.00397242	0.03364329	
-0.1750669	0.03599977	0.01410773	0.001972795	-0.3777186	-0.008307806	-0.1364128	-0.1999736	
0.01371035	0.001202731	-0.00397242	0.03364329	-0.1364128	-0.1999736	-0.118327	0.006760534	

6.86e+09	-0.306	0.1271876	-0.2438206	-0.02726268	-0.1658779	0.07058188	0.01099569	-0.008530979	
-0.2438206	-0.02726268	-0.0269365	0.01983754	0.0116611	-0.007752602	0.03935685	0.03119273	
-0.1658779	0.07058188	0.0116611	-0.007752602	-0.3624095	0.03879438	-0.2275416	-0.08734502	
0.01099569	-0.008530979	0.03935685	0.03119273	-0.2275416	-0.08734502	-0.05362043	0.002397379	

6.88e+09	-0.2778444	0.1647752	-0.2160803	0.117078	-0.1486035	0.1034745	0.002708985	-0.01391577	
-0.2160803	0.117078	-0.01248377	-0.03895244	0.004128513	-0.0133544	0.0596719	-0.006683258	
-0.1486035	0.1034745	0.004128513	-0.0133544	-0.3456411	0.08215211	-0.2371875	0.05847835	
0.002708985	-0.01391577	0.0596719	-0.006683258	-0.2371875	0.05847835	-0.02568723	-0.0547617	

6.9e+09	-0.2439632	0.2018956	-0.1107445	0.2192369	-0.1251491	0.1310526	-0.007071978	-0.01289051	
-0.1107445	0.2192369	-0.05471134	-0.07999371	-0.0051429	-0.01355303	0.03793137	-0.04353827	
-0.1251491	0.1310526	-0.0051429	-0.01355303	-0.3237144	0.1284291	-0.1616035	0.1828523	
-0.007071978	-0.01289051	0.03793137	-0.04353827	-0.1616035	0.1828523	-0.05995136	-0.1059205	

6.92e+09	-0.1993169	0.2349433	0.03329334	0.2433632	-0.0983991	0.1532135	-0.01454605	-0.005770938	
0.03329334	0.2433632	-0.1101585	-0.06585021	-0.01344759	-0.007867583	-0.004493819	-0.04452681	
-0.0983991	0.1532135	-0.01344759	-0.007867583	-0.2887758	0.17482	-0.02980995	0.2422931	
-0.01454605	-0.005770938	-0.004493819	-0.04452681	-0.02980995	0.2422931	-0.119505	-0.103555	

6.94e+09	-0.1444996	0.2560273	0.1659446	0.1822493	-0.06903289	0.1712926	-0.01591678	0.005499239	
0.1659446	0.1822493	-0.1271582	-0.01269207	-0.01652742	0.00310198	-0.02813342	-0.009179118	
-0.06903289	0.1712926	-0.01652742	0.00310198	-0.2390228	0.2116183	0.1128854	0.2179734	
-0.01591678	0.005499239	-0.02813342	-0.009179118	0.1128854	0.2179734	-0.1482167	-0.05330288	

6.96e+09	-0.08766013	0.2609287	0.2417909	0.05590629	-0.03610455	0.185224	-0.008741131	0.01557014	
0.2417909	0.05590629	-0.0923659	0.02915831	-0.01066385	0.01405929	-0.01105771	0.02998934	
-0.03610455	0.185224	-0.01066385	0.01405929	-0.1829436	0.2313976	0.2188617	0.1164002	
-0.008741131	0.01557014	-0.01105771	0.02998934	0.2188617	0.1164002	-0.1219382	-0.003555139	

6.98e+09	-0.0362713	0.2539023	0.2319338	-0.09317567	0.0005789584	0.1928591	0.003869837	0.01797311	
0.2319338	-0.09317567	-0.03992971	0.021879	0.001387434	0.01774384	0.03126935	0.03581822	
0.0005789584	0.1928591	0.001387434	0.01774384	-0.1306082	0.2375755	0.2484202	-0.03028962	
0.003869837	0.01797311	0.03126935	0.03581822	0.2484202	-0.03028962	-0.06746388	0.0001295215	

7e+09	0.0101457	0.2418673	0.1369355	-0.2104277	0.03899072	0.1918683	0.01465583	0.01134857	
0.1369355	-0.2104277	-0.01975583	-0.02546907	0.0121984	0.01264948	0.05759465	0.002680734	
0.03899072	0.1918683	0.0121984	0.01264948	-0.08264206	0.239196	0.1866705	-0.1686165	
0.01465583	0.01134857	0.05759465	0.002680734	0.1866705	-0.1686165	-0.03735875	-0.04335696	

7.02e+09	0.05705587	0.224658	-0.0086402	-0.2513215	0.07549054	0.1821244	0.01871572	-0.0002187975	
-0.0086402	-0.2513215	-0.048547	-0.06551181	0.01741038	0.002683695	0.04270575	-0.03589285	
0.07549054	0.1821244	0.01741038	0.002683695	-0.03129963	0.237456	0.056037	-0.2455367	
0.01871572	-0.0002187975	0.04270575	-0.03589285	0.056037	-0.2455367	-0.05795128	-0.08957904	

7.04e+09	0.1041873	0.196237	-0.1510615	-0.2013414	0.1078365	0.166225	0.01514769	-0.0118368	
-0.1510615	-0.2013414	-0.09600652	-0.06270532	0.01617527	-0.00853511	0.002547644	-0.04314885	
0.1078365	0.166225	0.01617527	-0.00853511	0.02559531	0.2239521	-0.09444914	-0.2336524	
0.01514769	-0.0118368	0.002547644	-0.04314885	-0.09444914	-0.2336524	-0.1059504	-0.09667821	

7.06e+09	0.1440041	0.1537408	-0.2395729	-0.07918476	0.1366667	0.1455964	0.004976911	-0.01954943	
-0.2395729	-0.07918476	-0.1190272	-0.02289948	0.007988648	-0.01775234	-0.02440836	-0.01318104	
0.1366667	0.1455964	0.007988648	-0.01775234	0.07943017	0.1923879	-0.2115591	-0.1384404	
0.004976911	-0.01954943	-0.02440836	-0.01318104	-0.2115591	-0.1384404	-0.1373468	-0.0620433	

7.08e+09	0.1687956	0.102597	-0.2429953	0.07239388	0.1619085	0.1197142	-0.008841161	-0.01925747	
-0.2429953	0.07239388	-0.09913143	0.01753307	-0.005527066	-0.01978239	-0.01338786	0.0253816	
0.1619085	0.1197142	-0.005527066	-0.01978239	0.1191404	0.1471314	-0.2542906	0.007458329	
-0.008841161	-0.01925747	-0.01338786	0.0253816	-0.2542906	0.007458329	-0.1264034	-0.01765236	

7.1e+09	0.1786938	0.05240612	-0.1582446	0.1998699	0.1815907	0.08845786	-0.01960535	-0.009452279	
-0.1582446	0.1998699	-0.05536432	0.02303461	-0.01736898	-0.01168908	0.02470403	0.03597687	
0.1815907	0.08845786	-0.01736898	-0.01168908	0.1426468	0.09995285	-0.205038	0.1533322	
-0.01960535	-0.009452279	0.02470403	0.03597687	-0.205038	0.1533322	-0.0842237	-0.002573267	

7.12e+09	0.1808452	0.006984671	-0.01418107	0.2554066	0.193581	0.05358291	-0.02119038	0.004950653	
-0.01418107	0.2554066	-0.02800255	-0.01035846	-0.02055771	0.001874516	0.05245966	0.008940146	
0.193581	0.05358291	-0.02055771	0.001874516	0.1583285	0.05695183	-0.07906636	0.2443566	
-0.02119038	0.004950653	0.05245966	0.008940146	-0.07906636	0.2443566	-0.04953699	-0.0296238	

7.14e+09	0.1792693	-0.03803619	0.1355768	0.2170104	0.1969837	0.0178413	-0.01377034	0.01663366	
0.1355768	0.2170104	-0.04173376	-0.05050126	-0.01507992	0.01360187	0.04332613	-0.0274034	
0.1969837	0.0178413	-0.01507992	0.01360187	0.1725137	0.01255631	0.07631382	0.244895	
-0.01377034	0.01663366	0.04332613	-0.0274034	0.07631382	0.244895	-0.05410343	-0.07290348	

7.16e+09	0.1691172	-0.08646717	0.2353342	0.09961727	0.1929916	-0.01595463	-0.001350663	0.02171003	
0.2353342	0.09961727	-0.0819815	-0.05997942	-0.00438649	0.02008457	0.008597284	-0.03768579	
0.1929916	-0.01595463	-0.00438649	0.02008457	0.1794802	-0.04012186	0.2024844	0.1561819	
-0.001350663	0.02171003	0.008597284	-0.03768579	0.2024844	0.1561819	-0.09235934	-0.09181288	

7.18e+09	0.1449657	-0.1329949	0.2497676	-0.0530533	0.1837156	-0.04707106	0.01196016	0.01887823	
0.2497676	-0.0530533	-0.1118251	-0.0320231	0.008630093	0.01957722	-0.01784298	-0.0143205	
0.1837156	-0.04707106	0.008630093	0.01957722	0.170047	-0.09623542	0.2549309	0.01235224	
0.01196016	0.01887823	-0.01784298	-0.0143205	0.2549309	0.01235224	-0.1291038	-0.07056517	

7.2e+09	0.1084906	-0.1688618	0.174759	-0.1866732	0.1692158	-0.07595279	0.02169247	0.008268802	
0.174759	-0.1866732	-0.1049299	0.00820288	0.01968107	0.01070909	-0.01219063	0.0198001	
0.1692158	-0.07595279	0.01968107	0.01070909	0.1438465	-0.1442286	0.2165697	-0.1356591	
0.02169247	0.008268802	-0.01219063	0.0198001	0.2165697	-0.1356591	-0.1316391	-0.02807682	

7.22e+09	0.06843347	-0.1903418	0.03626224	-0.2539339	0.1489951	-0.1013178	0.02288091	-0.006901182	
0.03626224	-0.2539339	-0.06735013	0.0242741	0.02263948	-0.004056355	0.01909386	0.0328118	
0.1489951	-0.1013178	0.02263948	-0.004056355	0.1106751	-0.177503	0.1000067	-0.2360707	
0.02288091	-0.006901182	0.01909386	0.0328118	0.1000067	-0.2360707	-0.09687578	-0.00275675	

7.24e+09	0.03184486	-0.2025014	-0.1166901	-0.229116	0.1241823	-0.1212225	0.01406651	-0.01959726	
-0.1166901	-0.229116	-0.03419708	0.0008238145	0.01522985	-0.01716707	0.04540751	0.01308045	
0.1241823	-0.1212225	0.01522985	-0.01716707	0.08011279	-0.2011	-0.05422651	-0.2510196	
0.01406651	-0.01959726	0.04540751	0.01308045	-0.05422651	-0.2510196	-0.0570267	-0.01940237	

7.26e+09	-0.002972343	-0.2120692	-0.2272857	-0.1200877	0.09691976	-0.1347193	-0.0003206393	-0.02410787	
-0.2272857	-0.1200877	-0.03767566	-0.03934276	0.00197407	-0.02258188	0.0414402	-0.01856575	
0.09691976	-0.1347193	0.00197407	-0.02258188	0.05073432	-0.2240681	-0.1885111	-0.1735879	
-0.0003206393	-0.02410787	0.0414402	-0.01856575	-0.1885111	-0.1735879	-0.05152343	-0.06236974	

7.28e+09	-0.04193736	-0.2179825	-0.2545382	0.03206539	0.06925393	-0.1417466	-0.01441373	-0.01969387	
-0.2545382	0.03206539	-0.07379571	-0.05660498	-0.01152165	-0.01974067	0.01339605	-0.03041892	
0.06925393	-0.1417466	-0.01152165	-0.01974067	0.01407383	-0.246178	-0.2528295	-0.0341839	
-0.01441373	-0.01969387	0.01339605	-0.03041892	-0.2528295	-0.0341839	-0.08602178	-0.08876759	

7.3e+09	-0.08444546	-0.2128506	-0.1902435	0.1717173	0.04242594	-0.1439376	-0.02384699	-0.007914351	
-0.1902435	0.1717173	-0.1065633	-0.03466564	-0.02155404	-0.009677728	-0.01054388	-0.01323175	
0.04242594	-0.1439376	-0.02155404	-0.009677728	-0.03163614	-0.2575442	-0.2266804	0.1156989	
-0.02384699	-0.007914351	-0.01054388	-0.01323175	-0.2266804	0.1156989	-0.1258568	-0.07242934	

7.32e+09	-0.1222864	-0.1947147	-0.05816553	0.2499515	0.01610058	-0.1421511	-0.02487467	0.007909827	
-0.05816553	0.2499515	-0.1052473	0.004171975	-0.02405934	0.00528979	-0.008941353	0.01525236	
0.01610058	-0.1421511	-0.02405934	0.00528979	-0.07672108	-0.2528361	-0.1207181	0.2244793	
-0.02487467	0.007909827	-0.008941353	0.01525236	-0.1207181	0.2244793	-0.1325542	-0.03028592	

7.34e+09	-0.1489747	-0.1692166	0.09577334	0.2391236	-0.009335519	-0.1352682	-0.0157372	0.02204646	
0.09577334	0.2391236	-0.07170328	0.02278695	-0.01635926	0.0195308	0.01562091	0.02866388	
-0.009335519	-0.1352682	-0.01635926	0.0195308	-0.1117373	-0.2374538	0.02936292	0.2543205	
-0.0157372	0.02204646	0.01562091	0.02866388	0.02936292	0.2543205	-0.09975879	-0.003379063	

7.36e+09	-0.1657609	-0.1447554	0.2166153	0.1411774	-0.03199205	-0.1233487	0.000820529	0.02776088	
0.2166153	0.1411774	-0.03951341	0.003498674	-0.0009486395	0.02582158	0.03903393	0.01488297	
-0.03199205	-0.1233487	-0.0009486395	0.02582158	-0.136581	-0.2218357	0.1707669	0.1919814	
0.000820529	0.02776088	0.03903393	0.01488297	0.1707669	0.1919814	-0.06070854	-0.01866479	

7.38e+09	-0.1798712	-0.1233449	0.2588151	-0.009241547	-0.05073285	-0.1080085	0.01749718	0.02205538	
0.2588151	-0.009241547	-0.04091016	-0.03277522	0.0147611	0.02122104	0.03843615	-0.0113255	
-0.05073285	-0.1080085	0.0147611	0.02122104	-0.1601163	-0.2094992	0.250157	0.05886728	
0.01749718	0.02205538	0.03843615	-0.0113255	0.250157	0.05886728	-0.05595429	-0.05943958	

7.4e+09	-0.1943236	-0.09935485	0.2065421	-0.1562236	-0.06552481	-0.09058553	0.02756435	0.00769766	
0.2065421	-0.1562236	-0.07253499	-0.04833825	0.02458027	0.008647401	0.01606909	-0.02318595	
-0.06552481	-0.09058553	0.02458027	0.008647401	-0.1873676	-0.1933483	0.2383789	-0.09483357	
0.02756435	0.00769766	0.01606909	-0.02318595	0.2383789	-0.09483357	-0.08910804	-0.08219775	

7.42e+09	-0.2033237	-0.0687422	0.07987652	-0.246596	-0.07648134	-0.07179564	0.02764691	-0.01021593	
0.07987652	-0.246596	-0.1003246	-0.0289572	0.02572048	-0.007547515	-0.004466702	-0.01015616	
-0.07648134	-0.07179564	0.02572048	-0.007547515	-0.2118896	-0.1663219	0.1418243	-0.2139404	
0.02764691	-0.01021593	-0.004466702	-0.01015616	0.1418243	-0.2139404	-0.1238847	-0.06443534	

7.44e+09	-0.2003535	-0.03677175	-0.0759937	-0.2487194	-0.08412092	-0.05217751	0.01681512	-0.0255383	
-0.0759937	-0.2487194	-0.09711214	0.003204574	0.01679034	-0.0222145	-0.004038709	0.01334317	
-0.08412092	-0.05217751	0.01679034	-0.0222145	-0.2236707	-0.1327532	-0.005534768	-0.2577806	
0.01681512	-0.0255383	-0.004038709	0.01334317	-0.005534768	-0.2577806	-0.1247316	-0.02680845	

7.46e+09	-0.1877578	-0.01214175	-0.2060475	-0.1606926	-0.08785804	-0.03170014	-0.002015243	-0.03163488	
-0.2060475	-0.1606926	-0.06949831	0.01529291	-0.0001874629	-0.02879539	0.01563652	0.02456807	
-0.08785804	-0.03170014	-0.0001874629	-0.02879539	-0.2228158	-0.1039007	-0.1533057	-0.2093124	
-0.002015243	-0.03163488	0.01563652	0.02456807	-0.1533057	-0.2093124	-0.09373327	-0.009223663	

7.48e+09	-0.1736309	0.002576055	-0.2621278	-0.0125909	-0.08705433	-0.01187853	-0.02142291	-0.02451432	
-0.2621278	-0.0125909	-0.04739464	-0.002027858	-0.01816762	-0.02303724	0.03442702	0.01347447	
-0.08705433	-0.01187853	-0.01816762	-0.02303724	-0.2186486	-0.08480819	-0.2470503	-0.08309363	
-0.02142291	-0.02451432	0.03442702	0.01347447	-0.2470503	-0.08309363	-0.06546437	-0.02784193	

7.5e+09	-0.1636512	0.01316706	-0.2218126	0.1413646	-0.08290146	0.005869738	-0.03238749	-0.00658931	
-0.2218126	0.1413646	-0.05239363	-0.02728602	-0.02856465	-0.007281037	0.03351313	-0.007248244	
-0.08290146	0.005869738	-0.02856465	-0.007281037	-0.2191133	-0.06929644	-0.2501379	0.07461689	
-0.03238749	-0.00658931	0.03351313	-0.007248244	-0.2501379	0.07461689	-0.06954092	-0.05941455	

7.52e+09	-0.1544289	0.02592567	-0.09985691	0.2435974	-0.07664095	0.02175946	-0.03025266	0.01428099	
-0.09985691	0.2435974	-0.07525065	-0.03337793	-0.02740607	0.0112177	0.01536275	-0.01564963	
-0.07664095	0.02175946	-0.02740607	0.0112177	-0.2207937	-0.04846385	-0.161902	0.2048565	
-0.03025266	0.01428099	0.01536275	-0.01564963	-0.161902	0.2048565	-0.09804221	-0.06882855	

7.54e+09	-0.1393322	0.03882361	0.05863111	0.2570481	-0.06818439	0.03594955	-0.01613776	0.03005898	
0.05863111	0.2570481	-0.08978872	-0.01719309	-0.01574414	0.02570218	-2.128107e-05	-0.004050844	
-0.06818439	0.03594955	-0.01574414	0.02570218	-0.214018	-0.02355219	-0.01527309	0.2612339	
-0.01613776	0.03005898	-2.128107e-05	-0.004050844	-0.01527309	0.2612339	-0.1179936	-0.04872983	

7.56e+09	-0.1188911	0.04353151	0.1965355	0.1767751	-0.05762545	0.04770581	0.0052819	0.03460219	
0.1965355	0.1767751	-0.08255585	0.000922196	0.002907958	0.03082614	0.002823785	0.01423768	
-0.05762545	0.04770581	0.002907958	0.03082614	-0.1967716	-0.005187014	0.1382414	0.2235961	
0.0052819	0.03460219	0.002823785	0.01423768	0.1382414	0.2235961	-0.1092673	-0.02394402	

7.58e+09	-0.1019812	0.0378252	0.2631803	0.03091612	-0.04572634	0.0567503	0.02577206	0.02483395	
0.2631803	0.03091612	-0.0658275	0.002068713	0.0215732	0.023149	0.01902303	0.0201184	
-0.04572634	0.0567503	0.0215732	0.023149	-0.1790092	0.0005311326	0.2429316	0.1032685	
0.02577206	0.02483395	0.01902303	0.0201184	0.2429316	0.1032685	-0.08537779	-0.02171492	

7.6e+09	-0.0946224	0.02873044	0.2328492	-0.1271012	-0.03350914	0.06265174	0.03605361	0.00400163	
0.2328492	-0.1271012	-0.05955494	-0.01040471	0.03151656	0.005109142	0.03079775	0.00926438	
-0.03350914	0.06265174	0.03151656	0.005109142	-0.1702192	0.000534761	0.2583241	-0.05626236	
0.03605361	0.00400163	0.03079775	0.00926438	0.2583241	-0.05626236	-0.07525093	-0.04077293	

7.62e+09	-0.09358634	0.02418565	0.1165719	-0.2381947	-0.02213644	0.06615885	0.03119637	-0.0188092	
0.1165719	-0.2381947	-0.06743559	-0.01895529	0.02806639	-0.01506925	0.02666022	-0.005026899	
-0.02213644	0.06615885	0.02806639	-0.01506925	-0.1679589	0.005219636	0.1783548	-0.1949404	
0.03119637	-0.0188092	0.02666022	-0.005026899	0.1783548	-0.1949404	-0.08776199	-0.05593209	

7.64e+09	-0.09088744	0.02437022	-0.04230277	-0.2615612	-0.01131103	0.06850245	0.01365061	-0.03383405	
-0.04230277	-0.2615612	-0.07646894	-0.01479481	0.01343005	-0.02877854	0.01272262	-0.007339781	
-0.01131103	0.06850245	0.01343005	-0.02877854	-0.1620604	0.01611865	0.03366951	-0.2619248	
0.01365061	-0.03383405	0.01272262	-0.007339781	0.03366951	-0.2619248	-0.1051011	-0.05051396	

7.66e+09	-0.08441051	0.02225494	-0.1853699	-0.1890953	-0.0002375088	0.06942959	-0.009325206	-0.03552031	
-0.1853699	-0.1890953	-0.07547988	-0.006112746	-0.006330361	-0.03131047	0.004572846	0.003720229	
-0.0002375088	0.06942959	-0.006330361	-0.03131047	-0.1481736	0.02415814	-0.1233208	-0.2337998	
-0.009325206	-0.03552031	0.004572846	0.003720229	-0.1233208	-0.2337998	-0.1068104	-0.03369769	

7.68e+09	-0.08071637	0.0141889	-0.2603934	-0.04727456	0.01024915	0.06803433	-0.02909765	-0.02307078	
-0.2603934	-0.04727456	-0.06817862	-0.004851224	-0.02414239	-0.02155547	0.01053423	0.01545419	
0.01024915	0.06803433	-0.02414239	-0.02155547	-0.133961	0.02227319	-0.2359301	-0.1200568	
-0.02909765	-0.02307078	0.01053423	0.01545419	-0.2359301	-0.1200568	-0.09334083	-0.02632484	

7.7e+09	-0.08613942	0.006083889	-0.2394452	0.111706	0.01897201	0.06511962	-0.0374036	-0.0007443083	
-0.2394452	0.111706	-0.06569121	-0.01137046	-0.03254511	-0.002487069	0.02286914	0.0153032	
0.01897201	0.06511962	-0.03254511	-0.002487069	-0.1295593	0.01572428	-0.2618908	0.03839249	
-0.0374036	-0.0007443083	0.02286914	0.0153032	-0.2618908	0.03839249	-0.08242446	-0.03566825	

7.72e+09	-0.09650859	0.006376258	-0.1306732	0.228816	0.02629181	0.06188557	-0.0302079	0.02204413	
-0.1306732	0.228816	-0.07229045	-0.01490485	-0.02729279	0.01774447	0.02730898	0.00509939	
0.02629181	0.06188557	-0.02729279	0.01774447	-0.1328296	0.01616825	-0.1912755	0.1821492	
-0.0302079	0.02204413	0.02730898	0.00509939	-0.1912755	0.1821492	-0.08759023	-0.0483524	

7.74e+09	-0.1029674	0.01503968	0.02502561	0.2615756	0.03282132	0.058816	-0.0108281	0.03557249	
0.02502561	0.2615756	-0.07825451	-0.008667028	-0.01105659	0.03029545	0.02037883	-0.002623459	
0.03282132	0.058816	-0.01105659	0.03029545	-0.1326398	0.02592675	-0.05140435	0.2584271	
-0.0108281	0.03557249	0.02037883	-0.002623459	-0.05140435	0.2584271	-0.1011244	-0.04788768	

7.76e+09	-0.1018993	0.02461438	0.1707507	0.1989932	0.03944301	0.05553044	0.01243426	0.03481942	
0.1707507	0.1989932	-0.07408398	5.172038e-05	0.009011994	0.03071312	0.01085137	0.0002807607	
0.03944301	0.05553044	0.009011994	0.03071312	-0.1230312	0.03600014	0.1064573	0.2406767	
0.01243426	0.03481942	0.01085137	0.0002807607	0.1064573	0.2406767	-0.1057546	-0.03548764	

7.78e+09	-0.09838073	0.02936597	0.2537919	0.06413439	0.04602516	0.05091204	0.03064189	0.02061846	
0.2537919	0.06413439	-0.06375634	-0.0002893191	0.02543184	0.01945677	0.009087477	0.01002525	
0.04602516	0.05091204	0.02543184	0.01945677	-0.1097795	0.0379073	0.2255591	0.1354814	
0.03064189	0.02061846	0.009087477	0.01002525	0.2255591	0.1354814	-0.09662475	-0.02645167	

7.8e+09	-0.0988254	0.0323966	0.2438192	-0.09374481	0.05125128	0.04491611	0.03698836	-0.001691082	
0.2438192	-0.09374481	-0.05990617	-0.01018615	0.03220304	0.0005051156	0.01651495	0.01604103	
0.05125128	0.04491611	0.03220304	0.0005051156	-0.1026979	0.03422279	0.2622761	-0.01936483	
0.03698836	-0.001691082	0.01651495	0.01604103	0.2622761	-0.01936483	-0.08534961	-0.03081191	

7.82e+09	-0.1017276	0.0411626	0.1447701	-0.2165083	0.05478533	0.0391704	0.02861003	-0.0235156	
0.1447701	-0.2165083	-0.06791182	-0.01808263	0.0261236	-0.01898408	0.02493587	0.01227862	
0.05478533	0.0391704	0.0261236	-0.01898408	-0.1022086	0.03535294	0.2026961	-0.1668107	
0.02861003	-0.0235156	0.02493587	0.01227862	0.2026961	-0.1668107	-0.0849747	-0.04231129	

7.84e+09	-0.09865268	0.05656754	-0.00618835	-0.2595162	0.05811294	0.03395166	0.008759826	-0.0357525	
-0.00618835	-0.2595162	-0.07912815	-0.01432296	0.009411866	-0.0306871	0.02508673	0.003573765	
0.05811294	0.03395166	0.009411866	-0.0306871	-0.09803323	0.04533924	0.06943273	-0.2524353	
0.008759826	-0.0357525	0.02508673	0.003573765	0.06943273	-0.2524353	-0.09488314	-0.04765902	

7.86e+09	-0.08566023	0.07026201	-0.1538536	-0.2083011	0.06159871	0.02806306	-0.01406156	-0.03363174	
-0.1538536	-0.2083011	-0.08153265	-0.00182176	-0.01054678	-0.02994921	0.01735596	-3.801635e-05	
0.06159871	0.02806306	-0.01054678	-0.02994921	-0.08299916	0.05493594	-0.08806951	-0.2459686	
-0.01406156	-0.03363174	0.01735596	-3.801635e-05	-0.08806951	-0.2459686	-0.1043869	-0.04124543	

7.88e+09	-0.0680118	0.07574718	-0.2453317	-0.08189642	0.06464996	0.02090879	-0.03094887	-0.01870641	
-0.2453317	-0.08189642	-0.07168376	0.006523733	-0.02596286	-0.01789052	0.0107041	0.005086113	
0.06464996	0.02090879	-0.02596286	-0.01789052	-0.062393	0.05460171	-0.2132993	-0.1504661	
-0.03094887	-0.01870641	0.0107041	0.005086113	-0.2132993	-0.1504661	-0.1035875	-0.03027147	

7.9e+09	-0.05340898	0.07462839	-0.2475239	0.07421363	0.06607261	0.0124535	-0.03590476	0.003084436	
-0.2475239	0.07421363	-0.05977383	0.002108239	-0.03153845	0.0007762909	0.01189365	0.01335852	
0.06607261	0.0124535	-0.03153845	0.0007762909	-0.04692469	0.04529882	-0.2609299	-0.0002277044	
-0.03590476	0.003084436	0.01189365	0.01335852	-0.2609299	-0.0002277044	-0.09437482	-0.02569414	

7.92e+09	-0.04296113	0.07393328	-0.159297	0.203013	0.06500542	0.0038445	-0.0271268	0.0236809	
-0.159297	0.203013	-0.05796552	-0.00991864	-0.02507646	0.0193743	0.01926253	0.01661465	
0.06500542	0.0038445	-0.02507646	0.0193743	-0.03951146	0.03663929	-0.2131247	0.1501759	
-0.0271268	0.0236809	0.01926253	0.01661465	-0.2131247	0.1501759	-0.08644492	-0.0306627	

7.94e+09	-0.03039281	0.07637377	-0.0131758	0.2571627	0.06227347	-0.003574963	-0.00777819	0.03508515	
-0.0131758	0.2571627	-0.06744111	-0.01691501	-0.008602233	0.03056246	0.02538726	0.0122541	
0.06227347	-0.003574963	-0.008602233	0.03056246	-0.03213157	0.03419272	-0.08735413	0.2451835	
-0.00777819	0.03508515	0.02538726	0.0122541	-0.08735413	0.2451835	-0.08660109	-0.03912009	

7.96e+09	-0.01096892	0.07595001	0.1369657	0.2173549	0.05929076	-0.010348	0.01447494	0.03264148	
0.1369657	0.2173549	-0.07809853	-0.01243947	0.01128073	0.02953822	0.02470647	0.004998304	
0.05929076	-0.010348	0.01128073	0.02953822	-0.01693732	0.03160121	0.06981798	0.2500767	
0.01447494	0.03264148	0.02470647	0.004998304	0.06981798	0.2500767	-0.09341928	-0.04352243	

7.98e+09	0.01060949	0.06542536	0.2366481	0.0987883	0.05514216	-0.01758751	0.03063873	0.01761805	
0.2366481	0.0987883	-0.08016354	-0.001469238	0.02635066	0.01695842	0.01801939	0.002279541	
0.05514216	-0.01758751	0.02635066	0.01695842	0.002263464	0.01868238	0.2006016	0.1637817	
0.03063873	0.01761805	0.01801939	0.002279541	0.2006016	0.1637817	-0.100968	-0.04103993	

8e+09	0.0252946	0.046521	0.2500947	-0.0553668	0.04870099	-0.02453027	0.03483078	-0.003616185	
0.2500947	-0.0553668	-0.07283166	0.00648724	0.0310815	-0.001700725	0.01221111	0.006775695	
0.04870099	-0.02453027	0.0310815	-0.001700725	0.01359534	-0.004362108	0.257745	0.01838632	
0.03483078	-0.003616185	0.01221111	0.006775695	0.257745	0.01838632	-0.1042522	-0.03313083	

8.02e+09	0.03097753	0.027157	0.1723298	-0.1892022	0.03991516	-0.02991145	0.02605824	-0.02313314	
0.1723298	-0.1892022	-0.0626542	0.005107079	0.0242159	-0.01955233	0.0128609	0.0139421	
0.03991516	-0.02991145	0.0242159	-0.01955233	0.01308548	-0.02724557	0.2208981	-0.1331806	
0.02605824	-0.02313314	0.0128609	0.0139421	0.2208981	-0.1331806	-0.100008	-0.02530591	

8.04e+09	0.03332881	0.01215178	0.03148579	-0.253613	0.029623	-0.03240837	0.007635041	-0.03397056	
0.03148579	-0.253613	-0.05817329	-0.003558031	0.008136998	-0.03019896	0.01891913	0.01738972	
0.029623	-0.03240837	0.008136998	-0.03019896	0.007843482	-0.04242708	0.1035263	-0.2357613	
0.007635041	-0.03397056	0.01891913	0.01738972	0.1035263	-0.2357613	-0.09069277	-0.02386049	

8.06e+09	0.03795353	-0.001996433	-0.1203388	-0.2248076	0.01949611	-0.03178985	-0.01372139	-0.0320144	
-0.1203388	-0.2248076	-0.06268903	-0.01181122	-0.01135605	-0.0292928	0.02473047	0.01472828	
0.01949611	-0.03178985	-0.01135605	-0.0292928	0.00661007	-0.05375713	-0.05138736	-0.2516774	
-0.01372139	-0.0320144	0.02473047	0.01472828	-0.05138736	-0.2516774	-0.08371896	-0.0311348	

8.08e+09	0.04250694	-0.02171634	-0.2273278	-0.1138869	0.01042211	-0.02940994	-0.02986937	-0.01784107	
-0.2273278	-0.1138869	-0.07224178	-0.0126212	-0.02654319	-0.01687082	0.02567631	0.008814003	
0.01042211	-0.02940994	-0.02654319	-0.01687082	0.007971835	-0.07037191	-0.1865271	-0.1752219	
-0.02986937	-0.01784107	0.02567631	0.008814003	-0.1865271	-0.1752219	-0.08643363	-0.04170923	

8.1e+09	0.03909696	-0.04670475	-0.2506432	0.03781673	0.001397723	-0.02594237	-0.03453801	0.003033833	
-0.2506432	0.03781673	-0.07883131	-0.00523597	-0.03129994	0.002095401	0.02135151	0.004756978	
0.001397723	-0.02594237	-0.03129994	0.002095401	0.002100293	-0.09377848	-0.2522126	-0.03558084	
-0.03453801	0.003033833	0.02135151	0.004756978	-0.2522126	-0.03558084	-0.09808661	-0.04550948	

8.12e+09	0.02496262	-0.06846523	-0.1826297	0.1747688	-0.007759567	-0.01991253	-0.02622029	0.02249733	
-0.1826297	0.1747688	-0.07690223	0.005067398	-0.02402269	0.02001495	0.01538364	0.006348218	
-0.007759567	-0.01991253	-0.02402269	0.02001495	-0.01606339	-0.1141958	-0.2257917	0.1153943	
-0.02622029	0.02249733	0.01538364	0.006348218	-0.2257917	0.1153943	-0.1086511	-0.03681865	

8.14e+09	0.006577815	-0.08092411	-0.04846765	0.2474989	-0.01560086	-0.0107342	-0.00835298	0.03355186	
-0.04846765	0.2474989	-0.0670469	0.009996301	-0.007841651	0.03032142	0.01310613	0.01229285	
-0.01560086	-0.0107342	-0.007841651	0.03032142	-0.03923563	-0.1228674	-0.118118	0.2234631	
-0.00835298	0.03355186	0.01310613	0.01229285	-0.118118	0.2234631	-0.1067634	-0.0218183	

8.16e+09	-0.008799179	-0.08704941	0.1028883	0.2296118	-0.02057062	0.001042063	0.01271603	0.03240752	
0.1028883	0.2296118	-0.05713098	0.004265618	0.01145664	0.02943181	0.01645975	0.01769112	
-0.02057062	0.001042063	0.01145664	0.02943181	-0.05734599	-0.1228109	0.03186978	0.2501682	
0.01271603	0.03240752	0.01645975	0.01769112	0.03186978	0.2501682	-0.0921125	-0.01556313	

8.18e+09	-0.02121346	-0.09367403	0.2158592	0.127791	-0.02160193	0.01380439	0.02954735	0.01916775	
0.2158592	0.127791	-0.05681647	-0.007580936	0.02691718	0.01726991	0.02267908	0.01844526	
-0.02160193	0.01380439	0.02691718	0.01726991	-0.06923097	-0.1234186	0.1696775	0.1856253	
0.02954735	0.01916775	0.02267908	0.01844526	0.1696775	0.1856253	-0.07903646	-0.02572626	

8.2e+09	-0.03677157	-0.1022489	0.2490688	-0.01999366	-0.01921188	0.02575595	0.03563613	-0.001828383	
0.2490688	-0.01999366	-0.06737492	-0.01394041	0.03230475	-0.002085544	0.0269289	0.01421182	
-0.01921188	0.02575595	0.03230475	-0.002085544	-0.08291558	-0.128168	0.2445835	0.05370357	
0.03563613	-0.001828383	0.0269289	0.01421182	0.2445835	0.05370357	-0.08193471	-0.04247092	

8.22e+09	-0.05865767	-0.1066538	0.1913109	-0.1591116	-0.01500819	0.03673979	0.02803418	-0.02272189	
0.1913109	-0.1591116	-0.07882537	-0.007506717	0.02494354	-0.02109236	0.02595919	0.008234742	
-0.01500819	0.03673979	0.02494354	-0.02109236	-0.103851	-0.1300919	0.2298067	-0.09620094	
0.02803418	-0.02272189	0.02595919	0.008234742	0.2298067	-0.09620094	-0.09865895	-0.04775735	

8.24e+09	-0.08166315	-0.1009176	0.06472056	-0.2393335	-0.008647879	0.04791892	0.009340764	-0.03519662	
0.06472056	-0.2393335	-0.07932005	0.005978027	0.007553688	-0.0319718	0.02022112	0.005447369	
-0.008647879	0.04791892	0.007553688	-0.0319718	-0.126913	-0.1209844	0.1324816	-0.2097434	
0.009340764	-0.03519662	0.02022112	0.005447369	0.1324816	-0.2097434	-0.1117025	-0.03560585	

8.26e+09	-0.09744623	-0.08789508	-0.08453418	-0.2323819	0.001593061	0.05838327	-0.01325793	-0.03430523	
-0.08453418	-0.2323819	-0.06787268	0.01372252	-0.01289437	-0.0304363	0.01418734	0.008967827	
0.001593061	0.05838327	-0.01289437	-0.0304363	-0.1414468	-0.1028048	-0.01172978	-0.2472619	
-0.01325793	-0.03430523	0.01418734	0.008967827	-0.01172978	-0.2472619	-0.1075943	-0.01806303	

8.28e+09	-0.1051151	-0.07567202	-0.2024874	-0.1409421	0.0156923	0.06601247	-0.03131698	-0.02025986	
-0.2024874	-0.1409421	-0.05560639	0.00776549	-0.02869411	-0.01716627	0.01328815	0.01637207	
0.0156923	0.06601247	-0.02869411	-0.01716627	-0.1449299	-0.08581374	-0.1515597	-0.1953895	
-0.03131698	-0.02025986	0.01328815	0.01637207	-0.1515597	-0.1953895	-0.09065571	-0.01316061	

8.3e+09	-0.1109162	-0.06786307	-0.2459749	0.001588458	0.03219013	0.06906027	-0.0379406	0.002194285	
-0.2459749	0.001588458	-0.05523382	-0.005629926	-0.03388329	0.003262589	0.01885178	0.02181766	
0.03219013	0.06906027	-0.03388329	0.003262589	-0.145138	-0.07590859	-0.2360291	-0.07225143	
-0.0379406	0.002194285	0.01885178	0.02181766	-0.2360291	-0.07225143	-0.07904859	-0.02556248	

8.32e+09	-0.1196024	-0.06033694	-0.1993662	0.1425217	0.04883078	0.06715802	-0.02974019	0.02487548	
-0.1993662	0.1425217	-0.06681715	-0.01179369	-0.02566923	0.02338178	0.0267976	0.02080208	
0.04883078	0.06715802	-0.02566923	0.02338178	-0.1493363	-0.06843458	-0.2338171	0.07664912	
-0.02974019	0.02487548	0.0267976	0.02080208	-0.2338171	0.07664912	-0.08467097	-0.04065842	

8.34e+09	-0.1283316	-0.0477006	-0.080705	0.2304573	0.06428576	0.06155528	-0.008984813	0.0384276	
-0.080705	0.2304573	-0.0773039	-0.004146036	-0.006411404	0.03472813	0.03084804	0.01376541	
0.06428576	0.06155528	-0.006411404	0.03472813	-0.1550396	-0.05569546	-0.1467271	0.1964915	
-0.008984813	0.0384276	0.03084804	0.01376541	-0.1467271	0.1964915	-0.09981594	-0.04212285	

8.36e+09	-0.1304155	-0.03126184	0.06644472	0.2342799	0.07915611	0.0530985	0.0162436	0.03656098	
0.06644472	0.2342799	-0.07538365	0.008389026	0.01617927	0.03187039	0.02721763	0.005815579	
0.07915611	0.0530985	0.01617927	0.03187039	-0.1535965	-0.03801128	-0.00713553	0.2445959	
0.0162436	0.03656098	0.02721763	0.005815579	-0.00713553	0.2445959	-0.1074399	-0.0300382	

8.38e+09	-0.1243649	-0.01840897	0.188912	0.1529234	0.09353512	0.0402052	0.03539071	0.01951175	
0.188912	0.1529234	-0.06434888	0.0119496	0.03245549	0.01563233	0.01770545	0.004166145	
0.09353512	0.0402052	0.03245549	0.01563233	-0.1418681	-0.02427544	0.1348059	0.2039555	
0.03539071	0.01951175	0.01770545	0.004166145	0.1348059	0.2039555	-0.1011265	-0.01929091	

8.4e+09	-0.1171501	-0.0139693	0.2420002	0.01587001	0.1048102	0.02193037	0.04034122	-0.005834821	
0.2420002	0.01587001	-0.05724097	0.004655778	0.03556581	-0.007203629	0.01015727	0.01203058	
0.1048102	0.02193037	0.03556581	-0.007203629	-0.1276683	-0.02182274	0.2275283	0.08873704	
0.04034122	-0.005834821	0.01015727	0.01203058	0.2275283	0.08873704	-0.09065894	-0.01983316	

8.42e+09	-0.1151931	-0.01357285	0.2061009	-0.1263928	0.1105799	-0.0001355447	0.028941	-0.02930085	
0.2061009	-0.1263928	-0.06098255	-0.003484196	0.02428343	-0.02754802	0.01238248	0.02382204	
0.1105799	-0.0001355447	0.02428343	-0.02754802	-0.1203353	-0.02641339	0.2364484	-0.05888308	
0.028941	-0.02930085	0.01238248	0.02382204	0.2364484	-0.05888308	-0.08787286	-0.02763878	

8.44e+09	-0.1172422	-0.01048421	0.09497387	-0.2213665	0.1099898	-0.02348942	0.005282712	-0.04136403	
0.09497387	-0.2213665	-0.06906359	-0.002665227	0.002540341	-0.03725349	0.02424954	0.02920872	
0.1099898	-0.02348942	0.002540341	-0.03725349	-0.1195773	-0.02868591	0.1584844	-0.1840341	
0.005282712	-0.04136403	0.02424954	0.02920872	0.1584844	-0.1840341	-0.09297812	-0.03156182	

8.46e+09	-0.1171215	-0.003701154	-0.05010782	-0.2347313	0.1036936	-0.04619989	-0.02141025	-0.0363619	
-0.05010782	-0.2347313	-0.07058518	0.00473776	-0.02131588	-0.03141252	0.03631298	0.0220474	
0.1036936	-0.04619989	-0.02131588	-0.03141252	-0.1174137	-0.02633115	0.02304387	-0.2409506	
-0.02141025	-0.0363619	0.03631298	0.0220474	0.02304387	-0.2409506	-0.09663666	-0.02842339	

8.48e+09	-0.1124159	0.0009614169	-0.1758838	-0.1621305	0.09261441	-0.06781826	-0.03956486	-0.01547344	
-0.1758838	-0.1621305	-0.06440052	0.008204203	-0.03660465	-0.01139407	0.03689541	0.006980797	
0.09261441	-0.06781826	-0.03660465	-0.01139407	-0.1098532	-0.02635315	-0.1200677	-0.2092264	
-0.03956486	-0.01547344	0.03689541	0.006980797	-0.1200677	-0.2092264	-0.09428689	-0.02547587	

8.5e+09	-0.1082862	-0.0009071976	-0.2362633	-0.03039177	0.07615546	-0.08842644	-0.04052674	0.01240574	
-0.2362633	-0.03039177	-0.06007336	0.003337587	-0.03564234	0.01401834	0.02307005	-0.002325879	
0.07615546	-0.08842644	-0.03564234	0.01401834	-0.1029937	-0.03522246	-0.2180373	-0.1006089	
-0.04052674	0.01240574	0.02307005	-0.002325879	-0.2180373	-0.1006089	-0.09201993	-0.02830903	

8.52e+09	-0.1112983	-0.005618652	-0.2090502	0.1112944	0.05287727	-0.1058471	-0.02385401	0.03442389	
-0.2090502	0.1112944	-0.06456586	-0.001837321	-0.01891633	0.03280369	0.006484499	0.005489534	
0.05287727	-0.1058471	-0.01891633	0.03280369	-0.1058515	-0.0491122	-0.2344792	0.04388159	
-0.02385401	0.03442389	0.006484499	0.005489534	-0.2344792	0.04388159	-0.09655432	-0.0316521	

8.54e+09	-0.1205833	-0.005075018	-0.1055241	0.2101768	0.02416394	-0.1168578	0.002264104	0.04116679	
-0.1055241	0.2101768	-0.07153589	0.002273102	0.005249446	0.03698633	0.004304311	0.02537857	
0.02416394	-0.1168578	0.005249446	0.03698633	-0.1188551	-0.05735449	-0.1647661	0.1699661	
0.002264104	0.04116679	0.004304311	0.02537857	-0.1647661	0.1699661	-0.1030134	-0.02643019	

8.56e+09	-0.1289354	0.002520709	0.03490649	0.2308357	-0.0073853	-0.1204037	0.02664778	0.03075545	
0.03490649	0.2308357	-0.06973815	0.01184541	0.02667579	0.02571916	0.02098401	0.03855782	
-0.0073853	-0.1204037	0.02667579	0.02571916	-0.1328844	-0.05596866	-0.0361779	0.2320872	
0.02664778	0.03075545	0.02098401	0.03855782	-0.0361779	0.2320872	-0.1002886	-0.01595594	

8.58e+09	-0.1324918	0.01217429	0.1604414	0.1670381	-0.04002705	-0.116379	0.03941702	0.0076105	
0.1604414	0.1670381	-0.05881923	0.01408868	0.03658661	0.003493246	0.04196921	0.03086894	
-0.04002705	-0.116379	0.03658661	0.003493246	-0.1419632	-0.0507743	0.103509	0.2086455	
0.03941702	0.0076105	0.04196921	0.03086894	0.103509	0.2086455	-0.08751849	-0.01362679	

8.6e+09	-0.134574	0.02025632	0.2253102	0.04396729	-0.07221349	-0.1036312	0.03456534	-0.01784509	
0.2253102	0.04396729	-0.05178354	0.004266481	0.0300625	-0.01949448	0.04623966	0.008419845	
-0.07221349	-0.1036312	0.0300625	-0.01949448	-0.1492281	-0.04705144	0.2027489	0.1100699	
0.03456534	-0.01784509	0.04623966	0.008419845	0.2027489	0.1100699	-0.07901654	-0.02556734	

8.62e+09	-0.1373756	0.02794939	0.2085245	-0.09316398	-0.09959417	-0.08359906	0.01636029	-0.03417258	
0.2085245	-0.09316398	-0.05792997	-0.007719217	0.01173871	-0.03337478	0.0291836	-0.007600128	
-0.09959417	-0.08359906	0.01173871	-0.03337478	-0.1589693	-0.04468425	0.2276652	-0.02647989	
0.01636029	-0.03417258	0.0291836	-0.007600128	0.2276652	-0.02647989	-0.08613253	-0.04014596	

8.64e+09	-0.1431776	0.03852506	0.1155479	-0.1949146	-0.1236034	-0.05869119	-0.007857722	-0.03606901	
0.1155479	-0.1949146	-0.0741326	-0.007059814	-0.0114845	-0.03270308	0.004665828	-0.001195291	
-0.1236034	-0.05869119	-0.0114845	-0.03270308	-0.1748537	-0.03745347	0.1690924	-0.1514039	
-0.007857722	-0.03606901	0.004665828	-0.001195291	0.1690924	-0.1514039	-0.1052352	-0.04094487	

8.66e+09	-0.1468693	0.05587842	-0.01734839	-0.2238788	-0.1431604	-0.02777571	-0.02692873	-0.02295058	
-0.01734839	-0.2238788	-0.08145973	0.01003086	-0.02804172	-0.01808551	-0.002841215	0.02487527	
-0.1431604	-0.02777571	-0.02804172	-0.01808551	-0.1895869	-0.01962535	0.05122644	-0.2187829	
-0.02692873	-0.02295058	-0.002841215	0.02487527	0.05122644	-0.2187829	-0.1163266	-0.02227466	

8.68e+09	-0.1425679	0.07657244	-0.14182	-0.1720414	-0.1557307	0.008815761	-0.03412997	-0.002494371	
-0.14182	-0.1720414	-0.06844021	0.02588871	-0.03244516	0.002320006	0.01633367	0.04580702	
-0.1557307	0.008815761	-0.03244516	0.002320006	-0.1947019	0.004758411	-0.08283086	-0.2071968	
-0.03412997	-0.002494371	0.01633367	0.04580702	-0.08283086	-0.2071968	-0.1041357	-0.001726793	

8.7e+09	-0.1318307	0.09354879	-0.2135767	-0.05878872	-0.1595847	0.0484247	-0.02840823	0.01782045	
-0.2135767	-0.05878872	-0.04710282	0.02170473	-0.02421258	0.02118159	0.04501275	0.04032669	
-0.1595847	0.0484247	-0.02421258	0.02118159	-0.1912494	0.02623191	-0.1856628	-0.1212168	
-0.02840823	0.01782045	0.04501275	0.04032669	-0.1856628	-0.1212168	-0.07894871	-0.002522442	

8.72e+09	-0.1204765	0.1064387	-0.2069727	0.07443316	-0.1543925	0.08874375	-0.01190835	0.03087724	
-0.2069727	0.07443316	-0.04058624	-0.0002479303	-0.006091723	0.03142704	0.05551261	0.01219813	
-0.1543925	0.08874375	-0.006091723	0.03142704	-0.1867685	0.04359985	-0.2198846	0.007716964	
-0.01190835	0.03087724	0.05551261	0.01219813	-0.2198846	0.007716964	-0.06715648	-0.02621022	

8.74e+09	-0.1098063	0.1200848	-0.12517	0.178496	-0.140323	0.1275499	0.009139283	0.03121144	
-0.12517	0.178496	-0.05779026	-0.01683338	0.01468075	0.02798051	0.03629252	-0.01172007	
-0.140323	0.1275499	0.01468075	0.02798051	-0.1834557	0.06302565	-0.1736529	0.1314757	
0.009139283	0.03121144	0.03629252	-0.01172007	-0.1736529	0.1314757	-0.08301953	-0.04870727	

8.76e+09	-0.09509334	0.1367704	0.0001769971	0.2157699	-0.1182051	0.163174	0.0254783	0.01860294	
0.0001769971	0.2157699	-0.08142694	-0.009047162	0.02809458	0.0122322	0.005023627	-0.007366019	
-0.1182051	0.163174	0.02809458	0.0122322	-0.1752502	0.08810334	-0.06624654	0.2049809	
0.0254783	0.01860294	0.005023627	-0.007366019	-0.06624654	0.2049809	-0.1112143	-0.04552162	

8.78e+09	-0.07198321	0.1523505	0.122498	0.1749712	-0.08862972	0.1943004	0.03023607	-0.000421263	
0.122498	0.1749712	-0.08675441	0.01631402	0.02833622	-0.00733827	-0.008087273	0.02240191	
-0.08862972	0.1943004	0.02833622	-0.00733827	-0.1561285	0.1139344	0.06205985	0.2041349	
0.03023607	-0.000421263	-0.008087273	0.02240191	0.06205985	0.2041349	-0.1231795	-0.01895914	

8.8e+09	-0.0424266	0.1602385	0.1989179	0.07288416	-0.05238904	0.2192272	0.02332672	-0.01734228	
0.1989179	0.07288416	-0.06701836	0.03450192	0.01751646	-0.02184302	0.01081211	0.05022439	
-0.05238904	0.2192272	0.01751646	-0.02184302	-0.1275765	0.1322016	0.1663576	0.1313153	
0.02332672	-0.01734228	0.01081211	0.05022439	0.1663576	0.1313153	-0.1064249	0.005558868	

8.82e+09	-0.01273275	0.1591916	0.2034942	-0.05377688	-0.01053005	0.2365357	0.008840943	-0.02704251	
0.2034942	-0.05377688	-0.0406773	0.02680137	0.001279226	-0.02729804	0.04530601	0.04897745	
-0.01053005	0.2365357	0.001279226	-0.02729804	-0.0971139	0.1404073	0.2104906	0.01230637	
0.008840943	-0.02704251	0.04530601	0.04897745	0.2104906	0.01230637	-0.07632844	0.004053639	

8.84e+09	0.01400307	0.1534524	0.1348648	-0.1597945	0.03517246	0.2445334	-0.008612783	-0.02703628	
0.1348648	-0.1597945	-0.03415017	-0.000238417	-0.01520816	-0.02260655	0.06248871	0.01823155	
0.03517246	0.2445334	-0.01520816	-0.02260655	-0.0693572	0.1436642	0.1783048	-0.1100846	
-0.008612783	-0.02703628	0.06248871	0.01823155	0.1783048	-0.1100846	-0.06229437	-0.02282116	

8.86e+09	0.04025413	0.1462514	0.01851596	-0.206612	0.08197051	0.2423107	-0.02313553	-0.01650242	
0.01851596	-0.206612	-0.05471584	-0.01946192	-0.02588822	-0.008506608	0.04460748	-0.01273961	
0.08197051	0.2423107	-0.02588822	-0.008506608	-0.04092558	0.1464803	0.08210108	-0.1908933	
-0.02313553	-0.01650242	0.04460748	-0.01273961	0.08210108	-0.1908933	-0.07850629	-0.04867596	

8.88e+09	0.0694734	0.1350704	-0.1023348	-0.1782534	0.1273367	0.2304038	-0.02812751	0.0009920647	
-0.1023348	-0.1782534	-0.08180999	-0.01119203	-0.02514355	0.00937079	0.008407127	-0.01319655	
0.1273367	0.2304038	-0.02514355	0.00937079	-0.006644541	0.1458187	-0.04160505	-0.2016119	
-0.02812751	0.0009920647	0.008407127	-0.01319655	-0.04160505	-0.2016119	-0.1090258	-0.04806339	

8.9e+09	0.09991666	0.1147709	-0.1841981	-0.08695209	0.1699259	0.2097961	-0.02123828	0.0174081	
-0.1841981	-0.08695209	-0.08887149	0.01647136	-0.01344626	0.02213262	-0.01129367	0.01798272	
0.1699259	0.2097961	-0.01344626	0.02213262	0.03198715	0.1346014	-0.1480144	-0.1405586	
-0.02123828	0.0174081	-0.01129367	0.01798272	-0.1480144	-0.1405586	-0.1246624	-0.02189162	

8.92e+09	0.1253948	0.08428722	-0.1993897	0.03347373	0.2085482	0.1805418	-0.006563013	0.02587979	
-0.1993897	0.03347373	-0.06958581	0.03757784	0.002484851	0.02470736	0.00497518	0.05189707	
0.2085482	0.1805418	0.002484851	0.02470736	0.06735865	0.110568	-0.2004855	-0.03075022	
-0.006563013	0.02587979	0.00497518	0.05189707	-0.2004855	-0.03075022	-0.1117236	0.005522834	

8.94e+09	0.1411644	0.04818004	-0.1437398	0.1406131	0.2410576	0.1428793	0.009640903	0.02454015	
-0.1437398	0.1406131	-0.04098634	0.03297743	0.0160736	0.018143	0.04317527	0.05621021	
0.2410576	0.1428793	0.0160736	0.018143	0.09332297	0.07865765	-0.1811696	0.08906797	
0.009640903	0.02454015	0.04317527	0.05621021	-0.1811696	0.08906797	-0.08153264	0.01006873	

8.96e+09	0.1485965	0.01187174	-0.03707955	0.1966141	0.2649749	0.09803823	0.02244771	0.01430077	
-0.03707955	0.1966141	-0.02952842	0.006174186	0.02380501	0.00526829	0.06700809	0.02546871	
0.2649749	0.09803823	0.02380501	0.00526829	0.11121	0.0454791	-0.09668434	0.1760137	
0.02244771	0.01430077	0.06700809	0.02546871	-0.09668434	0.1760137	-0.06106102	-0.01290097	

8.98e+09	0.1515499	-0.02420031	0.08205125	0.1810994	0.27822	0.04864124	0.02703097	-0.002268619	
0.08205125	0.1810994	-0.04669886	-0.01772058	0.02256806	-0.01050448	0.05255828	-0.01097042	
0.27822	0.04864124	0.02256806	-0.01050448	0.1259916	0.01133001	0.02192772	0.19808	
0.02703097	-0.002268619	0.05255828	-0.01097042	0.02192772	0.19808	-0.06983589	-0.04282903	

9e+09	0.1500757	-0.0629412	0.1697747	0.1003805	0.2802741	-0.001811375	0.02001135	-0.01878666	
0.1697747	0.1003805	-0.07628447	-0.01547866	0.01114957	-0.02259816	0.01380815	-0.01697518	
0.2802741	-0.001811375	0.01114957	-0.02259816	0.1378285	-0.02837989	0.1303982	0.1480795	
0.02001135	-0.01878666	0.01380815	-0.01697518	0.1303982	0.1480795	-0.1002463	-0.05147538	

9.02e+09	0.1398028	-0.1046962	0.1948282	-0.01493785	0.2723399	-0.05076042	0.003824545	-0.02717519	
0.1948282	-0.01493785	-0.09023047	0.01087115	-0.00558698	-0.02445286	-0.0111556	0.01314027	
0.2723399	-0.05076042	-0.00558698	-0.02445286	0.1406238	-0.07499154	0.1896172	0.04618162	
0.003824545	-0.02717519	-0.0111556	0.01314027	0.1896172	0.04618162	-0.1242152	-0.03039527	

9.04e+09	0.1180258	-0.1443124	0.1496733	-0.1224015	0.2557903	-0.09709923	-0.01404072	-0.02332156	
0.1496733	-0.1224015	-0.07610288	0.03724948	-0.01943893	-0.01526948	0.001017253	0.04997965	
0.2557903	-0.09709923	-0.01943893	-0.01526948	0.1297514	-0.122584	0.1799414	-0.06967545	
-0.01404072	-0.02332156	0.001017253	0.04997965	0.1799414	-0.06967545	-0.1200608	0.00148785	

9.06e+09	0.08768322	-0.1772811	0.05287772	-0.1840549	0.2307067	-0.1406693	-0.02497045	-0.009088501	
0.05287772	-0.1840549	-0.04618228	0.04106024	-0.02408862	0.0001345377	0.03833272	0.05977358	
0.2307067	-0.1406693	-0.02408862	0.0001345377	0.1078005	-0.1647804	0.1070927	-0.158104	
-0.02497045	-0.009088501	0.03833272	0.05977358	0.1070927	-0.158104	-0.09145521	0.0166697	

9.08e+09	0.05263343	-0.202512	-0.06076683	-0.1802527	0.1958988	-0.1795145	-0.02449856	0.008154334	
-0.06076683	-0.1802527	-0.0252583	0.01770577	-0.01850844	0.01449682	0.06696324	0.03367754	
0.1958988	-0.1795145	-0.01850844	0.01449682	0.07969788	-0.2000381	-0.001877085	-0.1893407	
-0.02449856	0.008154334	0.06696324	0.03367754	-0.001877085	-0.1893407	-0.0615265	0.001288797	

9.1e+09	0.01432037	-0.2215677	-0.1523683	-0.1128701	0.1515278	-0.2091353	-0.01433249	0.02088513	
-0.1523683	-0.1128701	-0.03440908	-0.01396508	-0.006231625	0.02256224	0.05957378	-0.004985169	
0.1515278	-0.2091353	-0.006231625	0.02256224	0.04706442	-0.2303001	-0.1091742	-0.1533961	
-0.01433249	0.02088513	0.05957378	-0.004985169	-0.1091742	-0.1533961	-0.05810033	-0.03418274	

9.12e+09	-0.02698855	-0.2350154	-0.1883671	-0.00486677	0.103328	-0.2264498	0.00155637	0.02549754	
-0.1883671	-0.00486677	-0.06752266	-0.02226563	0.009156443	0.0222009	0.02229531	-0.01783956	
0.103328	-0.2264498	0.009156443	0.0222009	0.009550791	-0.2567925	-0.1756555	-0.06234091	
0.00155637	0.02549754	0.02229531	-0.01783956	-0.1756555	-0.06234091	-0.08831401	-0.05608903	

9.14e+09	-0.07257758	-0.2413015	-0.1554575	0.1030121	0.05547212	-0.2335527	0.01757196	0.01896868	
-0.1554575	0.1030121	-0.0922009	0.002108431	0.02166077	0.011593	-0.007032204	0.007203652	
0.05547212	-0.2335527	0.02166077	0.011593	-0.03555479	-0.2772797	-0.1772217	0.04858211	
0.01757196	0.01896868	-0.007032204	0.007203652	-0.1772217	0.04858211	-0.1233795	-0.04121039	

9.16e+09	-0.1201082	-0.2373619	-0.06800356	0.1709723	0.008760783	-0.2335758	0.02576372	0.002851123	
-0.06800356	0.1709723	-0.08503615	0.03635874	0.02413179	-0.005360496	-0.001674536	0.04411123	
0.008760783	-0.2335758	0.02413179	-0.005360496	-0.08618355	-0.2870827	-0.1164688	0.1382622	
0.02576372	0.002851123	-0.001674536	0.04411123	-0.1164688	0.1382622	-0.1296725	-0.003508836	

9.18e+09	-0.166035	-0.2229966	0.04007928	0.1775424	-0.03928472	-0.226468	0.02036351	-0.01441977	
0.04007928	0.1775424	-0.05204099	0.05037842	0.01429056	-0.01914575	0.03085321	0.060399	
-0.03928472	-0.226468	0.01429056	-0.01914575	-0.1380201	-0.2846204	-0.01852724	0.177737	
0.02036351	-0.01441977	0.03085321	0.060399	-0.01852724	0.177737	-0.1018817	0.0235587	

9.2e+09	-0.2069556	-0.199506	0.1330283	0.1231941	-0.08674396	-0.2078775	0.006134437	-0.02258471	
0.1330283	0.1231941	-0.02064063	0.02943411	-0.0005700505	-0.02275586	0.06326405	0.0423436	
-0.08674396	-0.2078775	-0.0005700505	-0.02275586	-0.1858826	-0.2710686	0.08460057	0.1567465	
0.006134437	-0.02258471	0.06326405	0.0423436	0.08460057	0.1567465	-0.06189448	0.01508825	

9.22e+09	-0.2415739	-0.1709806	0.1789544	0.02534312	-0.1279256	-0.1785529	-0.008675341	-0.02066811	
0.1789544	0.02534312	-0.02250801	-0.009885011	-0.0138886	-0.01757971	0.06507465	0.004807674	
-0.1279256	-0.1785529	-0.0138886	-0.01757971	-0.2284026	-0.2516281	0.1581241	0.08050916	
-0.008675341	-0.02066811	0.06507465	0.004807674	0.1581241	0.08050916	-0.04779686	-0.0255855	

9.24e+09	-0.2726377	-0.1382572	0.1603766	-0.08093127	-0.1600592	-0.1424072	-0.0191874	-0.0106708	
0.1603766	-0.08093127	-0.05846586	-0.02831387	-0.021923	-0.005510744	0.03390157	-0.01595648	
-0.1600592	-0.1424072	-0.021923	-0.005510744	-0.2691036	-0.2272492	0.1744278	-0.02362139	
-0.0191874	-0.0106708	0.03390157	-0.01595648	0.1744278	-0.02362139	-0.07688785	-0.05901945	

9.26e+09	-0.2997025	-0.0987111	0.08493141	-0.1565675	-0.1835062	-0.1032317	-0.02138181	0.003743261	
0.08493141	-0.1565675	-0.09328354	-0.006179533	-0.02082527	0.009512579	0.0003076606	-0.000393986	
-0.1835062	-0.1032317	-0.02082527	0.009512579	-0.3078027	-0.1941339	0.129078	-0.1171147	
-0.02138181	0.003743261	0.0003076606	-0.000393986	0.129078	-0.1171147	-0.1212946	-0.05068887	

9.28e+09	-0.3184682	-0.05215117	-0.01878875	-0.1756077	-0.2002147	-0.06259003	-0.01383354	0.01631195	
-0.01878875	-0.1756077	-0.09243424	0.0356674	-0.01013817	0.02062164	-0.004507528	0.03580136	
-0.2002147	-0.06259003	-0.01013817	0.02062164	-0.3393192	-0.1511456	0.04022478	-0.1681558	
-0.01383354	0.01631195	-0.004507528	0.03580136	0.04022478	-0.1681558	-0.1373918	-0.007921961	

9.3e+09	-0.325919	-0.002673589	-0.1142444	-0.1331971	-0.2109377	-0.01953097	-6.329441e-05	0.0208419	
-0.1142444	-0.1331971	-0.05600404	0.05730937	0.0051358	0.02221199	0.02276068	0.05969185	
-0.2109377	-0.01953097	0.0051358	0.02221199	-0.3592979	-0.1028913	-0.06122303	-0.1609169	
-6.329441e-05	0.0208419	0.02276068	0.05969185	-0.06122303	-0.1609169	-0.1092629	0.02862382	

9.32e+09	-0.3235202	0.04489214	-0.1689152	-0.04481861	-0.2135836	0.02599776	0.01279911	0.01545663	
-0.1689152	-0.04481861	-0.01814501	0.03787156	0.01761541	0.01395629	0.0576736	0.05039171	
-0.2135836	0.02599776	0.01761541	0.01395629	-0.3689509	-0.05481096	-0.1411665	-0.09796718	
0.01279911	0.01545663	0.0576736	0.05039171	-0.1411665	-0.09796718	-0.06313027	0.02406924	

9.34e+09	-0.3147996	0.08955423	-0.1638664	0.05889864	-0.2062998	0.07107498	0.01891644	0.00385375	
-0.1638664	0.05889864	-0.01504942	-0.004916003	0.02228678	0.0002333873	0.0690023	0.0158442	
-0.2062998	0.07107498	0.02228678	0.0002333873	-0.3723399	-0.008189503	-0.1713788	-0.0006281391	
0.01891644	0.00385375	0.0690023	0.0158442	-0.1713788	-0.0006281391	-0.04299469	-0.01801152	

9.36e+09	-0.3009084	0.1333443	-0.1007602	0.1409482	-0.190319	0.1120617	0.01684387	-0.008455382	
-0.1007602	0.1409482	-0.05052138	-0.02945138	0.01795743	-0.01349508	0.04565321	-0.01209023	
-0.190319	0.1120617	0.01795743	-0.01349508	-0.370872	0.03950385	-0.1407989	0.09622664	
0.01684387	-0.008455382	0.04565321	-0.01209023	-0.1407989	0.09622664	-0.06900822	-0.05694669	

9.38e+09	-0.279402	0.1770404	-0.002883931	0.1721058	-0.1688278	0.1475375	0.007913442	-0.0170247	
-0.002883931	0.1721058	-0.08978406	-0.01111955	0.005928285	-0.02216179	0.009618492	-0.006880326	
-0.1688278	0.1475375	0.005928285	-0.02216179	-0.3613755	0.08990009	-0.06142017	0.1580233	
0.007913442	-0.0170247	0.009618492	-0.006880326	-0.06142017	0.1580233	-0.1157305	-0.05428602	

9.4e+09	-0.2479038	0.2174823	0.09447268	0.1426299	-0.1438244	0.1788814	-0.004716909	-0.01829161	
0.09447268	0.1426299	-0.09446295	0.03190046	-0.009525131	-0.02142398	-0.005273698	0.02627294	
-0.1438244	0.1788814	-0.009525131	-0.02142398	-0.3401845	0.1395892	0.03802233	0.1645749	
-0.004716909	-0.01829161	-0.005273698	0.02627294	0.03802233	0.1645749	-0.1377031	-0.0132593	

9.42e+09	-0.2081852	0.2500491	0.1578726	0.0641279	-0.1144751	0.2073713	-0.01543643	-0.01090535	
0.1578726	0.0641279	-0.06071929	0.05845189	-0.02121209	-0.01061759	0.0144165	0.05696508	
-0.1144751	0.2073713	-0.02121209	-0.01061759	-0.3081649	0.1830477	0.1240684	0.1145753	
-0.01543643	-0.01090535	0.0144165	0.05696508	0.1240684	0.1145753	-0.1148267	0.02669988	

9.44e+09	-0.164408	0.2734047	0.166244	-0.03620147	-0.07900238	0.2314058	-0.01852832	0.001741655	
0.166244	-0.03620147	-0.02058264	0.04424036	-0.02311035	0.005203903	0.05113652	0.05753574	
-0.07900238	0.2314058	-0.02311035	0.005203903	-0.2703164	0.2175731	0.1674417	0.02453695	
-0.01852832	0.001741655	0.05113652	0.05753574	0.1674417	0.02453695	-0.06930212	0.02863505	

9.46e+09	-0.1191197	0.2894361	0.1165399	-0.1239462	-0.03849767	0.2474229	-0.01271297	0.01282888	
0.1165399	-0.1239462	-0.01161702	0.00327196	-0.01472832	0.01831834	0.07167821	0.0266754	
-0.03849767	0.2474229	-0.01472832	0.01831834	-0.2297471	0.2456849	0.1521778	-0.07485107	
-0.01271297	0.01282888	0.07167821	0.0266754	0.1521778	-0.07485107	-0.04399514	-0.00836865	

9.48e+09	-0.0716247	0.2997207	0.02554593	-0.1681404	0.003168293	0.2542303	-0.001903341	0.0174666	
0.02554593	-0.1681404	-0.04172003	-0.02545602	-0.0004722344	0.02350426	0.0561202	-0.00735409	
0.003168293	0.2542303	-0.0004722344	0.02350426	-0.1852488	0.2695387	0.08281622	-0.1480972	
-0.001903341	0.0174666	0.0561202	-0.00735409	0.08281622	-0.1480972	-0.06212018	-0.04884866	

9.5e+09	-0.0206868	0.302744	-0.07428431	-0.1527111	0.04303492	0.2538987	0.009144715	0.01489596	
-0.07428431	-0.1527111	-0.0814471	-0.01447861	0.01418936	0.01925442	0.01886065	-0.0115266	
0.04303492	0.2538987	0.01418936	0.01925442	-0.1342044	0.2872785	-0.015734	-0.1688385	
0.009144715	0.01489596	0.01886065	-0.0115266	-0.015734	-0.1688385	-0.1055358	-0.05433122	

9.52e+09	0.03236735	0.2952109	-0.1474698	-0.08360437	0.0814915	0.2488675	0.01669778	0.006143254	
-0.1474698	-0.08360437	-0.09280895	0.02476395	0.02371495	0.006509036	-0.004152452	0.01813056	
0.0814915	0.2488675	0.02371495	0.006509036	-0.07741936	0.2940593	-0.1085008	-0.1303654	
0.01669778	0.006143254	-0.004152452	0.01813056	-0.1085008	-0.1303654	-0.1327548	-0.02083632	

9.54e+09	0.08308805	0.2759317	-0.1688358	0.01441496	0.1203223	0.2387773	0.01721409	-0.005988516	
-0.1688358	0.01441496	-0.06633068	0.05502969	0.02305436	-0.01013312	0.008707576	0.05337843	
0.1203223	0.2387773	0.02305436	-0.01013312	-0.02017651	0.2873124	-0.1636125	-0.04623598	
0.01721409	-0.005988516	0.008707576	0.05337843	-0.1636125	-0.04623598	-0.1196437	0.01948521	

9.56e+09	0.1277933	0.2474042	-0.1313108	0.1075915	0.1589998	0.2208972	0.009411465	-0.01588417	
-0.1313108	0.1075915	-0.02712958	0.04938935	0.01152029	-0.02269105	0.0454163	0.06147528	
0.1589998	0.2208972	0.01152029	-0.02269105	0.03226673	0.2696362	-0.1616978	0.054889	
0.009411465	-0.01588417	0.0454163	0.06147528	-0.1616978	0.054889	-0.0794547	0.03037258	

9.58e+09	0.1659997	0.2128908	-0.04742305	0.1636576	0.1936024	0.1939203	-0.003016301	-0.01812574	
-0.04742305	0.1636576	-0.01091563	0.01396132	-0.005299969	-0.02484908	0.07176662	0.03486657	
0.1936024	0.1939203	-0.005299969	-0.02484908	0.07968264	0.2450924	-0.1022343	0.137759	
-0.003016301	-0.01812574	0.07176662	0.03486657	-0.1022343	0.137759	-0.0488721	0.003014832	

9.6e+09	0.1989731	0.1729159	0.05428199	0.1622506	0.2204337	0.1607135	-0.01354305	-0.01197346	
0.05428199	0.1622506	-0.03207104	-0.01797536	-0.01942832	-0.01620431	0.06281418	-0.001317634	
0.2204337	0.1607135	-0.01942832	-0.01620431	0.1242306	0.2139475	-0.005433759	0.1720442	
-0.01354305	-0.01197346	0.06281418	-0.001317634	-0.005433759	0.1720442	-0.05555122	-0.0367825	

9.62e+09	0.2260102	0.1263698	0.1374354	0.102669	0.2397089	0.1252528	-0.01787186	-0.001168251	
0.1374354	0.102669	-0.06997844	-0.01686494	-0.02541051	-0.001020592	0.02749229	-0.01208201	
0.2397089	0.1252528	-0.02541051	-0.001020592	0.1652169	0.173513	0.09382896	0.1445944	
-0.01787186	-0.001168251	0.02749229	-0.01208201	0.09382896	0.1445944	-0.09238741	-0.05231286	

9.64e+09	0.2439017	0.07292353	0.1716521	0.006086912	0.2538493	0.08854873	-0.0151052	0.01002827	
0.1716521	0.006086912	-0.08896239	0.01567046	-0.02109877	0.01499411	0.0004937597	0.01244521	
0.2538493	0.08854873	-0.02109877	0.01499411	0.1980192	0.1226192	0.1595444	0.06545671	
-0.0151052	0.01002827	0.0004937597	0.01244521	0.1595444	0.06545671	-0.1250024	-0.02973366	

9.66e+09	0.24929	0.0161095	0.1449119	-0.09267143	0.2632862	0.04890655	-0.005928898	0.01768882	
0.1449119	-0.09267143	-0.0721431	0.04912049	-0.007403897	0.02536865	0.007066746	0.0478328	
0.2632862	0.04890655	-0.007403897	0.02536865	0.2177186	0.06480958	0.1686834	-0.03693625	
-0.005928898	0.01768882	0.007066746	0.0478328	0.1686834	-0.03693625	-0.1240564	0.00976345	

9.68e+09	0.2422643	-0.03935498	0.06686136	-0.1590802	0.2651495	0.005666594	0.006633148	0.0180274	
0.06686136	-0.1590802	-0.0353232	0.05350945	0.01025177	0.02473896	0.03993569	0.06096541	
0.2651495	0.005666594	0.01025177	0.02473896	0.2238307	0.006322141	0.1181002	-0.1267046	
0.006633148	0.0180274	0.03993569	0.06096541	0.1181002	-0.1267046	-0.09088545	0.03079839	

9.7e+09	0.2255948	-0.09079374	-0.03570069	-0.1697055	0.2563742	-0.03810132	0.01682338	0.009948921	
-0.03570069	-0.1697055	-0.01172037	0.02524938	0.02350938	0.01290196	0.06810925	0.04060771	
0.2563742	-0.03810132	0.02350938	0.01290196	0.2198476	-0.04976659	0.02484852	-0.1720751	
0.01682338	0.009948921	0.06810925	0.04060771	0.02484852	-0.1720751	-0.0551303	0.01459694	

9.72e+09	0.2009875	-0.1384709	-0.1269144	-0.1195144	0.2376314	-0.07740374	0.01937477	-0.002848199	
-0.1269144	-0.1195144	-0.02289058	-0.009472227	0.02626544	-0.004391275	0.06575302	0.006802916	
0.2376314	-0.07740374	0.02626544	-0.004391275	0.2077087	-0.1044893	-0.07823925	-0.1557646	
0.01937477	-0.002848199	0.06575302	0.006802916	-0.07823925	-0.1557646	-0.0495461	-0.02424023	

9.74e+09	0.167827	-0.1820572	-0.1731053	-0.02540763	0.2130964	-0.1099072	0.013451	-0.01406141	
-0.1731053	-0.02540763	-0.05812881	-0.01802723	0.01803034	-0.0193372	0.03636173	-0.008402789	
0.2130964	-0.1099072	0.01803034	-0.0193372	0.1853745	-0.1583808	-0.1533088	-0.08303213	
0.013451	-0.01406141	0.03636173	-0.008402789	-0.1533088	-0.08303213	-0.07963215	-0.04941252	

9.76e+09	0.1252898	-0.2190963	-0.1567016	0.07833354	0.1853806	-0.1374199	0.002342135	-0.01936286	
-0.1567016	0.07833354	-0.08393694	0.007314008	0.00273459	-0.02631831	0.008797203	0.00834415	
0.1853806	-0.1374199	0.00273459	-0.02631831	0.1506	-0.2079922	-0.1730118	0.01934524	
0.002342135	-0.01936286	0.008797203	0.00834415	-0.1730118	0.01934524	-0.1170284	-0.03730353	

9.78e+09	0.07481252	-0.2456819	-0.08393676	0.153887	0.1534315	-0.1613161	-0.00985696	-0.01730916	
-0.08393676	0.153887	-0.07630879	0.04278748	-0.01385209	-0.02284552	0.008368117	0.03991321	
0.1534315	-0.1613161	-0.01385209	-0.02284552	0.1048114	-0.2476649	-0.1311869	0.1142	
-0.00985696	-0.01730916	0.008368117	0.03991321	-0.1311869	0.1142	-0.1268761	0.0009965029	

9.8e+09	0.02104235	-0.2595484	0.01875246	0.1746059	0.115608	-0.1795743	-0.01893545	-0.008127483	
0.01875246	0.1746059	-0.04247924	0.05572162	-0.02519171	-0.009781337	0.03399153	0.05711194	
0.115608	-0.1795743	-0.02519171	-0.009781337	0.05325918	-0.2744806	-0.04309828	0.1687122	
-0.01893545	-0.008127483	0.03399153	0.05711194	-0.04309828	0.1687122	-0.09995276	0.03021559	

9.82e+09	-0.0319066	-0.2621656	0.1153812	0.1331809	0.07345234	-0.1883761	-0.02059397	0.005383522	
0.1153812	0.1331809	-0.01350636	0.03437584	-0.02604687	0.007745113	0.06177728	0.0453401	
0.07345234	-0.1883761	-0.02604687	0.007745113	0.0007696055	-0.290099	0.06074803	0.16367	
-0.02059397	0.005383522	0.06177728	0.0453401	0.06074803	0.16367	-0.06079803	0.02318004	

9.84e+09	-0.08282526	-0.2559736	0.1714514	0.04344438	0.03171757	-0.1862993	-0.01310047	0.01732193	
0.1714514	0.04344438	-0.01634922	-0.001289583	-0.015853	0.02196456	0.06684952	0.01632088	
0.03171757	-0.1862993	-0.015853	0.02196456	-0.05193482	-0.2973892	0.1435941	0.09987113	
-0.01310047	0.01732193	0.06684952	0.01632088	0.1435941	0.09987113	-0.04623007	-0.01392247	

9.86e+09	-0.1321733	-0.2411197	0.1657962	-0.06282448	-0.005578874	-0.1761517	0.0002848637	0.02184814	
0.1657962	-0.06282448	-0.04808174	-0.01699831	0.0005796235	0.02686475	0.04552896	-0.002864838	
-0.005578874	-0.1761517	0.0005796235	0.02686475	-0.1059895	-0.2960172	0.17493	5.766093e-05	
0.0002848637	0.02184814	0.04552896	-0.002864838	0.17493	5.766093e-05	-0.07046982	-0.04532771	

9.88e+09	-0.1782307	-0.2165189	0.09999202	-0.1465224	-0.03864796	-0.1617262	0.01333372	0.01739318	
0.09999202	-0.1465224	-0.07770429	0.002075473	0.01631146	0.02121148	0.01846655	0.004874246	
-0.03864796	-0.1617262	0.01631146	0.02121148	-0.1601608	-0.2830832	0.143726	-0.09943529	
0.01333372	0.01739318	0.01846655	0.004874246	0.143726	-0.09943529	-0.1096838	-0.04055151	

9.9e+09	-0.2176875	-0.1822087	-0.001612469	-0.1773227	-0.06966505	-0.143215	0.02137318	0.006369184	
-0.001612469	-0.1773227	-0.07693168	0.03707434	0.02586642	0.007632527	0.01060646	0.03150555	
-0.06966505	-0.143215	0.02586642	0.007632527	-0.209606	-0.2578281	0.06192662	-0.1634095	
0.02137318	0.006369184	0.01060646	0.03150555	0.06192662	-0.1634095	-0.1259463	-0.004860381	

9.92e+09	-0.2472791	-0.1409311	-0.102465	-0.1448773	-0.09829018	-0.118307	0.02178455	-0.007749848	
-0.102465	-0.1448773	-0.0470645	0.05496932	0.02582293	-0.009351339	0.02851245	0.05255932	
-0.09829018	-0.118307	0.02582293	-0.009351339	-0.2500187	-0.2231503	-0.04175421	-0.1701209	
0.02178455	-0.007749848	0.02851245	0.05255932	-0.04175421	-0.1701209	-0.1042816	0.02759134	

9.94e+09	-0.2664517	-0.09703316	-0.1671619	-0.06084196	-0.1208279	-0.08653621	0.01328113	-0.02015337	
-0.1671619	-0.06084196	-0.0165	0.03952199	0.01534675	-0.02341481	0.05575254	0.04925114	
-0.1208279	-0.08653621	0.01534675	-0.02341481	-0.2804596	-0.1840174	-0.1315343	-0.1168637	
0.01328113	-0.02015337	0.05575254	0.04925114	-0.1315343	-0.1168637	-0.06579817	0.02634404	

9.96e+09	-0.2772512	-0.05293864	-0.1726053	0.04557205	-0.1341518	-0.05122758	-0.001904346	-0.02490831	
-0.1726053	0.04557205	-0.01384413	0.006054107	-0.001896597	-0.02827847	0.06758809	0.02467088	
-0.1341518	-0.05122758	-0.001896597	-0.02827847	-0.3033814	-0.143084	-0.1754786	-0.02132847	
-0.001904346	-0.02490831	0.06758809	0.02467088	-0.1754786	-0.02132847	-0.04736959	-0.006699521	

9.98e+09	-0.2809048	-0.008386132	-0.1159051	0.1365256	-0.1389375	-0.0168871	-0.01710696	-0.01889283	
-0.1159051	0.1365256	-0.04083114	-0.01288185	-0.01856776	-0.02161752	0.05308404	0.001954204	
-0.1389375	-0.0168871	-0.01856776	-0.02161752	-0.3201633	-0.09916835	-0.1569512	0.08275098	
-0.01710696	-0.01889283	0.05308404	0.001954204	-0.1569512	0.08275098	-0.06624504	-0.03872599	

1e+10	-0.2761634	0.03630857	-0.01706926	0.1786765	-0.1387175	0.01484911	-0.02533557	-0.00481469	
-0.01706926	0.1786765	-0.07005607	0.0008314812	-0.02793216	-0.006484602	0.02642307	0.002703388	
-0.1387175	0.01484911	-0.02793216	-0.006484602	-0.3283574	-0.05136069	-0.08217293	0.15792	
-0.02533557	-0.00481469	0.02642307	0.002703388	-0.08217293	0.15792	-0.1024933	-0.03834108	

1.002e+10	-0.2619724	0.07884474	0.0881191	0.1566802	-0.1352988	0.0459541	-0.02371938	0.0113034	
0.0881191	0.1566802	-0.07317481	0.03227394	-0.02686112	0.01129689	0.0132551	0.02575072	
-0.1352988	0.0459541	-0.02686112	0.01129689	-0.3250866	-0.002950474	0.02220026	0.1773761	
-0.02371938	0.0113034	0.0132551	0.02575072	0.02220026	0.1773761	-0.1201504	-0.00774872	

1.004e+10	-0.2390912	0.1159418	0.1620982	0.07869317	-0.1264918	0.07790959	-0.01289244	0.02395388	
0.1620982	0.07869317	-0.04862223	0.05088026	-0.01544157	0.02567877	0.02596904	0.04909255	
-0.1264918	0.07790959	-0.01544157	0.02567877	-0.3108416	0.04119907	0.1197552	0.1341414	
-0.01289244	0.02395388	0.02596904	0.04909255	0.1197552	0.1341414	-0.1037271	0.02221823	

1.006e+10	-0.2106413	0.1452574	0.17883	-0.02774827	-0.1098293	0.1080798	0.004279863	0.02808375	
0.17883	-0.02774827	-0.02078722	0.04029176	0.003141926	0.03074487	0.0525086	0.0507105	
-0.1098293	0.1080798	0.003141926	0.03074487	-0.28946	0.07821072	0.1761669	0.04245331	
0.004279863	0.02808375	0.0525086	0.0507105	0.1761669	0.04245331	-0.07079965	0.02388175	

1.008e+10	-0.1796716	0.1673706	0.1318276	-0.1255245	-0.08642934	0.1322289	0.02136993	0.02034817	
0.1318276	-0.1255245	-0.01563797	0.01226174	0.02165901	0.02310165	0.06753322	0.02902154	
-0.08642934	0.1322289	0.02165901	0.02310165	-0.2645034	0.1090204	0.1702454	-0.06627324	
0.02136993	0.02034817	0.06753322	0.02902154	0.1702454	-0.06627324	-0.0532089	-0.002239417	

1.01e+10	-0.1468631	0.1838405	0.03652136	-0.1794922	-0.06055899	0.1487662	0.03012194	0.002990269	
0.03652136	-0.1794922	-0.03643166	-0.005496763	0.03173289	0.005363685	0.05647083	0.005509948	
-0.06055899	0.1487662	0.03173289	0.005363685	-0.2361987	0.1357106	0.1025414	-0.1528627	
0.03012194	0.002990269	0.05647083	0.005509948	0.1025414	-0.1528627	-0.06633641	-0.02925784	

1.012e+10	-0.1118238	0.1943106	-0.07326071	-0.1689718	-0.03529394	0.1599934	0.02614722	-0.01626065	
-0.07326071	-0.1689718	-0.06110677	0.003448495	0.02901116	-0.01497698	0.03114533	0.003756093	
-0.03529394	0.1599934	0.02901116	-0.01497698	-0.2025258	0.1574351	-0.003380536	-0.1853292	
0.02614722	-0.01626065	0.03114533	0.003756093	-0.003380536	-0.1853292	-0.09492053	-0.0313001	

1.014e+10	-0.07545522	0.1968756	-0.1575867	-0.09702385	-0.00969902	0.1686213	0.01127872	-0.02925837	
-0.1575867	-0.09702385	-0.0654047	0.02830314	0.01458259	-0.02993056	0.01750977	0.02458498	
-0.00969902	0.1686213	0.01458259	-0.02993056	-0.1641065	0.1703533	-0.1096164	-0.1510958	
0.01127872	-0.02925837	0.01750977	0.02458498	-0.1096164	-0.1510958	-0.1101533	-0.008746634	

1.016e+10	-0.04074888	0.1908891	-0.1856753	0.01064095	0.01861554	0.173645	-0.00876933	-0.03099015	
-0.1856753	0.01064095	-0.04738707	0.04398856	-0.006492379	-0.03355671	0.02853243	0.04632987	
0.01861554	0.173645	-0.006492379	-0.03355671	-0.125584	0.1725347	-0.1776937	-0.06163619	
-0.00876933	-0.03099015	0.02853243	0.04632987	-0.1776937	-0.06163619	-0.09953157	0.0144846	

1.018e+10	-0.01078526	0.1777631	-0.1471371	0.1157023	0.04877689	0.1714256	-0.02662561	-0.01994751	
-0.1471371	0.1157023	-0.02596747	0.03736229	-0.02626043	-0.0233151	0.05231788	0.04772425	
0.04877689	0.1714256	-0.02626043	-0.0233151	-0.09142266	0.1660911	-0.1824678	0.05177079	
-0.02662561	-0.01994751	0.05231788	0.04772425	-0.1824678	0.05177079	-0.07598301	0.01747223	

1.02e+10	0.01323624	0.1605152	-0.05458889	0.1805793	0.07626107	0.1609025	-0.03422869	0.0006572244	
-0.05458889	0.1805793	-0.02088566	0.01729041	-0.03576707	-0.002331759	0.06486877	0.02852132	
0.07626107	0.1609025	-0.03576707	-0.002331759	-0.06259219	0.154999	-0.1206994	0.1484677	
-0.03422869	0.0006572244	0.06486877	0.02852132	-0.1206994	0.1484677	-0.06221282	0.0005212051	

1.022e+10	0.03230267	0.1413356	0.05961113	0.1805645	0.09758845	0.1455285	-0.02703474	0.02205685	
0.05961113	0.1805645	-0.03453986	0.004130857	-0.03003055	0.02035515	0.05450717	0.009318648	
0.09758845	0.1455285	-0.03003055	0.02035515	-0.03697149	0.1411276	-0.01323435	0.1924455	
-0.02703474	0.02205685	0.05450717	0.009318648	-0.01323435	0.1924455	-0.0690877	-0.01818927	

1.024e+10	0.04741646	0.1201093	0.1537729	0.1140146	0.1135941	0.1293789	-0.007877827	0.0343964	
0.1537729	0.1140146	-0.05133466	0.009236563	-0.01147748	0.03474539	0.03384125	0.00960163	
0.1135941	0.1293789	-0.01147748	0.03474539	-0.01380878	0.1228564	0.1008251	0.1660108	
-0.007877827	0.0343964	0.03384125	0.00960163	0.1008251	0.1660108	-0.08713906	-0.02141953	

1.026e+10	0.05743529	0.09626836	0.1924274	0.004501199	0.1273695	0.1129091	0.01489354	0.03236898	
0.1924274	0.004501199	-0.05483553	0.02507094	0.01215289	0.03489638	0.02516567	0.02710994	
0.1273695	0.1129091	0.01215289	0.03489638	0.004063934	0.09890154	0.1791297	0.07796215	
0.01489354	0.03236898	0.02516567	0.02710994	0.1791297	0.07796215	-0.09816137	-0.008743401	

1.028e+10	0.06031549	0.07179209	0.160672	-0.1077556	0.1393607	0.09364297	0.03187997	0.01679205	
0.160672	-0.1077556	-0.04400154	0.03526449	0.03126576	0.02043403	0.03584626	0.04208497	
0.1393607	0.09364297	0.03126576	0.02043403	0.01294468	0.07209511	0.1923236	-0.03985631	
0.03187997	0.01679205	0.03584626	0.04208497	0.1923236	-0.03985631	-0.09363683	0.005907538	

1.03e+10	0.05634946	0.0500206	0.06960114	-0.1816203	0.1462603	0.07092556	0.03593776	-0.006231367	
0.06960114	-0.1816203	-0.03142724	0.03193597	0.03754115	-0.003064216	0.05274447	0.04006861	
0.1462603	0.07092556	0.03754115	-0.003064216	0.01323577	0.04780763	0.1348786	-0.1442706	
0.03593776	-0.006231367	0.05274447	0.04006861	0.1348786	-0.1442706	-0.08069911	0.009708506	

1.032e+10	0.04800579	0.03340218	-0.04831795	-0.1895589	0.1455409	0.04824862	0.02477849	-0.02719972	
-0.04831795	-0.1895589	-0.02813683	0.02138799	0.02777486	-0.02556894	0.05848229	0.02570968	
0.1455409	0.04824862	0.02777486	-0.02556894	0.008686421	0.02860833	0.02693802	-0.1967545	
0.02477849	-0.02719972	0.05848229	0.02570968	0.02693802	-0.1967545	-0.0716694	0.00222726	

1.034e+10	0.03861007	0.0218054	-0.1498074	-0.1273158	0.1392482	0.03012689	0.002877901	-0.03678058	
-0.1498074	-0.1273158	-0.03421268	0.01472015	0.006231047	-0.03708416	0.04941295	0.01535921	
0.1392482	0.03012689	0.006231047	-0.03708416	0.002808029	0.01333659	-0.09230874	-0.176871	
0.002877901	-0.03678058	0.04941295	0.01535921	-0.09230874	-0.176871	-0.0727028	-0.007705524	

1.036e+10	0.02930446	0.01303064	-0.1965641	-0.0170243	0.1318919	0.01689854	-0.0201559	-0.03081318	
-0.1965641	-0.0170243	-0.04141896	0.01647423	-0.01756013	-0.03297026	0.03753593	0.01869755	
0.1318919	0.01689854	-0.01756013	-0.03297026	-0.004520816	-0.0004201792	-0.178206	-0.09107491	
-0.0201559	-0.03081318	0.03753593	0.01869755	-0.178206	-0.09107491	-0.08038191	-0.0114973	

1.038e+10	0.01887586	0.006589528	-0.1705448	0.1000581	0.1252059	0.005576301	-0.03459883	-0.0121706	
-0.1705448	0.1000581	-0.0432224	0.02240437	-0.0337697	-0.0154111	0.03570461	0.02967413	
0.1252059	0.005576301	-0.0337697	-0.0154111	-0.01556149	-0.01212738	-0.19841	0.02887416	
-0.03459883	-0.0121706	0.03570461	0.02967413	-0.19841	0.02887416	-0.0869657	-0.007746183	

1.04e+10	0.007313419	0.004419574	-0.081236	0.1805897	0.1172938	-0.005654543	-0.03472688	0.01128345	
-0.081236	0.1805897	-0.03994035	0.02626585	-0.03590742	0.00826348	0.04392283	0.03545011	
0.1172938	-0.005654543	-0.03590742	0.00826348	-0.0298192	-0.01795971	-0.1454089	0.1384226	
-0.03472688	0.01128345	0.04392283	0.03545011	-0.1454089	0.1384226	-0.08761165	-0.001055138	

1.042e+10	-0.002503109	0.007622215	0.0382063	0.1945235	0.1061512	-0.01495863	-0.02065354	0.02981638	
0.0382063	0.1945235	-0.03626599	0.02618473	-0.02320793	0.02808349	0.0515022	0.03134338	
0.1061512	-0.01495863	-0.02320793	0.02808349	-0.04271296	-0.0162678	-0.03873712	0.1972625	
-0.02065354	0.02981638	0.0515022	0.03134338	-0.03873712	0.1972625	-0.08337156	0.003013385	

1.044e+10	-0.00751687	0.01421489	0.1437952	0.1367239	0.0934636	-0.01929755	0.001541746	0.03591592	
0.1437952	0.1367239	-0.03475307	0.02472512	-0.00144106	0.03584805	0.05107047	0.024214	
0.0934636	-0.01929755	-0.00144106	0.03584805	-0.05014494	-0.01032064	0.08247726	0.1836059	
0.001541746	0.03591592	0.05107047	0.024214	0.08247726	0.1836059	-0.07864509	0.002567703	

1.046e+10	-0.007138731	0.02043073	0.1964446	0.02828185	0.08333962	-0.0189909	0.0226092	0.02744959	
0.1964446	0.02828185	-0.03409161	0.02385347	0.02008974	0.02898192	0.04558916	0.02237733	
0.08333962	-0.0189909	0.02008974	0.02898192	-0.05231397	-0.004567679	0.1736225	0.1021042	
0.0226092	0.02744959	0.04558916	0.02237733	0.1736225	0.1021042	-0.07628066	-0.0004526638	

1.048e+10	-0.003992244	0.02402152	0.1765136	-0.09054048	0.07721864	-0.01787702	0.03415447	0.008331647	
0.1765136	-0.09054048	-0.03325033	0.02286086	0.03289221	0.01101005	0.04260307	0.02640062	
0.07721864	-0.01787702	0.03289221	0.01101005	-0.0525133	-0.0006232697	0.2006524	-0.0171032	
0.03415447	0.008331647	0.04260307	0.02640062	0.2006524	-0.0171032	-0.0767813	-0.003432906	

1.05e+10	-0.0003568433	0.02597755	0.0915354	-0.175763	0.07263657	-0.01867963	0.03201521	-0.01358438	
0.0915354	-0.175763	-0.03336765	0.02102087	0.03247416	-0.01066629	0.04513871	0.03022572	
0.07263657	-0.01867963	0.03247416	-0.01066629	-0.0523965	0.003599598	0.1537151	-0.129835	
0.03201521	-0.01358438	0.04513871	0.03022572	0.1537151	-0.129835	-0.07893926	-0.004648379	

1.052e+10	0.004623769	0.02794506	-0.026841	-0.1960713	0.06683587	-0.0202044	0.01738942	-0.02968226	
-0.026841	-0.1960713	-0.03555243	0.01989402	0.01937445	-0.02754457	0.04931255	0.02940085	
0.06683587	-0.0202044	0.01937445	-0.02754457	-0.04960048	0.009767193	0.05044022	-0.1945475	
0.01738942	-0.02968226	0.04931255	0.02940085	0.05044022	-0.1945475	-0.08112373	-0.00395342	

1.054e+10	0.01299105	0.02837885	-0.1349692	-0.1442817	0.06010635	-0.0199097	-0.003678385	-0.03377227	
-0.1349692	-0.1442817	-0.03822129	0.0215278	-0.0008888452	-0.03308306	0.05000757	0.02565628	
0.06010635	-0.0199097	-0.0008888452	-0.03308306	-0.04103297	0.01510533	-0.07105839	-0.1877532	
-0.003678385	-0.03377227	0.05000757	0.02565628	-0.07105839	-0.1877532	-0.08212696	-0.00210754	

1.056e+10	0.02379863	0.02423457	-0.1931543	-0.03978943	0.05506125	-0.01740619	-0.02268758	-0.02464664	
-0.1931543	-0.03978943	-0.03858202	0.02570183	-0.01995528	-0.02558758	0.04689262	0.02413472	
0.05506125	-0.01740619	-0.01995528	-0.02558758	-0.02823984	0.01476971	-0.1662529	-0.1120546	
-0.02268758	-0.02464664	0.04689262	0.02413472	-0.1662529	-0.1120546	-0.08204396	8.591626e-05	

1.058e+10	0.03348433	0.01411817	-0.1803218	0.07885564	0.05303453	-0.01553149	-0.03241817	-0.006395455	
-0.1803218	0.07885564	-0.03482718	0.02921312	-0.03063779	-0.008721624	0.04456085	0.02675898	
0.05303453	-0.01553149	-0.03063779	-0.008721624	-0.01622097	0.007595005	-0.2000885	0.004540643	
-0.03241817	-0.006395455	0.04456085	0.02675898	-0.2000885	0.004540643	-0.08069712	0.002338649	

1.06e+10	0.0388659	8.885564e-05	-0.1014713	0.1681446	0.05161914	-0.01670537	-0.02961408	0.0137464	
-0.1014713	0.1681446	-0.02899185	0.02827221	-0.02946314	0.01078781	0.04631426	0.03017692	
0.05161914	-0.01670537	-0.02946314	0.01078781	-0.00816929	-0.003455885	-0.160401	0.1189941	
-0.02961408	0.0137464	0.04631426	0.03017692	-0.160401	0.1189941	-0.07749179	0.003437569	

1.062e+10	0.03990781	-0.01450475	0.01411298	0.1954511	0.04759924	-0.01957721	-0.015706	0.02825291	
0.01411298	0.1954511	-0.02612352	0.02270883	-0.01725925	0.02574266	0.05037416	0.03031214	
0.04759924	-0.01957721	-0.01725925	0.02574266	-0.003066397	-0.01501815	-0.06202826	0.189328	
-0.015706	0.02825291	0.05037416	0.03031214	-0.06202826	0.189328	-0.07381326	0.001571945	

1.064e+10	0.03879602	-0.02894506	0.1241129	0.1510116	0.0409279	-0.02084841	0.003911121	0.03178931	
0.1241129	0.1510116	-0.02936641	0.01710538	0.001242928	0.03058676	0.05251941	0.02696003	
0.0409279	-0.02084841	0.001242928	0.03058676	0.001748212	-0.02754157	0.05851457	0.1898155	
0.003911121	0.03178931	0.05251941	0.02696003	0.05851457	0.1898155	-0.07302119	-0.003124332	

1.066e+10	0.03584298	-0.04506242	0.1879207	0.05150094	0.03430341	-0.01955759	0.02165692	0.0231269	
0.1879207	0.05150094	-0.0363199	0.01700575	0.01877023	0.02358812	0.0508224	0.02356295	
0.03430341	-0.01955759	0.01877023	0.02358812	0.005560789	-0.04427919	0.156784	0.1206789	
0.02165692	0.0231269	0.0508224	0.02356295	0.156784	0.1206789	-0.07724377	-0.006907412	

1.068e+10	0.02799789	-0.06356081	0.1824436	-0.06616255	0.02919016	-0.01762601	0.03068357	0.005907059	
0.1824436	-0.06616255	-0.04044377	0.0233973	0.02850873	0.007903492	0.04711179	0.02345828	
0.02919016	-0.01762601	0.02850873	0.007903492	0.003778024	-0.06580263	0.1967144	0.008072816	
0.03068357	0.005907059	0.04711179	0.02345828	0.1967144	0.008072816	-0.08365058	-0.005101634	

1.07e+10	0.01305818	-0.08097284	0.1105423	-0.1585117	0.02410293	-0.01678756	0.0279892	-0.0129026	
0.1105423	-0.1585117	-0.03723843	0.03137989	0.02730149	-0.009981744	0.04501801	0.02683825	
0.02410293	-0.01678756	0.02730149	-0.009981744	-0.00678417	-0.08735095	0.1646621	-0.1060728	
0.0279892	-0.0129026	0.04501801	0.02683825	0.1646621	-0.1060728	-0.0861775	0.002542634	

1.072e+10	-0.007629472	-0.0932775	-0.0009375151	-0.1925277	0.01672992	-0.01584727	0.01514037	-0.02651593	
-0.0009375151	-0.1925277	-0.02804733	0.03369931	0.01623636	-0.02371794	0.04685314	0.03081072	
0.01672992	-0.01584727	0.01623636	-0.02371794	-0.02380069	-0.1039193	0.07324134	-0.1807335	
0.01514037	-0.02651593	0.04685314	0.03081072	0.07324134	-0.1807335	-0.08048728	0.01003949	

1.074e+10	-0.03025879	-0.09934399	-0.1112756	-0.1562332	0.007412903	-0.01198706	-0.003077956	-0.03015532	
-0.1112756	-0.1562332	-0.0202796	0.02705904	-0.0006031645	-0.02846261	0.05159976	0.03178537	
0.007412903	-0.01198706	-0.0006031645	-0.02846261	-0.04279501	-0.1151338	-0.04393155	-0.1890836	
-0.003077956	-0.03015532	0.05159976	0.03178537	-0.04393155	-0.1890836	-0.06983491	0.009243543	

1.076e+10	-0.05280557	-0.1009648	-0.1801636	-0.06326897	-0.001066488	-0.004045071	-0.01989435	-0.02259749	
-0.1801636	-0.06326897	-0.02169018	0.01652349	-0.0168947	-0.02255897	0.05535699	0.02844596	
-0.001066488	-0.004045071	-0.0168947	-0.02255897	-0.06275722	-0.1237012	-0.1438993	-0.1286157	
-0.01989435	-0.02259749	0.05535699	0.02844596	-0.1438993	-0.1286157	-0.06459867	-0.001037352	

1.078e+10	-0.07590553	-0.09935216	-0.1828761	0.0515764	-0.006339735	0.006444608	-0.02919726	-0.00688042	
-0.1828761	0.0515764	-0.0318631	0.0122311	-0.02667855	-0.008493695	0.0549067	0.02342536	
-0.006339735	0.006444608	-0.02667855	-0.008493695	-0.08563278	-0.1298689	-0.1904964	-0.02258045	
-0.02919726	-0.00688042	0.0549067	0.02342536	-0.1904964	-0.02258045	-0.07127442	-0.01117402	

1.08e+10	-0.1004617	-0.09319155	-0.1193822	0.1466903	-0.008365064	0.01678506	-0.02774133	0.01145682	
-0.1193822	0.1466903	-0.04144033	0.0191569	-0.02650041	0.008687274	0.05025903	0.02068963	
-0.008365064	0.01678506	-0.02650041	0.008687274	-0.1120826	-0.1309539	-0.1682251	0.0902393	
-0.02774133	0.01145682	0.05025903	0.02068963	-0.1682251	0.0902393	-0.08435531	-0.01052196	

1.082e+10	-0.1249476	-0.08030733	-0.01333486	0.1877771	-0.009449143	0.02611721	-0.01567967	0.02542723	
-0.01333486	0.1877771	-0.04052446	0.03207325	-0.01619091	0.02236687	0.04488993	0.02370183	
-0.009449143	0.02611721	-0.01619091	0.02236687	-0.1397597	-0.1243028	-0.08569829	0.1696538	
-0.01567967	0.02542723	0.04488993	0.02370183	-0.08569829	0.1696538	-0.09103147	0.002113482	

1.084e+10	-0.1458555	-0.0605645	0.0964695	0.1606157	-0.01049089	0.036442	0.002055634	0.02955259	
0.0964695	0.1606157	-0.02821518	0.03894911	-0.0001327899	0.02726968	0.04472821	0.03077879	
-0.01049089	0.036442	-0.0001327899	0.02726968	-0.164308	-0.1100361	0.02682818	0.1873792	
0.002055634	0.02955259	0.04472821	0.03077879	0.02682818	0.1873792	-0.08308654	0.01554922	

1.086e+10	-0.1606367	-0.03658423	0.1704312	0.0758559	-0.009328254	0.04913333	0.01869817	0.02279271	
0.1704312	0.0758559	-0.01509303	0.03188633	0.01557051	0.02211437	0.05139311	0.03511323	
-0.009328254	0.04913333	0.01557051	0.02211437	-0.1835242	-0.09150179	0.1288958	0.1376254	
0.01869817	0.02279271	0.05139311	0.03511323	0.1288958	0.1376254	-0.06659434	0.01565635	

1.088e+10	-0.1697939	-0.01145631	0.1823561	-0.03555544	-0.00362301	0.06217353	0.02847419	0.007711723	
0.1823561	-0.03555544	-0.01420148	0.0165633	0.02544562	0.008866082	0.05926272	0.03156762	
-0.00362301	0.06217353	0.02544562	0.008866082	-0.1987422	-0.07155161	0.1837451	0.03871781	
0.02847419	0.007711723	0.05926272	0.03156762	0.1837451	0.03871781	-0.05789336	0.001000425	

1.09e+10	-0.1752886	0.01416497	0.1284073	-0.1331509	0.005782172	0.07235533	0.02761976	-0.01043994	
0.1284073	-0.1331509	-0.02731447	0.008028727	0.02563719	-0.007715431	0.06039006	0.02267868	
0.005782172	0.07235533	0.02563719	-0.007715431	-0.2120975	-0.04951274	0.1719878	-0.07318167	
0.02761976	-0.01043994	0.06039006	0.02267868	0.1719878	-0.07318167	-0.06654204	-0.01401048	

1.092e+10	-0.1772548	0.04190126	0.02864407	-0.181858	0.01611627	0.0791009	0.01609056	-0.0245749	
0.02864407	-0.181858	-0.04167639	0.01569004	0.01597721	-0.02101262	0.05305334	0.01710304	
0.01611627	0.0791009	0.01597721	-0.02101262	-0.2226083	-0.02316141	0.09879006	-0.1576315	
0.01609056	-0.0245749	0.05305334	0.01710304	0.09879006	-0.1576315	-0.08431114	-0.01354974	

1.094e+10	-0.173011	0.07180506	-0.08025649	-0.1646961	0.02619573	0.0842913	-0.001336304	-0.02898121	
-0.08025649	-0.1646961	-0.04217934	0.03265873	0.00075892	-0.02585987	0.04434601	0.02090642	
0.02619573	0.0842913	0.00075892	-0.02585987	-0.2265806	0.007358098	-0.008887117	-0.1850868	
-0.001336304	-0.02898121	0.04434601	0.02090642	-0.008887117	-0.1850868	-0.09289956	0.002530014	

1.096e+10	-0.1606513	0.1005811	-0.1593335	-0.08886611	0.03716266	0.08915472	-0.01758726	-0.02254309	
-0.1593335	-0.08886611	-0.02739235	0.04213221	-0.01392981	-0.0212384	0.04331172	0.03102988	
0.03716266	0.08915472	-0.01392981	-0.0212384	-0.2217008	0.03809517	-0.1126002	-0.1465845	
-0.01758726	-0.02254309	0.04331172	0.03102988	-0.1126002	-0.1465845	-0.08316578	0.01833084	

1.098e+10	-0.1417726	0.124638	-0.1809739	0.0180317	0.05065582	0.09245196	-0.02711922	-0.008337779	
-0.1809739	0.0180317	-0.01135109	0.03454487	-0.02333873	-0.009486365	0.05201507	0.03749238	
0.05065582	0.09245196	-0.02333873	-0.009486365	-0.2100997	0.0649162	-0.1758816	-0.05596192	
-0.02711922	-0.008337779	0.05201507	0.03749238	-0.1758816	-0.05596192	-0.0646487	0.01820846	

1.1e+10	-0.1196354	0.1429808	-0.1378826	0.1180128	0.06601675	0.09150081	-0.02702278	0.008759382	
-0.1378826	0.1180128	-0.009617067	0.01696355	-0.02460301	0.005571608	0.06246199	0.03315711	
0.06601675	0.09150081	-0.02460301	0.005571608	-0.1953158	0.08757361	-0.1761532	0.05446116	
-0.02702278	0.008759382	0.06246199	0.03315711	-0.1761532	0.05446116	-0.05548813	0.002490589	

1.102e+10	-0.09618418	0.1570814	-0.0456062	0.1753358	0.08014499	0.08555497	-0.01696886	0.0228903	
-0.0456062	0.1753358	-0.02381602	0.006851631	-0.01684852	0.01883081	0.06406517	0.02185075	
0.08014499	0.08555497	-0.01684852	0.01883081	-0.1781978	0.1081331	-0.1132843	0.1452584	
-0.01696886	0.0228903	0.06406517	0.02185075	-0.1132843	0.1452584	-0.06434032	-0.01292655	

1.104e+10	-0.0706435	0.1682186	0.06282079	0.1695992	0.09084488	0.07691131	-0.0003953312	0.02841825	
0.06282079	0.1695992	-0.03948832	0.01443505	-0.002747046	0.02496633	0.05510613	0.01505259	
0.09084488	0.07691131	-0.002747046	0.02496633	-0.1568847	0.1271334	-0.01005482	0.1838152	
-0.0003953312	0.02841825	0.05510613	0.01505259	-0.01005482	0.1838152	-0.08175074	-0.01274336	

1.106e+10	-0.04173629	0.1749197	0.1482273	0.1031397	0.09909363	0.06790927	0.01604163	0.02313685	
0.1482273	0.1031397	-0.04057058	0.03204072	0.01200101	0.02175773	0.0449654	0.01959632	
0.09909363	0.06790927	0.01200101	0.02175773	-0.12979	0.1418396	0.09676099	0.1566327	
0.01604163	0.02313685	0.0449654	0.01959632	0.09676099	0.1566327	-0.0901351	0.002360271	

1.108e+10	-0.0106706	0.1741634	0.18046	-1.524322e-05	0.1067002	0.05824007	0.0261606	0.009648042	
0.18046	-1.524322e-05	-0.0259839	0.04184248	0.02209509	0.01102054	0.04400697	0.03068028	
0.1067002	0.05824007	0.02209509	0.01102054	-0.09918226	0.1484928	0.1690942	0.07338043	
0.0261606	0.009648042	0.04400697	0.03068028	0.1690942	0.07338043	-0.08164956	0.01690881	

1.11e+10	0.01839011	0.1654108	0.1481947	-0.1031515	0.113439	0.0461043	0.0269484	-0.006953276	
0.1481947	-0.1031515	-0.01034001	0.03475132	0.02458143	-0.003440258	0.05319466	0.03722517	
0.113439	0.0461043	0.02458143	-0.003440258	-0.06967193	0.1467288	0.181015	-0.03666015	
0.0269484	-0.006953276	0.05319466	0.03722517	0.181015	-0.03666015	-0.06548585	0.01730211	

1.112e+10	0.04281062	0.1512895	0.06261254	-0.1696549	0.1168469	0.03096394	0.01827045	-0.02126387	
0.06261254	-0.1696549	-0.008415726	0.01850084	0.01845578	-0.01714117	0.06343806	0.03276106	
0.1168469	0.03096394	0.01845578	-0.01714117	-0.04384237	0.1399012	0.1276557	-0.1340236	
0.01827045	-0.02126387	0.06343806	0.03276106	0.1276557	-0.1340236	-0.05720346	0.004672828	

1.114e+10	0.06285701	0.1346623	-0.04591469	-0.1752656	0.1147746	0.01522531	0.002638879	-0.02819478	
-0.04591469	-0.1752656	-0.02089084	0.009187839	0.005124328	-0.02503698	0.06475675	0.02210303	
0.1147746	0.01522531	0.005124328	-0.02503698	-0.02034172	0.1302714	0.02772322	-0.1833762	
0.002638879	-0.02819478	0.06475675	0.02210303	0.02772322	-0.1833762	-0.06333769	-0.00808004	

1.116e+10	0.08037835	0.1159556	-0.1383604	-0.1174212	0.1082771	0.002225166	-0.01436566	-0.02459374	
-0.1383604	-0.1174212	-0.0344917	0.01534227	-0.01056535	-0.02347609	0.05672848	0.01615525	
0.1082771	0.002225166	-0.01056535	-0.02347609	0.002366739	0.1170861	-0.08263781	-0.1663999	
-0.01436566	-0.02459374	0.05672848	0.01615525	-0.08263781	-0.1663999	-0.07656553	-0.00919766	

1.118e+10	0.09524467	0.09345954	-0.1809431	-0.01678558	0.1003397	-0.007505307	-0.0259974	-0.01165643	
-0.1809431	-0.01678558	-0.03572704	0.02988304	-0.02230595	-0.01296674	0.04833277	0.02010613	
0.1003397	-0.007505307	-0.02230595	-0.01296674	0.02299263	0.09796804	-0.1635034	-0.08892296	
-0.0259974	-0.01165643	0.04833277	0.02010613	-0.1635034	-0.08892296	-0.08392062	0.001113231	

1.12e+10	0.104564	0.06687405	-0.1581083	0.09018339	0.09202097	-0.01593216	-0.02795502	0.005474423	
-0.1581083	0.09018339	-0.02425069	0.03819823	-0.025813	0.00230829	0.04771401	0.02877271	
0.09202097	-0.01593216	-0.025813	0.00230829	0.03753235	0.07323115	-0.185254	0.02117254	
-0.02795502	0.005474423	0.04771401	0.02877271	-0.185254	0.02117254	-0.07941171	0.01232197	

1.122e+10	0.1057603	0.0391387	-0.07778587	0.1650043	0.08160877	-0.02400484	-0.0198252	0.02066631	
-0.07778587	0.1650043	-0.01193073	0.03310261	-0.01995947	0.01701088	0.05437208	0.03346432	
0.08160877	-0.02400484	-0.01995947	0.01701088	0.04350487	0.04680043	-0.1396312	0.1241012	
-0.0198252	0.02066631	0.05437208	0.03346432	-0.1396312	0.1241012	-0.06843903	0.01454717	

1.124e+10	0.1000396	0.014535	0.03128947	0.180153	0.06763917	-0.02964647	-0.004316967	0.02861216	
0.03128947	0.180153	-0.009870764	0.02126474	-0.006392567	0.02586989	0.06131962	0.03081508	
0.06763917	-0.02964647	-0.006392567	0.02586989	0.04271307	0.02304865	-0.04281982	0.1821342	
-0.004316967	0.02861216	0.06131962	0.03081508	-0.04281982	0.1821342	-0.06114188	0.007604787	

1.126e+10	0.09078641	-0.005808046	0.1295626	0.1295355	0.05154732	-0.02993505	0.0132878	0.02610919	
0.1295626	0.1295355	-0.01802196	0.01427891	0.01025666	0.02502573	0.06282041	0.02445351	
0.05154732	-0.02993505	0.01025666	0.02502573	0.03876328	0.002359048	0.07005862	0.1736717	
0.0132878	0.02610919	0.06282041	0.02445351	0.07005862	0.1736717	-0.06260682	-0.001234906	

1.128e+10	0.07974162	-0.0233891	0.1807515	0.03123225	0.03706758	-0.02440631	0.02633188	0.01353101	
0.1807515	0.03123225	-0.02718147	0.01753741	0.02330692	0.01417696	0.05912942	0.0204442	
0.03706758	-0.02440631	0.02330692	0.01417696	0.03232766	-0.01728385	0.157369	0.1015691	
0.02633188	0.01353101	0.05912942	0.0204442	0.157369	0.1015691	-0.0700449	-0.004603263	

1.13e+10	0.06584321	-0.03953757	0.1657609	-0.07875868	0.02646066	-0.01596335	0.02946317	-0.004527498	
0.1657609	-0.07875868	-0.02885188	0.02640085	0.02725124	-0.00241461	0.05475947	0.02111674	
0.02646066	-0.01596335	0.02725124	-0.00241461	0.02141925	-0.03619634	0.1870415	-0.007702016	
0.02946317	-0.004527498	0.05475947	0.02111674	0.1870415	-0.007702016	-0.07653274	-0.0005877408	

1.132e+10	0.0475866	-0.0524053	0.09001953	-0.1599482	0.01832935	-0.007098816	0.02131659	-0.02102395	
0.09001953	-0.1599482	-0.02268281	0.03227437	0.02057572	-0.0180654	0.05307681	0.02441036	
0.01832935	-0.007098816	0.02057572	-0.0180654	0.004865186	-0.05128676	0.1482993	-0.1139792	
0.02131659	-0.02102395	0.05307681	0.02441036	0.1482993	-0.1139792	-0.07696868	0.006828651	

1.134e+10	0.0264119	-0.05863497	-0.0186245	-0.1825624	0.01071984	0.003059898	0.005018175	-0.02965035	
-0.0186245	-0.1825624	-0.01515188	0.03081984	0.005978747	-0.02675615	0.05415936	0.02742671	
0.01071984	0.003059898	0.005978747	-0.02675615	-0.01476183	-0.05920647	0.0554558	-0.1784099	
0.005018175	-0.02965035	0.05415936	0.02742671	0.0554558	-0.1784099	-0.07157451	0.01152845	

1.136e+10	0.00662322	-0.05753302	-0.1204902	-0.1382666	0.004727856	0.01667678	-0.01334893	-0.02712861	
-0.1204902	-0.1382666	-0.01236331	0.02484038	-0.01100279	-0.0251844	0.05684452	0.02907129	
0.004727856	0.01667678	-0.01100279	-0.0251844	-0.03285669	-0.05986506	-0.0574334	-0.1774994	
-0.01334893	-0.02712861	0.05684452	0.02907129	-0.0574334	-0.1774994	-0.06501823	0.01021646	

1.138e+10	-0.00879338	-0.05231716	-0.1779511	-0.0434127	0.003583239	0.03329273	-0.02688674	-0.01426585	
-0.1779511	-0.0434127	-0.01491255	0.02021212	-0.02382021	-0.0138081	0.06032861	0.0287223	
0.003583239	0.03329273	-0.02382021	-0.0138081	-0.04707526	-0.0570257	-0.1489243	-0.1117343	
-0.02688674	-0.01426585	0.06032861	0.0287223	-0.1489243	-0.1117343	-0.06218896	0.004839775	

1.14e+10	-0.02085049	-0.04607149	-0.1701058	0.06704077	0.008929187	0.04951228	-0.03034993	0.00431403	
-0.1701058	0.06704077	-0.01929031	0.01978133	-0.02737295	0.003055857	0.062963	0.02566268	
0.008929187	0.04951228	-0.02737295	0.003055857	-0.05914233	-0.05310265	-0.1856392	-0.005477215	
-0.03034993	0.00431403	0.062963	0.02566268	-0.1856392	-0.005477215	-0.06467175	-0.0001805981	

1.142e+10	-0.0317462	-0.03892469	-0.1000894	0.1525455	0.01877655	0.0619291	-0.02206033	0.0215353	
-0.1000894	0.1525455	-0.02184229	0.02276103	-0.02010163	0.01866652	0.06229879	0.02115608	
0.01877655	0.0619291	-0.02010163	0.01866652	-0.07077407	-0.04714692	-0.1545593	0.102068	
-0.02206033	0.0215353	0.06229879	0.02115608	-0.1545593	0.102068	-0.06999768	-0.0009407579	

1.144e+10	-0.04135461	-0.0289138	0.006094897	0.1819079	0.02979186	0.07056155	-0.005026566	0.03047524	
0.006094897	0.1819079	-0.02106412	0.02650021	-0.005041914	0.02673473	0.05781758	0.01887648	
0.02979186	0.07056155	-0.005041914	0.02673473	-0.08066576	-0.03706799	-0.06746372	0.1719704	
-0.005026566	0.03047524	0.05781758	0.01887648	-0.06746372	0.1719704	-0.07355956	0.003031616	

1.146e+10	-0.04683938	-0.01573589	0.109518	0.144772	0.04134287	0.07771208	0.01394158	0.02748869	
0.109518	0.144772	-0.01773492	0.02849234	0.01160673	0.02428709	0.05293831	0.0217915	
0.04134287	0.07771208	0.01160673	0.02428709	-0.08536303	-0.02373746	0.04364443	0.1789959	
0.01394158	0.02748869	0.05293831	0.0217915	0.04364443	0.1789959	-0.07235522	0.008346191	

1.148e+10	-0.0459956	-0.00265209	0.1723933	0.05515035	0.0555764	0.08373478	0.02736986	0.01394804	
0.1723933	0.05515035	-0.01417737	0.02756251	0.0234375	0.01269958	0.05279145	0.02830534	
0.0555764	0.08373478	0.0234375	0.01269958	-0.08337965	-0.01100675	0.1383311	0.1209335	
0.02736986	0.01394804	0.05279145	0.02830534	0.1383311	0.1209335	-0.06760655	0.01053855	

1.15e+10	-0.04062914	0.006456832	0.1721595	-0.054001	0.07329719	0.0857927	0.03028106	-0.004792744	
0.1721595	-0.054001	-0.01252068	0.0246796	0.02625931	-0.003442511	0.05899927	0.03249281	
0.07329719	0.0857927	0.02625931	-0.003442511	-0.07718661	-0.002466142	0.1821763	0.01933976	
0.03028106	-0.004792744	0.05899927	0.03249281	0.1821763	0.01933976	-0.06338469	0.008401031	

1.152e+10	-0.03477955	0.01113971	0.109445	-0.1427914	0.09192524	0.0812714	0.02166912	-0.02170621	
0.109445	-0.1427914	-0.01332563	0.02198591	0.01912745	-0.01816714	0.06660568	0.02931136	
0.09192524	0.0812714	0.01912745	-0.01816714	-0.07052557	0.002204034	0.1597193	-0.08868697	
0.02166912	-0.02170621	0.06660568	0.02931136	0.1597193	-0.08868697	-0.06246095	0.004488215	

1.154e+10	-0.02996873	0.01391102	0.007417992	-0.1793066	0.1075775	0.07077279	0.004635762	-0.03034798	
0.007417992	-0.1793066	-0.0157255	0.02112815	0.004656044	-0.0258358	0.06805896	0.02078823	
0.1075775	0.07077279	0.004656044	-0.0258358	-0.06398725	0.005474392	0.07949415	-0.1640103	
0.004635762	-0.03034798	0.06805896	0.02078823	0.07949415	-0.1640103	-0.06465578	0.001806	

1.156e+10	-0.0247003	0.01636738	-0.09692486	-0.150571	0.1186328	0.05753849	-0.01428156	-0.02711032	
-0.09692486	-0.150571	-0.01773348	0.02264075	-0.01145174	-0.02336558	0.06139727	0.01501246	
0.1186328	0.05753849	-0.01145174	-0.02336558	-0.05554462	0.007766748	-0.02918886	-0.1795225	
-0.01428156	-0.02711032	0.06139727	0.01501246	-0.02918886	-0.1795225	-0.06777522	0.001869457	

1.158e+10	-0.01730959	0.01685048	-0.1655595	-0.06712579	0.1267466	0.04370423	-0.02742468	-0.0132045	
-0.1655595	-0.06712579	-0.01764519	0.02534088	-0.02277561	-0.01194732	0.05296463	0.01796979	
0.1267466	0.04370423	-0.02277561	-0.01194732	-0.04439456	0.006389445	-0.1269609	-0.1296482	
-0.02742468	-0.0132045	0.05296463	0.01796979	-0.1269609	-0.1296482	-0.06967469	0.004163847	

1.16e+10	-0.009347856	0.01255025	-0.1735614	0.0402613	0.1335111	0.02821552	-0.02961198	0.005568482	
-0.1735614	0.0402613	-0.01540121	0.02726595	-0.0251623	0.003666298	0.05123804	0.02706506	
0.1335111	0.02821552	-0.0251623	0.003666298	-0.03342423	-0.001149678	-0.177943	-0.0328513	
-0.02961198	0.005568482	0.05123804	0.02706506	-0.177943	-0.0328513	-0.06944874	0.007287102	

1.162e+10	-0.004934858	0.003415784	-0.1184393	0.1324206	0.1372831	0.009033145	-0.02038176	0.0217728	
-0.1184393	0.1324206	-0.01252462	0.02720545	-0.01808376	0.01761642	0.05832151	0.03350386	
0.1372831	0.009033145	-0.01808376	0.01761642	-0.02665458	-0.01396431	-0.1638808	0.07534208	
-0.02038176	0.0217728	0.05832151	0.03350386	-0.1638808	0.07534208	-0.06719942	0.009791357	

1.164e+10	-0.006211511	-0.006778675	-0.02059228	0.1760095	0.1347093	-0.01252174	-0.003539737	0.02934528	
-0.02059228	0.1760095	-0.01029659	0.02543382	-0.004181384	0.02479287	0.06787309	0.03103032	
0.1347093	-0.01252174	-0.004181384	0.02479287	-0.02568038	-0.02827189	-0.09031237	0.1554841	
-0.003539737	0.02934528	0.06787309	0.03103032	-0.09031237	0.1554841	-0.06334051	0.01038376	

1.166e+10	-0.01131598	-0.01471003	0.08425391	0.1554675	0.1248088	-0.03245677	0.0144222	0.02551505	
0.08425391	0.1554675	-0.009690522	0.02265335	0.01132434	0.02230605	0.07106556	0.02175541	
0.1248088	-0.03245677	0.01132434	0.02230605	-0.02853264	-0.04143773	0.01559498	0.1786105	
0.0144222	0.02551505	0.07106556	0.02175541	0.01559498	0.1786105	-0.05952881	0.007678624	

1.168e+10	-0.01757522	-0.02076069	0.1581427	0.07826549	0.1099255	-0.04785399	0.02652692	0.01174072	
0.1581427	0.07826549	-0.01150389	0.02019302	0.02223438	0.01097154	0.06508322	0.01418449	
0.1099255	-0.04785399	0.02223438	0.01097154	-0.03342894	-0.05463666	0.115426	0.1364335	
0.02652692	0.01174072	0.06508322	0.01418449	0.115426	0.1364335	-0.05935873	0.00218696	

1.17e+10	-0.02512185	-0.02700596	0.1737512	-0.02734636	0.0931556	-0.05883593	0.02781445	-0.006438859	
0.1737512	-0.02734636	-0.01502794	0.0202499	0.02398533	-0.004544215	0.05572547	0.0152709	
0.0931556	-0.05883593	0.02398533	-0.004544215	-0.04191097	-0.06928507	0.1722075	0.04452307	
0.02781445	-0.006438859	0.05572547	0.0152709	0.1722075	0.04452307	-0.06470877	-0.001536247	

1.172e+10	-0.03675006	-0.03320623	0.1254133	-0.1220656	0.07469896	-0.06727813	0.01782882	-0.02132228	
0.1254133	-0.1220656	-0.01734574	0.02399745	0.01600099	-0.01768319	0.05180314	0.02385308	
0.07469896	-0.06727813	0.01600099	-0.01768319	-0.05703465	-0.08376661	0.1651571	-0.06264827	
0.01782882	-0.02132228	0.05180314	0.02385308	0.1651571	-0.06264827	-0.07175795	0.001653477	

1.174e+10	-0.05393311	-0.03527939	0.03175267	-0.1707731	0.052266	-0.07251661	0.00136256	-0.02658511	
0.03175267	-0.1707731	-0.01503893	0.02918736	0.001966762	-0.02290371	0.05703746	0.03193075	
0.052266	-0.07251661	0.001966762	-0.02290371	-0.07957303	-0.09346494	0.09794882	-0.1449966	
0.00136256	-0.02658511	0.05703746	0.03193075	0.09794882	-0.1449966	-0.07279914	0.01082795	

1.176e+10	-0.07313205	-0.02833669	-0.07134626	-0.1564827	0.02607522	-0.06974507	-0.01355079	-0.02087436	
-0.07134626	-0.1564827	-0.008399016	0.03047166	-0.0113618	-0.01838915	0.0669195	0.03190033	
0.02607522	-0.06974507	-0.0113618	-0.01838915	-0.1063357	-0.09374757	-0.002855416	-0.1729264	
-0.01355079	-0.02087436	0.0669195	0.03190033	-0.002855416	-0.1729264	-0.06455113	0.01727227	

1.178e+10	-0.08613948	-0.01339668	-0.1466092	-0.08743131	0.003361364	-0.05621359	-0.02127505	-0.009556922	
-0.1466092	-0.08743131	-0.003318145	0.02531648	-0.0183453	-0.008395263	0.07195838	0.02378681	
0.003361364	-0.05621359	-0.0183453	-0.008395263	-0.1297254	-0.08385888	-0.09957426	-0.1395464	
-0.02127505	-0.009556922	0.07195838	0.02378681	-0.09957426	-0.1395464	-0.05430078	0.0133677	

1.18e+10	-0.09190764	0.0007860237	-0.1703106	0.01167034	-0.01090675	-0.03867241	-0.02303703	0.003102447	
-0.1703106	0.01167034	-0.004436419	0.01842234	-0.01972433	0.002705404	0.0685773	0.01611371	
-0.01090675	-0.03867241	-0.01972433	0.002705404	-0.1466432	-0.07139598	-0.161094	-0.05815625	
-0.02303703	0.003102447	0.0685773	0.01611371	-0.161094	-0.05815625	-0.05175818	0.002839364	

1.182e+10	-0.09668909	0.0121461	-0.1330882	0.1076574	-0.01953403	-0.0221726	-0.01789161	0.01600257	
-0.1330882	0.1076574	-0.01094484	0.01499813	-0.01513573	0.01367138	0.06130203	0.01401189	
-0.01953403	-0.0221726	-0.01513573	0.01367138	-0.1621196	-0.05919906	-0.1656346	0.04466064	
-0.01789161	0.01600257	0.06130203	0.01401189	-0.1656346	0.04466064	-0.05931664	-0.005742891	

1.184e+10	-0.103686	0.02479714	-0.0463914	0.1647115	-0.02685951	-0.006881362	-0.004984849	0.02394462	
-0.0463914	0.1647115	-0.01846425	0.01920731	-0.004066296	0.02033135	0.05485999	0.01840488	
-0.02685951	-0.006881362	-0.004066296	0.02033135	-0.1790342	-0.04390877	-0.1094375	0.1317714	
-0.004984849	0.02394462	0.05485999	0.01840488	-0.1094375	0.1317714	-0.07204909	-0.003738106	

1.186e+10	-0.1098333	0.04288847	0.05713183	0.1605157	-0.03385186	0.01053072	0.010322	0.02196122	
0.05713183	0.1605157	-0.01863193	0.02945003	0.009000467	0.01847415	0.05463989	0.02698455	
-0.03385186	0.01053072	0.009000467	0.01847415	-0.1943298	-0.02190062	-0.01348605	0.1699157	
0.010322	0.02196122	0.05463989	0.02698455	-0.01348605	0.1699157	-0.07729013	0.009736605	

1.188e+10	-0.1101987	0.06543118	0.1383494	0.09758033	-0.03761079	0.03207727	0.02081423	0.01126266	
0.1383494	0.09758033	-0.008661825	0.03577637	0.017857	0.009091141	0.06220485	0.03266104	
-0.03761079	0.03207727	0.017857	0.009091141	-0.2034555	0.005505345	0.08606868	0.1459175	
0.02081423	0.01126266	0.06220485	0.03266104	0.08606868	0.1459175	-0.06754942	0.02224832	

1.19e+10	-0.1029894	0.08796124	0.1681798	0.0002581708	-0.0344783	0.05582512	0.02281628	-0.002932831	
0.1681798	0.0002581708	0.002985266	0.03028824	0.01909137	-0.003249838	0.07202162	0.02953675	
-0.0344783	0.05582512	0.01909137	-0.003249838	-0.2050505	0.03442407	0.1532777	0.06969766	
0.02281628	-0.002932831	0.07202162	0.02953675	0.1532777	0.06969766	-0.05093875	0.02038436	

1.192e+10	-0.09050331	0.1069447	0.1368721	-0.09583889	-0.02388446	0.07734934	0.01648123	-0.0152511	
0.1368721	-0.09583889	0.004570781	0.01670911	0.01294536	-0.01345034	0.07530038	0.01900219	
-0.02388446	0.07734934	0.01294536	-0.01345034	-0.2008924	0.06226345	0.1645053	-0.03067045	
0.01648123	-0.0152511	0.07530038	0.01900219	0.1645053	-0.03067045	-0.04358725	0.004635051	

1.194e+10	-0.07586554	0.1224063	0.05650844	-0.1559582	-0.008851836	0.09353809	0.004377769	-0.02147329	
0.05650844	-0.1559582	-0.006922356	0.008258521	0.002293465	-0.01770709	0.06788776	0.01009345	
-0.008851836	0.09353809	0.002293465	-0.01770709	-0.1925824	0.08923043	0.116401	-0.1185747	
0.004377769	-0.02147329	0.06788776	0.01009345	0.116401	-0.1185747	-0.05375151	-0.01000107	

1.196e+10	-0.06004181	0.13652	-0.04268925	-0.1588747	0.006624105	0.1051115	-0.008670416	-0.0193196	
-0.04268925	-0.1588747	-0.02058215	0.01472994	-0.008079934	-0.01475219	0.05582437	0.01190657	
0.006624105	0.1051115	-0.008079934	-0.01475219	-0.1795695	0.1161687	0.02743959	-0.1625604	
-0.008670416	-0.0193196	0.05582437	0.01190657	0.02743959	-0.1625604	-0.07216296	-0.008311251	

1.198e+10	-0.04053614	0.1506517	-0.1248811	-0.1051596	0.0221928	0.1156804	-0.01746572	-0.01039101	
-0.1248811	-0.1051596	-0.02144439	0.03080851	-0.01412869	-0.006973633	0.0511332	0.02385032	
0.0221928	0.1156804	-0.01412869	-0.006973633	-0.1600566	0.1423049	-0.06969124	-0.1481685	
-0.01746572	-0.01039101	0.0511332	0.02385032	-0.06969124	-0.1481685	-0.08011865	0.009128368	

1.2e+10	-0.01478178	0.1613945	-0.1615616	-0.01493073	0.04144746	0.1254504	-0.01946678	0.001252037	
-0.1615616	-0.01493073	-0.00722589	0.03999956	-0.01467721	0.002052299	0.05942292	0.03451003	
0.04144746	0.1254504	-0.01467721	0.002052299	-0.1331775	0.1643432	-0.1409759	-0.0816223	
-0.01946678	0.001252037	0.05942292	0.03451003	-0.1409759	-0.0816223	-0.06884956	0.02527715	

1.202e+10	0.01459454	0.164534	-0.1405102	0.07949686	0.06516274	0.1304168	-0.01497714	0.01143433	
-0.1405102	0.07949686	0.008394663	0.03255819	-0.01050236	0.009298238	0.07342272	0.03313929	
0.06516274	0.1304168	-0.01050236	0.009298238	-0.101543	0.1792575	-0.1617313	0.01321148	
-0.01497714	0.01143433	0.07342272	0.03313929	-0.1617313	0.01321148	-0.0489803	0.02423949	

1.204e+10	0.04323968	0.1601867	-0.06986392	0.1449075	0.08993238	0.1279086	-0.006076382	0.0174588	
-0.06986392	0.1449075	0.01022637	0.01537097	-0.003538612	0.01296165	0.08003354	0.02016987	
0.08993238	0.1279086	-0.003538612	0.01296165	-0.06824368	0.1872945	-0.1249232	0.1027958	
-0.006076382	0.0174588	0.08003354	0.02016987	-0.1249232	0.1027958	-0.03946882	0.006938112	

1.206e+10	0.06951337	0.1509316	0.02542819	0.1583817	0.1118964	0.1189785	0.004699569	0.01773076	
0.02542819	0.1583817	-0.003533223	0.00506099	0.004057963	0.01231989	0.07231463	0.007465847	
0.1118964	0.1189785	0.004057963	0.01231989	-0.03404826	0.1899933	-0.04367766	0.1552842	
0.004699569	0.01773076	0.07231463	0.007465847	-0.04367766	0.1552842	-0.04913491	-0.01010382	

1.208e+10	0.09449156	0.1380118	0.1110942	0.1149491	0.1297663	0.1068722	0.01381061	0.01173963	
0.1110942	0.1149491	-0.01938334	0.01207915	0.009803584	0.007666014	0.05724956	0.007781655	
0.1297663	0.1068722	0.009803584	0.007666014	0.001755317	0.1869318	0.05261946	0.1519045	
0.01381061	0.01173963	0.05724956	0.007781655	0.05261946	0.1519045	-0.06872727	-0.01045538	

1.21e+10	0.1185779	0.1200942	0.1561577	0.03071619	0.1451894	0.09333165	0.01755363	0.001692139	
0.1561577	0.03071619	-0.02118056	0.02969405	0.0117552	0.0009922152	0.04997415	0.02123851	
0.1451894	0.09333165	0.0117552	0.0009922152	0.03851241	0.1758522	0.1294602	0.09431058	
0.01755363	0.001692139	0.04997415	0.02123851	0.1294602	0.09431058	-0.07924725	0.006334322	

1.212e+10	0.1397064	0.09568049	0.1451597	-0.06349718	0.1595281	0.07730102	0.01491788	-0.00807886	
0.1451597	-0.06349718	-0.006762224	0.04049629	0.009963681	-0.005051366	0.05813685	0.03448072	
0.1595281	0.07730102	0.009963681	-0.005051366	0.07272632	0.155813	0.1596076	0.003679697	
0.01491788	-0.00807886	0.05813685	0.03448072	0.1596076	0.003679697	-0.07048557	0.02427013	

1.214e+10	0.1545875	0.06587977	0.08297346	-0.1344714	0.1713283	0.05683729	0.007948507	-0.01440107	
0.08297346	-0.1344714	0.01015506	0.03406663	0.005873266	-0.00909434	0.07392397	0.03436927	
0.1713283	0.05683729	0.005873266	-0.00909434	0.1012856	0.128591	0.1329756	-0.08778788	
0.007948507	-0.01440107	0.07392397	0.03436927	0.1329756	-0.08778788	-0.05062793	0.02661408	

1.216e+10	0.1618012	0.03387867	-0.008374358	-0.1577379	0.177337	0.03288348	-0.0009327958	-0.01632137	
-0.008374358	-0.1577379	0.01376007	0.01674583	0.0005072038	-0.01087218	0.08216893	0.02092322	
0.177337	0.03288348	0.0005072038	-0.01087218	0.1233724	0.09701829	0.05914209	-0.1478284	
-0.0009327958	-0.01632137	0.08216893	0.02092322	0.05914209	-0.1478284	-0.03796551	0.01152756	

1.218e+10	0.162612	0.002420267	-0.09700006	-0.1248716	0.1764475	0.009061946	-0.009793336	-0.01336621	
-0.09700006	-0.1248716	0.001261629	0.004907318	-0.005393714	-0.00981113	0.07511833	0.00700237	
0.1764475	0.009061946	-0.005393714	-0.00981113	0.1398434	0.06226813	-0.03594305	-0.1550689	
-0.009793336	-0.01336621	0.07511833	0.00700237	-0.03594305	-0.1550689	-0.04380064	-0.006984366	

1.22e+10	0.1587981	-0.02852651	-0.1511101	-0.0468631	0.1708485	-0.01200832	-0.01581671	-0.0056632	
-0.1511101	-0.0468631	-0.0149851	0.009506167	-0.01012789	-0.005487556	0.05984754	0.006034455	
0.1708485	-0.01200832	-0.01012789	-0.005487556	0.1506409	0.0239953	-0.1181377	-0.1064464	
-0.01581671	-0.0056632	0.05984754	0.006034455	-0.1181377	-0.1064464	-0.06239857	-0.01182417	

1.222e+10	0.1498193	-0.05995378	-0.1505906	0.04814648	0.1631759	-0.03081471	-0.01626144	0.00430253	
-0.1505906	0.04814648	-0.01934111	0.02591032	-0.01170717	0.0009419364	0.05156296	0.0186055	
0.1631759	-0.03081471	-0.01170717	0.0009419364	0.1536945	-0.01769716	-0.1574797	-0.01964304	
-0.01626144	0.00430253	0.05156296	0.0186055	-0.1574797	-0.01964304	-0.07642233	0.001547444	

1.224e+10	0.1335759	-0.09089743	-0.09580491	0.1254891	0.1532758	-0.04940041	-0.01097049	0.01254474	
-0.09580491	0.1254891	-0.007664149	0.03842512	-0.009528523	0.007274571	0.0581576	0.03193145	
0.1532758	-0.04940041	-0.009528523	0.007274571	0.1468535	-0.06034879	-0.1401249	0.07375452	
-0.01097049	0.01254474	0.0581576	0.03193145	-0.1401249	0.07375452	-0.07267544	0.02085307	

1.226e+10	0.1094045	-0.1179808	-0.006951486	0.1576368	0.1387258	-0.0676461	-0.002316616	0.01642948	
-0.006951486	0.1576368	0.009196338	0.03556216	-0.004234893	0.01163527	0.07275525	0.03325468	
0.1387258	-0.0676461	-0.004234893	0.01163527	0.1302049	-0.1002713	-0.07278208	0.1403509	
-0.002316616	0.01642948	0.07275525	0.03325468	-0.07278208	0.1403509	-0.05433439	0.02841741	

1.228e+10	0.07928675	-0.138213	0.0845321	0.1334379	0.1182697	-0.08234051	0.007078163	0.01527581	
0.0845321	0.1334379	0.01611138	0.0202265	0.002996137	0.01264694	0.08150423	0.02199153	
0.1182697	-0.08234051	0.002996137	0.01264694	0.1058992	-0.1351019	0.02055895	0.1566466	
0.007078163	0.01527581	0.08150423	0.02199153	0.02055895	0.1566466	-0.03778996	0.01729362	

1.23e+10	0.0465219	-0.1508283	0.1460389	0.06100854	0.09456712	-0.09019048	0.01481831	0.009058984	
0.1460389	0.06100854	0.007282006	0.006564807	0.01017096	0.00918727	0.07698162	0.009086307	
0.09456712	-0.09019048	0.01017096	0.00918727	0.07577478	-0.1643531	0.1065002	0.1165631	
0.01481831	0.009058984	0.07698162	0.009086307	0.1065002	0.1165631	-0.03812849	-0.002479024	

1.232e+10	0.01294939	-0.1572377	0.1547401	-0.03408693	0.07165763	-0.09158902	0.01787713	-0.001084549	
0.1547401	-0.03408693	-0.008624311	0.006808627	0.01421121	0.001608913	0.06428476	0.006157647	
0.07165763	-0.09158902	0.01421121	0.001608913	0.04053722	-0.1878253	0.1538351	0.03442569	
0.01787713	-0.001084549	0.06428476	0.006157647	0.1538351	0.03442569	-0.05504075	-0.01268692	

1.234e+10	-0.02177893	-0.1580667	0.1068847	-0.1168078	0.05069945	-0.08943971	0.0141271	-0.01147137	
0.1068847	-0.1168078	-0.01669507	0.02049208	0.0127692	-0.007248314	0.0555117	0.01508948	
0.05069945	-0.08943971	0.0127692	-0.007248314	5.705691e-05	-0.20432	0.1453701	-0.05980152	
0.0141271	-0.01147137	0.0555117	0.01508948	0.1453701	-0.05980152	-0.07275379	-0.003583711	

1.236e+10	-0.05786142	-0.1516035	0.02026108	-0.1566653	0.03003674	-0.08497665	0.00486764	-0.01753907	
0.02026108	-0.1566653	-0.009352908	0.03495433	0.00619655	-0.01354818	0.05836763	0.02694986	
0.03003674	-0.08497665	0.00619655	-0.01354818	-0.04408101	-0.2113724	0.08469766	-0.1317783	
0.00486764	-0.01753907	0.05836763	0.02694986	0.08469766	-0.1317783	-0.07446254	0.01672624	

1.238e+10	-0.09260392	-0.1360071	-0.07308394	-0.1396186	0.008602242	-0.07634188	-0.005932544	-0.01711284	
-0.07308394	-0.1396186	0.006957754	0.03694657	-0.002835624	-0.01479471	0.06962525	0.03098606	
0.008602242	-0.07634188	-0.002835624	-0.01479471	-0.08860445	-0.2078307	-0.005780219	-0.156073	
-0.005932544	-0.01711284	0.06962525	0.03098606	-0.005780219	-0.156073	-0.05803375	0.02939127	

1.24e+10	-0.1220912	-0.1120722	-0.1397193	-0.07239265	-0.01132338	-0.06127452	-0.01455228	-0.01091029	
-0.1397193	-0.07239265	0.01782042	0.02456736	-0.01102731	-0.01061182	0.07918592	0.02418539	
-0.01132338	-0.06127452	-0.01102731	-0.01061182	-0.130057	-0.1948648	-0.09368422	-0.1245491	
-0.01455228	-0.01091029	0.07918592	0.02418539	-0.09368422	-0.1245491	-0.0382923	0.02243004	

1.242e+10	-0.144162	-0.08296379	-0.1558577	0.02087893	-0.02586062	-0.04068701	-0.01853134	-0.0008317806	
-0.1558577	0.02087893	0.01361414	0.008885109	-0.0154546	-0.002246319	0.0791755	0.01280321	
-0.02586062	-0.04068701	-0.0154546	-0.002246319	-0.1671789	-0.1745154	-0.1478136	-0.04854147	
-0.01853134	-0.0008317806	0.0791755	0.01280321	-0.1478136	-0.04854147	-0.03354631	0.00205178	

1.244e+10	-0.159309	-0.05160898	-0.1154291	0.1065523	-0.03344877	-0.01851044	-0.01598808	0.01025628	
-0.1154291	0.1065523	-0.001697598	0.004255062	-0.0140086	0.007476753	0.07009765	0.00652843	
-0.03344877	-0.01851044	-0.0140086	0.007476753	-0.1996907	-0.1478713	-0.1486881	0.04469345	
-0.01598808	0.01025628	0.07009765	0.00652843	-0.1486881	0.04469345	-0.04838706	-0.01247771	

1.246e+10	-0.168993	-0.01856745	-0.03300134	0.1531548	-0.0362573	0.002312884	-0.006972897	0.01790302	
-0.03300134	0.1531548	-0.01367055	0.01495543	-0.006771676	0.01440359	0.0600292	0.01050819	
-0.0362573	0.002312884	-0.006771676	0.01440359	-0.2268109	-0.1150677	-0.09612374	0.121365	
-0.006972897	0.01790302	0.0600292	0.01050819	-0.09612374	0.121365	-0.06847774	-0.007245638	

1.248e+10	-0.1725543	0.01679749	0.06072591	0.1436954	-0.03666606	0.02251303	0.004837603	0.01845034	
0.06072591	0.1436954	-0.01071506	0.0311718	0.003079301	0.01538384	0.05790131	0.02117856	
-0.03666606	0.02251303	0.003079301	0.01538384	-0.2465747	-0.07646911	-0.009526472	0.1540357	
0.004837603	0.01845034	0.05790131	0.02117856	-0.009526472	0.1540357	-0.0744215	0.01282807	

1.25e+10	-0.1677525	0.05327868	0.1315054	0.08253478	-0.03406507	0.0439006	0.01431731	0.01209606	
0.1315054	0.08253478	0.004946707	0.03768069	0.01120398	0.010453	0.0658076	0.02906166	
-0.03406507	0.0439006	0.01120398	0.010453	-0.2567422	-0.03457604	0.07977148	0.1316354	
0.01431731	0.01209606	0.0658076	0.02906166	0.07977148	0.1316354	-0.06038739	0.0287128	

1.252e+10	-0.1538354	0.08731968	0.1544711	-0.007435994	-0.02591115	0.06581296	0.01841615	0.00194907	
0.1544711	-0.007435994	0.01913861	0.02811515	0.01484638	0.002134239	0.07709951	0.0269319	
-0.02591115	0.06581296	0.01484638	0.002134239	-0.2571946	0.007363795	0.140335	0.06258979	
0.01841615	0.00194907	0.07709951	0.0269319	0.140335	0.06258979	-0.03954175	0.02538535	

1.254e+10	-0.1329543	0.1157793	0.1221789	-0.09418895	-0.01129763	0.08488649	0.01643974	-0.008698149	
0.1221789	-0.09418895	0.01882976	0.01109025	0.01329788	-0.00659852	0.08188882	0.01615947	
-0.01129763	0.08488649	0.01329788	-0.00659852	-0.2494822	0.04704996	0.1508391	-0.02861861	
0.01643974	-0.008698149	0.08188882	0.01615947	0.1508391	-0.02861861	-0.03138194	0.006202409	

1.256e+10	-0.1082275	0.137978	0.04618607	-0.1469215	0.007169901	0.09805722	0.008713722	-0.01674889	
0.04618607	-0.1469215	0.004403406	0.002617255	0.007089057	-0.01295755	0.07552194	0.006101293	
0.007169901	0.09805722	0.007089057	-0.01295755	-0.2350372	0.08383166	0.10748	-0.1095215	
0.008713722	-0.01674889	0.07552194	0.006101293	0.10748	-0.1095215	-0.04322768	-0.01037805	

1.258e+10	-0.0811951	0.155114	-0.04623203	-0.1465401	0.02570518	0.1057919	-0.00264019	-0.01884798	
-0.04623203	-0.1465401	-0.01007928	0.01084281	-0.001692341	-0.01449353	0.0635104	0.006134711	
0.02570518	0.1057919	-0.001692341	-0.01449353	-0.2140032	0.1173576	0.02570664	-0.1512003	
-0.00264019	-0.01884798	0.0635104	0.006134711	0.02570664	-0.1512003	-0.06319399	-0.008566626	

1.26e+10	-0.05134054	0.1677179	-0.1214127	-0.09333171	0.04341015	0.1109178	-0.0129786	-0.01368138	
-0.1214127	-0.09333171	-0.01029484	0.02762296	-0.009445372	-0.01061244	0.05726551	0.01662525	
0.04341015	0.1109178	-0.009445372	-0.01061244	-0.1862401	0.1461359	-0.06508971	-0.1387625	
-0.0129786	-0.01368138	0.05726551	0.01662525	-0.06508971	-0.1387625	-0.0717695	0.009295757	

1.262e+10	-0.01847763	0.1739916	-0.1524006	-0.007187031	0.06213259	0.1143388	-0.01809462	-0.003803242	
-0.1524006	-0.007187031	0.004126438	0.03671283	-0.01331496	-0.003411271	0.06323543	0.02772419	
0.06213259	0.1143388	-0.01331496	-0.003411271	-0.1526907	0.1678637	-0.1325498	-0.07683646	
-0.01809462	-0.003803242	0.06323543	0.02772419	-0.1325498	-0.07683646	-0.06112361	0.02584477	

1.264e+10	0.01511085	0.1719573	-0.1289912	0.08072789	0.08299616	0.1141213	-0.01695091	0.006735306	
-0.1289912	0.08072789	0.01951346	0.02954096	-0.01274708	0.004250276	0.07623349	0.02854652	
0.08299616	0.1141213	-0.01274708	0.004250276	-0.1160885	0.1809654	-0.1527711	0.01247955	
-0.01695091	0.006735306	0.07623349	0.02854652	-0.1527711	0.01247955	-0.04182602	0.02579196	

1.266e+10	0.04603796	0.1620575	-0.05995948	0.1397612	0.1040515	0.107918	-0.01056329	0.0150022	
-0.05995948	0.1397612	0.0216785	0.01313828	-0.008472123	0.01040638	0.08402472	0.01772057	
0.1040515	0.107918	-0.008472123	0.01040638	-0.07918895	0.1860156	-0.1185543	0.09752027	
-0.01056329	0.0150022	0.08402472	0.01772057	-0.1185543	0.09752027	-0.03184221	0.01005814	

1.268e+10	0.07234282	0.1467807	0.03057566	0.149138	0.121692	0.09621005	-0.0004425146	0.01873577	
0.03057566	0.149138	0.009262047	0.003098858	-0.00146921	0.01353751	0.0788854	0.005340937	
0.121692	0.09621005	-0.00146921	0.01353751	-0.04313487	0.1843406	-0.04173527	0.148081	
-0.0004425146	0.01873577	0.0788854	0.005340937	-0.04173527	0.148081	-0.03958981	-0.006093454	

1.27e+10	0.09438504	0.1282034	0.1105121	0.1049711	0.1344376	0.0823028	0.01051627	0.01596937	
0.1105121	0.1049711	-0.00513831	0.008737063	0.006387139	0.0122769	0.06574078	0.003558092	
0.1344376	0.0823028	0.006387139	0.0122769	-0.008107085	0.1760234	0.05053837	0.1456829	
0.01051627	0.01596937	0.06574078	0.003558092	0.05053837	0.1456829	-0.05676409	-0.007715163	

1.272e+10	0.1130982	0.1065299	0.1507489	0.02277737	0.1441674	0.06867787	0.01790527	0.007101129	
0.1507489	0.02277737	-0.00734463	0.02384447	0.01224875	0.006719894	0.05780558	0.01404767	
0.1441674	0.06867787	0.01224875	0.006719894	0.02468499	0.1604927	0.125047	0.09073863	
0.01790527	0.007101129	0.05780558	0.01404767	0.125047	0.09073863	-0.06669115	0.005881638	

1.274e+10	0.1277119	0.08086411	0.1366438	-0.06746239	0.1531423	0.0543178	0.01876494	-0.004258124	
0.1366438	-0.06746239	0.004308232	0.03340432	0.01405849	-0.001094084	0.06304092	0.0261124	
0.1531423	0.0543178	0.01405849	-0.001094084	0.05300546	0.1379041	0.1547035	0.002862418	
0.01876494	-0.004258124	0.06304092	0.0261124	0.1547035	0.002862418	-0.06060223	0.02106836	

1.276e+10	0.135739	0.05175226	0.07367174	-0.1334671	0.160505	0.03684607	0.01332563	-0.01402757	
0.07367174	-0.1334671	0.01833553	0.02893346	0.01148348	-0.008741416	0.07614697	0.02772426	
0.160505	0.03684607	0.01148348	-0.008741416	0.07460181	0.1099259	0.1287574	-0.08629325	
0.01332563	-0.01402757	0.07614697	0.02772426	0.1287574	-0.08629325	-0.0450461	0.02425483	

1.278e+10	0.1357448	0.02227311	-0.01577994	-0.151973	0.1631705	0.01647413	0.003420284	-0.01947291	
-0.01577994	-0.151973	0.02211062	0.01549756	0.005013643	-0.01416595	0.08425189	0.01744006	
0.1631705	0.01647413	0.005013643	-0.01416595	0.08874516	0.07924984	0.05634562	-0.1448252	
0.003420284	-0.01947291	0.08425189	0.01744006	0.05634562	-0.1448252	-0.03422186	0.01366699	

1.28e+10	0.1290212	-0.00451138	-0.1002563	-0.1160251	0.1595611	-0.003522593	-0.008399201	-0.01864553	
-0.1002563	-0.1160251	0.01335944	0.005819666	-0.003981218	-0.01526229	0.07974188	0.005509807	
0.1595611	-0.003522593	-0.003981218	-0.01526229	0.09622443	0.04770344	-0.03686783	-0.1514677	
-0.008399201	-0.01864553	0.07974188	0.005509807	-0.03686783	-0.1514677	-0.0369649	-0.000393562	

1.282e+10	0.1179496	-0.02770611	-0.1492402	-0.03762504	0.1516086	-0.02006034	-0.01818362	-0.01078806	
-0.1492402	-0.03762504	0.001371279	0.008226189	-0.0125858	-0.01069621	0.06772906	0.003549411	
0.1516086	-0.02006034	-0.0125858	-0.01069621	0.09737761	0.01569291	-0.1175037	-0.1031569	
-0.01818362	-0.01078806	0.06772906	0.003549411	-0.1175037	-0.1031569	-0.04969755	-0.005390106	

1.284e+10	0.1035945	-0.04806059	-0.1440903	0.05516687	0.1425369	-0.03332152	-0.02157718	0.001846023	
-0.1440903	0.05516687	-0.0023487	0.0193661	-0.01708832	-0.001464986	0.0605582	0.01267774	
0.1425369	-0.03332152	-0.01708832	-0.001464986	0.09154447	-0.01583551	-0.1557735	-0.01692242	
-0.02157718	0.001846023	0.0605582	0.01267774	-0.1557735	-0.01692242	-0.06023489	0.002577249	

1.286e+10	0.08520864	-0.06577125	-0.08633941	0.1280999	0.1329318	-0.04582918	-0.01676192	0.01421515	
-0.08633941	0.1280999	0.004921656	0.02812157	-0.01523752	0.008986333	0.0648411	0.02297163	
0.1329318	-0.04582918	-0.01523752	0.008986333	0.0784033	-0.04482388	-0.1374266	0.07564467	
-0.01676192	0.01421515	0.0648411	0.02297163	-0.1374266	0.07564467	-0.05925732	0.01546851	

1.288e+10	0.06211025	-0.07885722	0.002871918	0.1546333	0.1201962	-0.05832525	-0.005638965	0.02157113	
0.002871918	0.1546333	0.01576269	0.02708519	-0.007439935	0.0166712	0.07546684	0.02446388	
0.1201962	-0.05832525	-0.007439935	0.0166712	0.05878215	-0.06907613	-0.06913727	0.1410021	
-0.005638965	0.02157113	0.07546684	0.02446388	-0.06913727	0.1410021	-0.0483632	0.02174543	

1.29e+10	0.03629573	-0.08459863	0.09132961	0.1251983	0.1029152	-0.06785237	0.007901048	0.02134671	
0.09132961	0.1251983	0.02094902	0.01836016	0.003788883	0.01849897	0.08208588	0.01666774	
0.1029152	-0.06785237	0.003788883	0.01849897	0.03484559	-0.0868914	0.02436384	0.1553713	
0.007901048	0.02134671	0.08208588	0.01666774	0.02436384	0.1553713	-0.03728	0.01672302	

1.292e+10	0.01140651	-0.08271118	0.1471043	0.05003257	0.08334673	-0.07131072	0.01928346	0.01320069	
0.1471043	0.05003257	0.01725315	0.009942651	0.01442553	0.01316678	0.07930146	0.007560017	
0.08334673	-0.07131072	0.01442553	0.01316678	0.008882794	-0.09817496	0.1094187	0.1133697	
0.01928346	0.01320069	0.07930146	0.007560017	0.1094187	0.1133697	-0.03512691	0.005350078	

1.294e+10	-0.01023119	-0.07549286	0.1493974	-0.04399272	0.06539026	-0.06902268	0.02396752	-0.0005989384	
0.1493974	-0.04399272	0.008990449	0.008454117	0.02000314	0.002080074	0.07089599	0.005275574	
0.06539026	-0.06902268	0.02000314	0.002080074	-0.01806278	-0.1035058	0.1549521	0.0297914	
0.02396752	-0.0005989384	0.07089599	0.005275574	0.1549521	0.0297914	-0.04306459	-0.002392605	

1.296e+10	-0.02890327	-0.06503996	0.09674075	-0.1222667	0.05058181	-0.06411437	0.01934521	-0.01491773	
0.09674075	-0.1222667	0.003583976	0.01423475	0.01766762	-0.01051322	0.06515151	0.01076579	
0.05058181	-0.06411437	0.01766762	-0.01051322	-0.04530603	-0.1027225	0.1439218	-0.06488038	
0.01934521	-0.01491773	0.06515151	0.01076579	0.1439218	-0.06488038	-0.05357098	4.674951e-05	

1.298e+10	-0.04545212	-0.05124797	0.008437964	-0.1556014	0.03706633	-0.05857654	0.006836798	-0.02370061	
0.008437964	-0.1556014	0.005402914	0.02189935	0.00797641	-0.01925961	0.066727	0.01799933	
0.03706633	-0.05857654	0.00797641	-0.01925961	-0.07137755	-0.09520433	0.0803298	-0.1358465	
0.006836798	-0.02370061	0.066727	0.01799933	0.0803298	-0.1358465	-0.05710194	0.01021254	

1.3e+10	-0.05890482	-0.03298829	-0.08265022	-0.131858	0.02290592	-0.05084452	-0.008423032	-0.02326837	
-0.08265022	-0.131858	0.01262999	0.02507703	-0.005115915	-0.02036731	0.07324722	0.02057093	
0.02290592	-0.05084452	-0.005115915	-0.02036731	-0.09422495	-0.08116076	-0.01241769	-0.1572204	
-0.008423032	-0.02326837	0.07324722	0.02057093	-0.01241769	-0.1572204	-0.05067884	0.01884729	

1.302e+10	-0.06640906	-0.0108154	-0.1432995	-0.06011989	0.009751771	-0.0384455	-0.0204695	-0.01403151	
-0.1432995	-0.06011989	0.01965189	0.02148088	-0.01626734	-0.0134193	0.07893547	0.01701743	
0.009751771	-0.0384455	-0.01626734	-0.0134193	-0.1117705	-0.06213405	-0.1004771	-0.121456	
-0.0204695	-0.01403151	0.07893547	0.01701743	-0.1004771	-0.121456	-0.04002914	0.0185894	

1.304e+10	-0.06631721	0.01180095	-0.1516147	0.0333069	0.001215334	-0.02207657	-0.02496006	0.0004966897	
-0.1516147	0.0333069	0.02129795	0.0139338	-0.02112597	-0.001199619	0.07964071	0.01066779	
0.001215334	-0.02207657	-0.02112597	-0.001199619	-0.1231802	-0.0403805	-0.1519853	-0.04157848	
-0.02496006	0.0004966897	0.07964071	0.01066779	-0.1519853	-0.04157848	-0.03419166	0.01001778	

1.306e+10	-0.06025982	0.03158347	-0.1046308	0.1144649	-0.001461868	-0.005402924	-0.02014331	0.01508558	
-0.1046308	0.1144649	0.01635821	0.008310124	-0.0177872	0.01154232	0.07525817	0.006449255	
-0.001461868	-0.005402924	-0.0177872	0.01154232	-0.1289273	-0.0177984	-0.1482073	0.05329949	
-0.02014331	0.01508558	0.07525817	0.006449255	-0.1482073	0.05329949	-0.03789283	0.0007871251	

1.308e+10	-0.05101582	0.04802447	-0.01948577	0.1535989	-0.0005904302	0.008887008	-0.007493106	0.02417644	
-0.01948577	0.1535989	0.008953746	0.009372507	-0.007498542	0.01983385	0.06944036	0.007498024	
-0.0005904302	0.008887008	-0.007498542	0.01983385	-0.1295555	0.005203488	-0.09043788	0.1287756	
-0.007493106	0.02417644	0.06944036	0.007498024	-0.09043788	0.1287756	-0.04743877	-0.0009357193	

1.31e+10	-0.03942719	0.06236764	0.07240781	0.1363802	0.001057956	0.02153903	0.008150457	0.02394592	
0.07240781	0.1363802	0.005888671	0.01652727	0.005671983	0.02032024	0.06709809	0.01295871	
0.001057956	0.02153903	0.005671983	0.02032024	-0.1245758	0.02789165	0.000126152	0.1571299	
0.008150457	0.02394592	0.06709809	0.01295871	0.000126152	0.1571299	-0.05389634	0.006245552	

1.312e+10	-0.02431116	0.07468897	0.1372387	0.06955891	0.003626187	0.0349705	0.02047423	0.01455404	
0.1372387	0.06955891	0.01063865	0.02344516	0.01636546	0.01293812	0.07051893	0.0181613	
0.003626187	0.0349705	0.01636546	0.01293812	-0.1135689	0.04839438	0.09025548	0.1282682	
0.02047423	0.01455404	0.07051893	0.0181613	0.09025548	0.1282682	-0.05121134	0.01567643	

1.314e+10	-0.005173536	0.08280754	0.1517205	-0.02187948	0.009772072	0.0493345	0.02489598	3.40896e-05	
0.1517205	-0.02187948	0.01944635	0.0234849	0.02054873	0.000956869	0.07715645	0.01830016	
0.009772072	0.0493345	0.02054873	0.000956869	-0.09744346	0.06474128	0.1473023	0.05300885	
0.02489598	3.40896e-05	0.07715645	0.01830016	0.1473023	0.05300885	-0.04197699	0.01874206	

1.316e+10	0.01572987	0.08430408	0.1113535	-0.1046777	0.02060021	0.0615997	0.02032641	-0.01417515	
0.1113535	-0.1046777	0.02469572	0.0162054	0.01712559	-0.0109388	0.08135362	0.01263536	
0.02060021	0.0615997	0.01712559	-0.0109388	-0.07825098	0.07559249	0.1507819	-0.04116441	
0.02032641	-0.01417515	0.08135362	0.01263536	0.1507819	-0.04116441	-0.034399	0.01309444	

1.318e+10	0.03482949	0.07947944	0.0310131	-0.1493234	0.03373954	0.06921003	0.008557325	-0.02330456	
0.0310131	-0.1493234	0.02167193	0.007964269	0.007685054	-0.01865181	0.07893238	0.005742556	
0.03373954	0.06921003	0.007685054	-0.01865181	-0.05799986	0.08110303	0.09965514	-0.1201632	
0.008557325	-0.02330456	0.07893238	0.005742556	0.09965514	-0.1201632	-0.03473275	0.004160076	

1.32e+10	0.05052144	0.07099606	-0.06031545	-0.1397822	0.04599509	0.07296833	-0.006453135	-0.02408343	
-0.06031545	-0.1397822	0.01328973	0.006387346	-0.00440478	-0.01960937	0.07163812	0.004146184	
0.04599509	0.07296833	-0.00440478	-0.01960937	-0.03755493	0.08198927	0.01246584	-0.1554108	
-0.006453135	-0.02408343	0.07163812	0.004146184	0.01246584	-0.1554108	-0.04205189	-9.541288e-05	

1.322e+10	0.06382442	0.06063066	-0.1294297	-0.07947006	0.05685533	0.07563343	-0.01922239	-0.01595307	
-0.1294297	-0.07947006	0.007807062	0.01296953	-0.01482831	-0.01345964	0.06655003	0.009849805	
0.05685533	0.07563343	-0.01482831	-0.01345964	-0.01709574	0.07821137	-0.07904008	-0.1340764	
-0.01922239	-0.01595307	0.06655003	0.009849805	-0.07904008	-0.1340764	-0.04931921	0.003820884	

1.324e+10	0.07564265	0.04771404	-0.1511111	0.009348247	0.06846868	0.07825523	-0.02486115	-0.001943517	
-0.1511111	0.009348247	0.01093296	0.0212404	-0.019769	-0.002504416	0.06926966	0.01734408	
0.06846868	0.07825523	-0.019769	-0.002504416	0.002169258	0.06902692	-0.141413	-0.06411804	
-0.02486115	-0.001943517	0.06926966	0.01734408	-0.141413	-0.06411804	-0.04985737	0.01202493	

1.326e+10	0.08471158	0.03103022	-0.1179815	0.09404861	0.08234708	0.07879162	-0.02144921	0.01260935	
-0.1179815	0.09404861	0.01983706	0.02307412	-0.01759118	0.009176909	0.0774977	0.01874294	
0.08234708	0.07879162	-0.01759118	0.009176909	0.01814888	0.05468819	-0.1521971	0.02870292	
-0.02144921	0.01260935	0.0774977	0.01874294	-0.1521971	0.02870292	-0.04336881	0.01707469	

1.328e+10	0.08842442	0.01142925	-0.04264356	0.1443322	0.09673116	0.07478661	-0.01050131	0.02263349	
-0.04264356	0.1443322	0.02620509	0.01685568	-0.009296903	0.01752919	0.08307345	0.01220337	
0.09673116	0.07478661	-0.009296903	0.01752919	0.02927934	0.0368884	-0.1079191	0.1105888	
-0.01050131	0.02263349	0.08307345	0.01220337	-0.1079191	0.1105888	-0.03576441	0.01489461	

1.33e+10	0.08558128	-0.007920304	0.04774852	0.1424821	0.1083723	0.0668459	0.004312894	0.0248089	
0.04774852	0.1424821	0.02473441	0.008588271	0.002290675	0.01984322	0.08035183	0.004033471	
0.1083723	0.0668459	0.002290675	0.01984322	0.03529416	0.01750559	-0.02483174	0.1522381	
0.004312894	0.0248089	0.08035183	0.004033471	-0.02483174	0.1522381	-0.03313801	0.007888477	

1.332e+10	0.07787925	-0.02420153	0.1207606	0.08907795	0.1162885	0.05802237	0.01799451	0.01803539	
0.1207606	0.08907795	0.01754902	0.005720991	0.01334065	0.01515598	0.07205696	0.002402588	
0.1162885	0.05802237	0.01334065	0.01515598	0.03667899	-0.002234644	0.0670464	0.1386057	
0.01799451	0.01803539	0.07205696	0.002402588	0.0670464	0.1386057	-0.03707716	0.002124871	

1.334e+10	0.06788671	-0.03709608	0.1496489	0.003509162	0.1225378	0.05022144	0.02532964	0.004365037	
0.1496489	0.003509162	0.01179489	0.0103453	0.01981178	0.004825563	0.06680889	0.008899257	
0.1225378	0.05022144	0.01981178	0.004825563	0.03367659	-0.02186482	0.1341926	0.07469373	
0.02532964	0.004365037	0.06680889	0.008899257	0.1341926	0.07469373	-0.04378651	0.002302417	

1.336e+10	0.05648259	-0.0478262	0.1240852	-0.08272013	0.1292678	0.0422912	0.02332399	-0.01108702	
0.1240852	-0.08272013	0.01287125	0.01768005	0.01915844	-0.007444536	0.07018437	0.01657924	
0.1292678	0.0422912	0.01915844	-0.007444536	0.02586928	-0.04072889	0.1522251	-0.01586843	
0.02332399	-0.01108702	0.07018437	0.01657924	0.1522251	-0.01586843	-0.04735799	0.008078036	

1.338e+10	0.04313829	-0.05679966	0.05424006	-0.1383688	0.1360387	0.03190509	0.01286283	-0.02256192	
0.05424006	-0.1383688	0.01981092	0.02075196	0.01162812	-0.01720505	0.0787072	0.01725306	
0.1360387	0.03190509	0.01162812	-0.01720505	0.01325264	-0.05710332	0.115202	-0.099939	
0.01286283	-0.02256192	0.0787072	0.01725306	0.115202	-0.099939	-0.04448222	0.01448749	

1.34e+10	0.02707479	-0.06334113	-0.03453829	-0.1444174	0.1400543	0.01841662	-0.002337233	-0.02621401	
-0.03453829	-0.1444174	0.02612277	0.01691316	-0.0002428065	-0.02114161	0.08344071	0.01020961	
0.1400543	0.01841662	-0.0002428065	-0.02114161	-0.00302304	-0.06962941	0.03712797	-0.1475401	
-0.002337233	-0.02621401	0.08344071	0.01020961	0.03712797	-0.1475401	-0.03745401	0.01602187	

1.342e+10	0.008602102	-0.06534826	-0.1111849	-0.09867987	0.1392072	0.004501233	-0.01734881	-0.0204715	
-0.1111849	-0.09867987	0.02662463	0.01023464	-0.01265979	-0.01754678	0.07979801	0.002935962	
0.1392072	0.004501233	-0.01265979	-0.01754678	-0.0217914	-0.0778382	-0.05408586	-0.1419341	
-0.01734881	-0.0204715	0.07979801	0.002935962	-0.05408586	-0.1419341	-0.03211945	0.01143722	

1.344e+10	-0.009575975	-0.06170032	-0.1478365	-0.0168177	0.1352013	-0.006756503	-0.02650542	-0.006638034	
-0.1478365	-0.0168177	0.02213108	0.006464872	-0.02093346	-0.007057092	0.07224984	0.002638548	
0.1352013	-0.006756503	-0.02093346	-0.007057092	-0.04184556	-0.0813179	-0.125496	-0.08503108	
-0.02650542	-0.006638034	0.07224984	0.002638548	-0.125496	-0.08503108	-0.03263144	0.004620902	

1.346e+10	-0.0253177	-0.05409665	-0.1304763	0.07128579	0.1309429	-0.01569351	-0.02567462	0.01027951	
-0.1304763	0.07128579	0.01708625	0.008017972	-0.02146787	0.006608481	0.06873758	0.008795366	
0.1309429	-0.01569351	-0.02146787	0.006608481	-0.06222923	-0.0801099	-0.1511209	0.00240038	
-0.02567462	0.01027951	0.06873758	0.008795366	-0.1511209	0.00240038	-0.03845609	0.001356356	

1.348e+10	-0.03907594	-0.04412075	-0.06560357	0.1330894	0.1269278	-0.02465388	-0.01491706	0.0235146	
-0.06560357	0.1330894	0.01571758	0.01304528	-0.01377444	0.01815373	0.07244198	0.01454635	
0.1269278	-0.02465388	-0.01377444	0.01815373	-0.08185704	-0.07419741	-0.1220385	0.08824379	
-0.01491706	0.0235146	0.07244198	0.01454635	-0.1220385	0.08824379	-0.04439089	0.004728346	

1.35e+10	-0.05147209	-0.03134476	0.02267611	0.146293	0.121109	-0.03454682	0.001573396	0.02797579	
0.02267611	0.146293	0.01915431	0.01723815	-0.0005994454	0.02312323	0.07911836	0.01406606	
0.121109	-0.03454682	-0.0005994454	0.02312323	-0.09970203	-0.06393387	-0.04951953	0.1418022	
0.001573396	0.02797579	0.07911836	0.01406606	-0.04951953	0.1418022	-0.04474031	0.01190448	

1.352e+10	-0.0611836	-0.01475666	0.1023434	0.1066333	0.1119988	-0.04338977	0.01767237	0.02201538	
0.1023434	0.1066333	0.02485744	0.01715953	0.01323667	0.01939696	0.0819593	0.008354461	
0.1119988	-0.04338977	0.01323667	0.01939696	-0.11455	-0.04980775	0.04036134	0.1445094	
0.01767237	0.02201538	0.0819593	0.008354461	0.04036134	0.1445094	-0.03866693	0.01639721	

1.354e+10	-0.06600843	0.004592605	0.1449229	0.02855884	0.1008139	-0.04906573	0.02746695	0.007693203	
0.1449229	0.02855884	0.02853703	0.01279214	0.02246464	0.008057663	0.07884511	0.003505462	
0.1008139	-0.04906573	0.02246464	0.008057663	-0.1258785	-0.03318802	0.1158554	0.09540197	
0.02746695	0.007693203	0.07884511	0.003505462	0.1158554	0.09540197	-0.03136094	0.01406128	

1.356e+10	-0.06521688	0.02402099	0.134975	-0.05985214	0.08998548	-0.05153934	0.02705435	-0.009941198	
0.134975	-0.05985214	0.0275308	0.007271896	0.02322249	-0.0068581	0.07386435	0.003700836	
0.08998548	-0.05153934	0.02322249	-0.0068581	-0.1338122	-0.01472572	0.1496668	0.01165551	
0.02705435	-0.009941198	0.07386435	0.003700836	0.1496668	0.01165551	-0.02909842	0.006846409	

1.358e+10	-0.06032274	0.04145867	0.07585261	-0.1264898	0.08025971	-0.05294163	0.01616539	-0.02414758	
0.07585261	-0.1264898	0.0225065	0.004905977	0.01480754	-0.01950256	0.07186092	0.007536149	
0.08025971	-0.05294163	0.01480754	-0.01950256	-0.1382035	0.00516431	0.1291352	-0.07635512	
0.01616539	-0.02414758	0.07186092	0.007536149	0.1291352	-0.07635512	-0.03383573	0.001081065	

1.36e+10	-0.05337227	0.05721472	-0.01075943	-0.1467962	0.06989513	-0.05415177	-0.001183664	-0.02916599	
-0.01075943	-0.1467962	0.01773448	0.008148703	0.0003166034	-0.02467897	0.07393199	0.01091245	
0.06989513	-0.05415177	0.0003166034	-0.02467897	-0.1387541	0.02616769	0.06178953	-0.1364738	
-0.001183664	-0.02916599	0.07393199	0.01091245	0.06178953	-0.1364738	-0.04124259	0.002269717	

1.362e+10	-0.04405144	0.0727949	-0.09296764	-0.1135843	0.05775782	-0.053359	-0.01816059	-0.02287193	
-0.09296764	-0.1135843	0.01817182	0.01458338	-0.0144818	-0.02007951	0.07769535	0.01111234	
0.05775782	-0.053359	-0.0144818	-0.02007951	-0.1347444	0.04779493	-0.02764004	-0.1469837	
-0.01816059	-0.02287193	0.07769535	0.01111234	-0.02764004	-0.1469837	-0.04408903	0.009637148	

1.364e+10	-0.03040507	0.08760674	-0.1409355	-0.03940292	0.04545066	-0.0486751	-0.02804992	-0.007784205	
-0.1409355	-0.03940292	0.02454768	0.01805252	-0.02352871	-0.007522545	0.0801077	0.008372164	
0.04545066	-0.0486751	-0.02352871	-0.007522545	-0.1254734	0.06863777	-0.1068048	-0.1044086	
-0.02804992	-0.007784205	0.0801077	0.008372164	-0.1068048	-0.1044086	-0.03906035	0.01633129	

1.366e+10	-0.01207809	0.09869571	-0.1376464	0.04852697	0.03562594	-0.04067512	-0.02714662	0.010058	
-0.1376464	0.04852697	0.03154725	0.01440152	-0.02327157	0.007800112	0.07960267	0.004959219	
0.03562594	-0.04067512	-0.02327157	0.007800112	-0.1113325	0.08670122	-0.1472375	-0.02424302	
-0.02714662	0.010058	0.07960267	0.004959219	-0.1472375	-0.02424302	-0.03039064	0.0156925	

1.368e+10	0.008410311	0.1039403	-0.08468283	0.1185021	0.02900277	-0.0319318	-0.01609891	0.02387661	
-0.08468283	0.1185021	0.03236969	0.006444606	-0.01413675	0.01986295	0.07683234	0.003295862	
0.02900277	-0.0319318	-0.01413675	0.01986295	-0.0938806	0.1008862	-0.1343213	0.06467334	
-0.01609891	0.02387661	0.07683234	0.003295862	-0.1343213	0.06467334	-0.02628979	0.008163196	

1.37e+10	0.02793213	0.1040045	-0.001238131	0.1453647	0.02374847	-0.02392153	0.000811744	0.02866651	
-0.001238131	0.1453647	0.02603544	0.001732148	0.0001964066	0.0242522	0.07397667	0.004443485	
0.02374847	-0.02392153	0.0001964066	0.0242522	-0.07444904	0.1112107	-0.07273303	0.1299274	
0.000811744	0.02866651	0.07397667	0.004443485	-0.07273303	0.1299274	-0.03049587	0.001022309	

1.372e+10	0.04572625	0.1013196	0.08232995	0.1193842	0.01820351	-0.01531033	0.01729204	0.02271631	
0.08232995	0.1193842	0.01894734	0.005143261	0.01432606	0.01941578	0.07331105	0.007561735	
0.01820351	-0.01531033	0.01432606	0.01941578	-0.05346405	0.1179155	0.01504783	0.1478864	
0.01729204	0.02271631	0.07331105	0.007561735	0.01504783	0.1478864	-0.03856217	0.001205128	

1.374e+10	0.06333627	0.09672901	0.1355673	0.05027702	0.01348702	-0.004129317	0.02709665	0.008332912	
0.1355673	0.05027702	0.01878537	0.01339848	0.0228134	0.00723114	0.07583314	0.01013945	
0.01348702	-0.004129317	0.0228134	0.00723114	-0.03096686	0.120608	0.0970264	0.1122476	
0.02709665	0.008332912	0.07583314	0.01013945	0.0970264	0.1122476	-0.04229684	0.008467098	

1.376e+10	0.08140396	0.08847964	0.1394359	-0.0364841	0.01209823	0.009145508	0.02665865	-0.008842839	
0.1394359	-0.0364841	0.02637744	0.01790255	0.0224641	-0.007411026	0.07992382	0.009419721	
0.01209823	0.009145508	0.0224641	-0.007411026	-0.007812843	0.1182522	0.1436244	0.03617458	
0.02665865	-0.008842839	0.07992382	0.009419721	0.1436244	0.03617458	-0.03780864	0.01562221	

1.378e+10	0.09773095	0.07507835	0.09309609	-0.1095579	0.01481808	0.02196623	0.0165439	-0.02239864	
0.09309609	-0.1095579	0.03444354	0.01361005	0.01378236	-0.01884363	0.08186827	0.005180267	
0.01481808	0.02196623	0.01378236	-0.01884363	0.0140714	0.1105178	0.1381649	-0.05271583	
0.0165439	-0.02239864	0.08186827	0.005180267	0.1381649	-0.05271583	-0.02929472	0.01562878	

1.38e+10	0.1093847	0.05782824	0.01345094	-0.1429084	0.0199593	0.03250055	0.0006848145	-0.02768453	
0.01345094	-0.1429084	0.03498539	0.004649529	0.0003582495	-0.02308722	0.07922876	0.0009942874	
0.0199593	0.03250055	0.0003582495	-0.02308722	0.0330087	0.09853828	0.0827418	-0.1223241	
0.0006848145	-0.02768453	0.07922876	0.0009942874	0.0827418	-0.1223241	-0.0248382	0.008615565	

1.382e+10	0.1158169	0.03984729	-0.0709252	-0.1245976	0.0255073	0.04142587	-0.01530322	-0.02301577	
-0.0709252	-0.1245976	0.02784162	0.0001461199	-0.01290764	-0.01892899	0.07411981	0.001167149	
0.0255073	0.04142587	-0.01290764	-0.01892899	0.04869141	0.08381156	-0.002493591	-0.1474289	
-0.01530322	-0.02301577	0.07411981	0.001167149	-0.002493591	-0.1474289	-0.02839145	0.001711628	

1.384e+10	0.1189208	0.02297589	-0.129403	-0.06114087	0.03171464	0.0506124	-0.02573518	-0.009992353	
-0.129403	-0.06114087	0.02095446	0.004344037	-0.02134764	-0.007964574	0.07177824	0.00595687	
0.03171464	0.0506124	-0.02134764	-0.007964574	0.06144698	0.06697073	-0.08656392	-0.1189703	
-0.02573518	-0.009992353	0.07177824	0.00595687	-0.08656392	-0.1189703	-0.03574076	0.001541726	

1.386e+10	0.1204446	0.006314132	-0.140698	0.02417634	0.04067898	0.05996755	-0.02672599	0.006633819	
-0.140698	0.02417634	0.02171161	0.01236149	-0.02188682	0.005795008	0.07521305	0.01058336	
0.04067898	0.05996755	-0.02188682	0.005795008	0.07108247	0.04795476	-0.1388108	-0.04755263	
-0.02672599	0.006633819	0.07521305	0.01058336	-0.1388108	-0.04755263	-0.03928181	0.007806512	

1.388e+10	0.1194954	-0.01162967	-0.1011512	0.1002023	0.05312271	0.06703379	-0.0180351	0.02070319	
-0.1011512	0.1002023	0.02927703	0.01566401	-0.01445674	0.01720446	0.08145253	0.009783572	
0.05312271	0.06703379	-0.01445674	0.01720446	0.07662552	0.0270623	-0.1405908	0.04057945	
-0.0180351	0.02070319	0.08145253	0.009783572	-0.1405908	0.04057945	-0.03561077	0.01410649	

1.39e+10	0.1138234	-0.0300373	-0.02543578	0.1398253	0.06703874	0.06985365	-0.002965878	0.02730137	
-0.02543578	0.1398253	0.03596864	0.01104753	-0.001990381	0.02224915	0.08405294	0.003623239	
0.06703874	0.06985365	-0.001990381	0.02224915	0.07724374	0.00567595	-0.09172226	0.1135915	
-0.002965878	0.02730137	0.08405294	0.003623239	-0.09172226	0.1135915	-0.02838227	0.01446773	

1.392e+10	0.1032151	-0.04584858	0.05928116	0.1290229	0.07991055	0.06912554	0.0132475	0.02419806	
0.05928116	0.1290229	0.03556941	0.003425759	0.01105686	0.01936354	0.07991541	-0.001857633	
0.07991055	0.06912554	0.01105686	0.01936354	0.07333614	-0.01433482	-0.009962619	0.1453891	
0.0132475	0.02419806	0.07991541	-0.001857633	-0.009962619	0.1453891	-0.024293	0.008856336	

1.394e+10	0.09016939	-0.05715924	0.1225247	0.07155749	0.0912838	0.06692715	0.02491933	0.01227372	
0.1225247	0.07155749	0.02942674	0.0004377321	0.02017967	0.009572518	0.07313599	-0.0007658042	
0.0912838	0.06692715	0.02017967	0.009572518	0.06621137	-0.03212909	0.0751276	0.1245454	
0.02491933	0.01227372	0.07313599	-0.0007658042	0.0751276	0.1245454	-0.02674858	0.002924721	

1.396e+10	0.07726475	-0.06500076	0.1411964	-0.01181713	0.1027021	0.06397869	0.02761033	-0.004389052	
0.1411964	-0.01181713	0.02456739	0.004358425	0.0221025	-0.003753796	0.07109272	0.005837765	
0.1027021	0.06397869	0.0221025	-0.003753796	0.05675105	-0.04802291	0.1326616	0.05870444	
0.02761033	-0.004389052	0.07109272	0.005837765	0.1326616	0.05870444	-0.03266255	0.002364202	

1.398e+10	0.06458858	-0.07150919	0.1085662	-0.09056315	0.1150533	0.05865042	0.02008827	-0.01962867	
0.1085662	-0.09056315	0.0259324	0.01022655	0.01598296	-0.01584077	0.07622698	0.01072657	
0.1150533	0.05865042	0.01598296	-0.01584077	0.04490616	-0.06211071	0.141922	-0.02790831	
0.02008827	-0.01962867	0.07622698	0.01072657	0.141922	-0.02790831	-0.03583629	0.007167303	

1.4e+10	0.05026662	-0.07694141	0.03690885	-0.1361665	0.1265393	0.04926184	0.005107457	-0.02774379	
0.03690885	-0.1361665	0.03165971	0.01194174	0.003986797	-0.02223338	0.08318453	0.008444002	
0.1265393	0.04926184	0.003986797	-0.02223338	0.03047918	-0.07375431	0.1000867	-0.1038784	
0.005107457	-0.02774379	0.08318453	0.008444002	0.1000867	-0.1038784	-0.03325635	0.01237454	

1.402e+10	0.03368766	-0.0790752	-0.04774792	-0.1325524	0.1345146	0.03677127	-0.01190051	-0.02577868	
-0.04774792	-0.1325524	0.03606916	0.008363036	-0.009568688	-0.02060456	0.08466802	0.001233272	
0.1345146	0.03677127	-0.009568688	-0.02060456	0.01406057	-0.08188763	0.02253336	-0.1422058	
-0.01190051	-0.02577868	0.08466802	0.001233272	0.02253336	-0.1422058	-0.02746006	0.01313309	

1.404e+10	0.01714791	-0.07614707	-0.1151128	-0.08111294	0.1384547	0.02388592	-0.02483637	-0.01427001	
-0.1151128	-0.08111294	0.03569975	0.003396938	-0.01984396	-0.01142923	0.07926432	-0.003509962	
0.1384547	0.02388592	-0.01984396	-0.01142923	-0.002914249	-0.08608068	-0.06292933	-0.1293105	
-0.02483637	-0.01427001	0.07926432	-0.003509962	-0.06292933	-0.1293105	-0.02370841	0.009010716	

1.406e+10	0.003585363	-0.06940946	-0.1407397	-0.0002702012	0.1401152	0.01202196	-0.02875214	0.002859709	
-0.1407397	-0.0002702012	0.03199476	0.001436702	-0.02301393	0.002159247	0.07280679	-0.001093535	
0.1401152	0.01202196	-0.02301393	0.002159247	-0.01917082	-0.087049	-0.125573	-0.06972089	
-0.02875214	0.002859709	0.07280679	-0.001093535	-0.125573	-0.06972089	-0.02506521	0.00401031	

1.408e+10	-0.006775512	-0.06173732	-0.1151904	0.08056734	0.1409397	0.0002706836	-0.02182515	0.01921439	
-0.1151904	0.08056734	0.02909476	0.00353729	-0.01766489	0.01523179	0.07213369	0.005551525	
0.1409397	0.0002706836	-0.01766489	0.01523179	-0.03454481	-0.08580307	-0.142605	0.01488774	
-0.02182515	0.01921439	0.07213369	0.005551525	-0.142605	0.01488774	-0.02971604	0.002887504	

1.41e+10	-0.01602888	-0.05425164	-0.04792322	0.1318828	0.1400314	-0.01285254	-0.006546239	0.02844546	
-0.04792322	0.1318828	0.02965059	0.006953391	-0.005581018	0.02285958	0.07767581	0.009116839	
0.1400314	-0.01285254	-0.005581018	0.02285958	-0.04956211	-0.08248521	-0.1081136	0.09375003	
-0.006546239	0.02844546	0.07767581	0.009116839	-0.1081136	0.09375003	-0.03277686	0.006519723	

1.412e+10	-0.02548591	-0.04534116	0.03640413	0.1352669	0.1352451	-0.02661985	0.01128501	0.02700814	
0.03640413	0.1352669	0.03285405	0.008396381	0.00883493	0.02201754	0.08339429	0.006029861	
0.1352451	-0.02661985	0.00883493	0.02201754	-0.06402543	-0.07651926	-0.03490445	0.138551	
0.01128501	0.02700814	0.08339429	0.006029861	-0.03490445	0.138551	-0.03108347	0.01114174	

1.414e+10	-0.03358937	-0.03318148	0.1073151	0.08978348	0.1262264	-0.03826872	0.0249794	0.01543422	
0.1073151	0.08978348	0.03601849	0.006897611	0.0201697	0.01284209	0.08367381	-0.0001773346	
0.1262264	-0.03826872	0.0201697	0.01284209	-0.076938	-0.06771074	0.05071848	0.1334682	
0.0249794	0.01543422	0.08367381	-0.0001773346	0.05071848	0.1334682	-0.02609963	0.01229825	

1.416e+10	-0.03760425	-0.01874879	0.1393266	0.01185485	0.1152561	-0.04603615	0.02939939	-0.002038791	
0.1393266	0.01185485	0.03703935	0.00381203	0.0240508	-0.001356102	0.07892573	-0.003331152	
0.1152561	-0.04603615	0.0240508	-0.001356102	-0.08726141	-0.05681992	0.1180531	0.08025595	
0.02939939	-0.002038791	0.07892573	-0.003331152	0.1180531	0.08025595	-0.02234437	0.0089145	

1.418e+10	-0.03717367	-0.005224419	0.1207492	-0.07033416	0.1045968	-0.05093621	0.02272543	-0.01889584	
0.1207492	-0.07033416	0.0355328	0.00136466	0.0188509	-0.0152706	0.07433357	-0.001051273	
0.1045968	-0.05093621	0.0188509	-0.0152706	-0.09493728	-0.04518111	0.1426855	-0.002037503	
0.02272543	-0.01889584	0.07433357	-0.001051273	0.1426855	-0.002037503	-0.02313754	0.004246532	

1.42e+10	-0.03483402	0.005710533	0.05826587	-0.1268482	0.09406587	-0.0548114	0.00736025	-0.0286476	
0.05826587	-0.1268482	0.03290584	0.001312431	0.006370352	-0.02357031	0.07414639	0.003626104	
0.09406587	-0.0548114	0.006370352	-0.02357031	-0.1008342	-0.03342582	0.1155482	-0.08353239	
0.00736025	-0.0286476	0.07414639	0.003626104	0.1155482	-0.08353239	-0.02743434	0.002791517	

1.422e+10	-0.03265635	0.01561828	-0.02522891	-0.1370573	0.08204652	-0.05758842	-0.01078848	-0.02748657	
-0.02522891	-0.1370573	0.03171378	0.00379472	-0.008728469	-0.02294166	0.07791777	0.005981219	
0.08204652	-0.05758842	-0.008728469	-0.02294166	-0.1054467	-0.02101292	0.04660145	-0.1345694	
-0.01078848	-0.02748657	0.07791777	0.005981219	0.04660145	-0.1345694	-0.0306114	0.006144546	

1.424e+10	-0.0297957	0.02661237	-0.09924716	-0.09746184	0.06824563	-0.05717563	-0.02473257	-0.01594516	
-0.09924716	-0.09746184	0.03360263	0.00650248	-0.02061457	-0.01346412	0.08174433	0.004177322	
0.06824563	-0.05717563	-0.02061457	-0.01346412	-0.1081811	-0.007488869	-0.03897344	-0.1368173	
-0.02473257	-0.01594516	0.08174433	0.004177322	-0.03897344	-0.1368173	-0.02900755	0.01090322	

1.426e+10	-0.02377611	0.03828722	-0.1369994	-0.02265553	0.05487694	-0.05206717	-0.02927073	0.001477669	
-0.1369994	-0.02265553	0.03747829	0.006507177	-0.024613	0.001255455	0.08248043	0.0003073176	
0.05487694	-0.05206717	-0.024613	0.001255455	-0.1081337	0.006519026	-0.110401	-0.08956056	
-0.02927073	0.001477669	0.08248043	0.0003073176	-0.110401	-0.08956056	-0.0238075	0.01206257	

1.428e+10	-0.0140688	0.04774015	-0.1249628	0.0601137	0.04468992	-0.0435654	-0.02284907	0.01816846	
-0.1249628	0.0601137	0.04002013	0.003151199	-0.01916351	0.01547405	0.08020474	-0.002344694	
0.04468992	-0.0435654	-0.01916351	0.01547405	-0.1053151	0.01969017	-0.1417356	-0.009886262	
-0.02284907	0.01816846	0.08020474	-0.002344694	-0.1417356	-0.009886262	-0.01998899	0.008251114	

1.43e+10	-0.003198824	0.05315283	-0.06758478	0.1208792	0.03782159	-0.03435591	-0.007972487	0.02798763	
-0.06758478	0.1208792	0.03869732	-0.0007710661	-0.006405567	0.02375657	0.07713189	-0.002225895	
0.03782159	-0.03435591	-0.006405567	0.02375657	-0.1007478	0.03134086	-0.1215642	0.07333224	
-0.007972487	0.02798763	0.07713189	-0.002225895	-0.1215642	0.07333224	-0.02127703	0.003271047	

1.432e+10	0.006125739	0.05599694	0.01427417	0.1375413	0.03239629	-0.02530347	0.009817823	0.02728649	
0.01427417	0.1375413	0.03473279	-0.001349477	0.00878166	0.02295241	0.07548694	9.207192e-05	
0.03239629	-0.02530347	0.00878166	0.02295241	-0.09538461	0.04197023	-0.05716937	0.1297429	
0.009817823	0.02728649	0.07548694	9.207192e-05	-0.05716937	0.1297429	-0.02614433	0.002296529	

1.434e+10	0.01431602	0.0590041	0.09062866	0.1040031	0.02764668	-0.01497533	0.023765	0.0163198	
0.09062866	0.1040031	0.03260336	0.002280249	0.02055995	0.01332069	0.07641881	0.002851834	
0.02764668	-0.01497533	0.02055995	0.01332069	-0.08896374	0.05238273	0.02778162	0.1387561	
0.023765	0.0163198	0.07641881	0.002851834	0.02778162	0.1387561	-0.02919561	0.006456475	

1.436e+10	0.02390957	0.06237767	0.1335681	0.03281489	0.02520296	-0.002303407	0.02857301	-0.000584949	
0.1335681	0.03281489	0.0354568	0.00625901	0.02429915	-0.001356874	0.07949952	0.003856464	
0.02520296	-0.002303407	0.02429915	-0.001356874	-0.08048822	0.06223081	0.1022645	0.09734775	
0.02857301	-0.000584949	0.07949952	0.003856464	0.1022645	0.09734775	-0.02661764	0.01151848	

1.438e+10	0.03577011	0.06369991	0.1277685	-0.04974294	0.02720758	0.01130036	0.02271261	-0.01687772	
0.1277685	-0.04974294	0.04094311	0.005685624	0.01867299	-0.01523421	0.08250902	0.001815769	
0.02720758	0.01130036	0.01867299	-0.01523421	-0.06999695	0.07031531	0.1393171	0.02085912	
0.02271261	-0.01687772	0.08250902	0.001815769	0.1393171	0.02085912	-0.02058301	0.01189319	

1.44e+10	0.04770258	0.06109607	0.07582491	-0.1138151	0.03356957	0.02288845	0.008738234	-0.02668576	
0.07582491	-0.1138151	0.0433992	0.0004933163	0.006154456	-0.02302983	0.08276975	-0.002162776	
0.03356957	0.02288845	0.006154456	-0.02302983	-0.05859875	0.07595482	0.1257461	-0.06283178	
0.008738234	-0.02668576	0.08276975	-0.002162776	0.1257461	-0.06283178	-0.01716422	0.006886055	

1.442e+10	0.05697121	0.05582345	-0.003346165	-0.136429	0.04180509	0.0310506	-0.008238844	-0.0267144	
-0.003346165	-0.136429	0.04018724	-0.004021987	-0.008378499	-0.02207977	0.07952672	-0.004858629	
0.04180509	0.0310506	-0.008378499	-0.02207977	-0.0473577	0.07969608	0.06657707	-0.1234405	
-0.008238844	-0.0267144	0.07952672	-0.004858629	0.06657707	-0.1234405	-0.01979956	0.001683497	

1.444e+10	0.06357451	0.05082903	-0.08104242	-0.1094027	0.05003134	0.03709833	-0.0221342	-0.016929	
-0.08104242	-0.1094027	0.03501071	-0.002940732	-0.01953512	-0.01289082	0.07535935	-0.003509039	
0.05003134	0.03709833	-0.01953512	-0.01289082	-0.03625939	0.08244477	-0.01647507	-0.1389064	
-0.0221342	-0.016929	0.07535935	-0.003509039	-0.01647507	-0.1389064	-0.0254468	0.001864231	

1.446e+10	0.07013999	0.04708771	-0.1287978	-0.04269556	0.05891983	0.04260855	-0.02768587	-0.0008845744	
-0.1287978	-0.04269556	0.03404731	0.002500398	-0.02312067	0.0009932988	0.07442853	0.001054643	
0.05891983	0.04260855	-0.02312067	0.0009932988	-0.02442267	0.08433801	-0.09301862	-0.1038531	
-0.02768587	-0.0008845744	0.07442853	0.001054643	-0.09301862	-0.1038531	-0.02775738	0.00728719	

1.448e+10	0.07815858	0.04241545	-0.1294034	0.03892138	0.07010186	0.04681933	-0.02282082	0.01520809	
-0.1294034	0.03892138	0.03903357	0.006019559	-0.01789155	0.01411976	0.07834368	0.004361712	
0.07010186	0.04681933	-0.01789155	0.01411976	-0.0116604	0.08437812	-0.1352865	-0.03143238	
-0.02282082	0.01520809	0.07834368	0.004361712	-0.1352865	-0.03143238	-0.02381037	0.01220012	

1.45e+10	0.08586878	0.03475602	-0.08329922	0.1057025	0.08319978	0.04748134	-0.009735535	0.02530911	
-0.08329922	0.1057025	0.0449768	0.003249069	-0.006215473	0.02150583	0.083649	0.002488343	
0.08319978	0.04748134	-0.006215473	0.02150583	0.000971535	0.08185623	-0.1283028	0.05173352	
-0.009735535	0.02530911	0.083649	0.002488343	-0.1283028	0.05173352	-0.01725181	0.01134526	

1.452e+10	0.09064461	0.02509028	-0.007580831	0.1339156	0.09568535	0.04367088	0.006550224	0.02607176	
-0.007580831	0.1339156	0.0455728	-0.003199869	0.007261384	0.02074803	0.08489667	-0.003331295	
0.09568535	0.04367088	0.007261384	0.02074803	0.01236733	0.07752372	-0.07509704	0.115551	
0.006550224	0.02607176	0.08489667	-0.003331295	-0.07509704	0.115551	-0.01463014	0.005406049	

1.454e+10	0.09233848	0.01645963	0.07038784	0.1136834	0.105386	0.03720327	0.02025221	0.01738401	
0.07038784	0.1136834	0.04049317	-0.006490232	0.01759384	0.01249267	0.0805431	-0.007472608	
0.105386	0.03720327	0.01759384	0.01249267	0.02275883	0.07267685	0.004769761	0.1371371	
0.02025221	0.01738401	0.0805431	-0.007472608	0.004769761	0.1371371	-0.01833755	0.000486591	

1.456e+10	0.09389044	0.01010825	0.1224124	0.05253683	0.1130911	0.03049316	0.02628109	0.002417021	
0.1224124	0.05253683	0.03571323	-0.003306793	0.0210919	6.590897e-05	0.07482953	-0.005787379	
0.1130911	0.03049316	0.0210919	6.590897e-05	0.03363492	0.06752022	0.08211121	0.1091039	
0.02628109	0.002417021	0.07482953	-0.005787379	0.08211121	0.1091039	-0.02418711	0.001538677	

1.458e+10	0.09754392	0.00339557	0.1299191	-0.02692623	0.1210625	0.02290345	0.02251154	-0.01289457	
0.1299191	-0.02692623	0.03680596	0.002590378	0.01696423	-0.01162826	0.07355398	5.761512e-05	
0.1210625	0.02290345	0.01696423	-0.01162826	0.04587261	0.06013364	0.1291664	0.04244026	
0.02251154	-0.01289457	0.07355398	5.761512e-05	0.1291664	0.04244026	-0.02595988	0.007429168	

1.46e+10	0.1011926	-0.006787907	0.09092684	-0.09610203	0.1285718	0.01188538	0.01106735	-0.02303636	
0.09092684	-0.09610203	0.04296488	0.004529741	0.007407395	-0.01878746	0.07828938	0.004087216	
0.1285718	0.01188538	0.007407395	-0.01878746	0.05744012	0.04859568	0.1299877	-0.03878312	
0.01106735	-0.02303636	0.07828938	0.004087216	0.1299877	-0.03878312	-0.021495	0.01231529	

1.462e+10	0.1011478	-0.01955123	0.01962287	-0.1306445	0.1326726	-0.002697551	-0.003779615	-0.02505957	
0.01962287	-0.1306445	0.0479569	9.609677e-05	-0.004285564	-0.01955695	0.08443218	0.001782755	
0.1326726	-0.002697551	-0.004285564	-0.01955695	0.06578374	0.03392881	0.08444344	-0.106008	
-0.003779615	-0.02505957	0.08443218	0.001782755	0.08444344	-0.106008	-0.01466277	0.01111755	

1.464e+10	0.09664161	-0.03144925	-0.05865369	-0.1183645	0.1312529	-0.01835413	-0.01721342	-0.01860833	
-0.05865369	-0.1183645	0.04679945	-0.00618204	-0.01447645	-0.01383883	0.0855576	-0.004797493	
0.1312529	-0.01835413	-0.01447645	-0.01383883	0.07045162	0.01817805	0.008597346	-0.135257	
-0.01721342	-0.01860833	0.0855576	-0.004797493	0.008597346	-0.135257	-0.01197934	0.004745376	

1.466e+10	0.08996856	-0.04030708	-0.1159767	-0.06339019	0.1248319	-0.03188654	-0.02490732	-0.005631383	
-0.1159767	-0.06339019	0.04119557	-0.007856241	-0.01989158	-0.003321572	0.08052483	-0.008970976	
0.1248319	-0.03188654	-0.01989158	-0.003321572	0.07229683	0.00246958	-0.07048665	-0.1157935	
-0.02490732	-0.005631383	0.08052483	-0.008970976	-0.07048665	-0.1157935	-0.016014	-0.0005368354	

1.468e+10	0.08364649	-0.04711314	-0.1313688	0.01471215	0.1160491	-0.04195423	-0.0238478	0.009736963	
-0.1313688	0.01471215	0.03761983	-0.003603293	-0.0184232	0.008633977	0.07472801	-0.006691384	
0.1160491	-0.04195423	-0.0184232	0.008633977	0.07195717	-0.0133001	-0.1241849	-0.05430666	
-0.0238478	0.009736963	0.07472801	-0.006691384	-0.1241849	-0.05430666	-0.02244978	0.0006074733	

1.47e+10	0.0774582	-0.05423681	-0.09894512	0.0874777	0.1067581	-0.04986606	-0.01392655	0.02180987	
-0.09894512	0.0874777	0.0400938	0.001530437	-0.01027044	0.01771744	0.07412162	-0.0008061023	
0.1067581	-0.04986606	-0.01027044	0.01771744	0.06920884	-0.02940878	-0.1327245	0.02683428	
-0.01392655	0.02180987	0.07412162	-0.0008061023	-0.1327245	0.02683428	-0.02442242	0.007026087	

1.472e+10	0.06900324	-0.06186743	-0.03076906	0.128261	0.09618026	-0.05699646	0.001171732	0.02582343	
-0.03076906	0.128261	0.04600091	0.001944819	0.001654673	0.02051638	0.07886646	0.002401184	
0.09618026	-0.05699646	0.001654673	0.02051638	0.06329506	-0.04552568	-0.09314776	0.09802012	
0.001171732	0.02582343	0.07886646	0.002401184	-0.09314776	0.09802012	-0.0196328	0.01225364	

1.474e+10	0.05729548	-0.06744588	0.04833788	0.1226375	0.08279126	-0.06234466	0.01569436	0.02047622	
0.04833788	0.1226375	0.04947442	-0.002605919	0.01310885	0.01608737	0.083903	-2.124381e-05	
0.08279126	-0.06234466	0.01310885	0.01608737	0.05389602	-0.06056176	-0.02001994	0.1335579	
0.01569436	0.02047622	0.083903	-2.124381e-05	-0.02001994	0.1335579	-0.01250724	0.01112789	

1.476e+10	0.0444936	-0.06892425	0.1100269	0.07272585	0.06716509	-0.06357929	0.02461961	0.007935785	
0.1100269	0.07272585	0.04784378	-0.007486661	0.02021915	0.005869997	0.08453889	-0.005333994	
0.06716509	-0.06357929	0.02021915	0.005869997	0.04154725	-0.07343452	0.06021253	0.1207835	
0.02461961	0.007935785	0.08453889	-0.005333994	0.06021253	0.1207835	-0.009483121	0.004713653	

1.478e+10	0.03321614	-0.06719888	0.1319555	-0.003792338	0.05185232	-0.05965979	0.02496391	-0.007596041	
0.1319555	-0.003792338	0.04353313	-0.008388676	0.02030812	-0.006911472	0.08074611	-0.008478351	
0.05185232	-0.05965979	0.02030812	-0.006911472	0.02706376	-0.083776	0.1186478	0.06419277	
0.02496391	-0.007596041	0.08074611	-0.008478351	0.1186478	0.06419277	-0.01312842	-0.0009940441	

1.48e+10	0.02371956	-0.06477469	0.105717	-0.07914396	0.03928217	-0.05215571	0.01622906	-0.02079843	
0.105717	-0.07914396	0.04105771	-0.005226259	0.01279776	-0.01771975	0.07658129	-0.007113938	
0.03928217	-0.05215571	0.01279776	-0.01771975	0.01090694	-0.09167244	0.13387	-0.01572114	
0.01622906	-0.02079843	0.07658129	-0.007113938	0.13387	-0.01572114	-0.01974889	-0.0005999331	

1.482e+10	0.0138054	-0.06251479	0.04073148	-0.1255375	0.0291611	-0.04340121	0.00119765	-0.02657903	
0.04073148	-0.1255375	0.04269889	-0.001521671	8.100514e-05	-0.02220685	0.07570777	-0.003307856	
0.0291611	-0.04340121	8.100514e-05	-0.02220685	-0.007098169	-0.0969134	0.1002792	-0.08975446	
0.00119765	-0.02657903	0.07570777	-0.003307856	0.1002792	-0.08975446	-0.02269638	0.005562167	

1.484e+10	0.002026834	-0.05821573	-0.03903728	-0.1258757	0.01972858	-0.03344708	-0.01450013	-0.02244813	
-0.03903728	-0.1258757	0.04689835	-0.0007277731	-0.01307104	-0.01829789	0.07827245	-0.0007453596	
0.01972858	-0.03344708	-0.01307104	-0.01829789	-0.02679866	-0.09849954	0.03030236	-0.130806	
-0.01450013	-0.02244813	0.07827245	-0.0007453596	0.03030236	-0.130806	-0.01870096	0.01163127	

1.486e+10	-0.009699734	-0.04934877	-0.1042677	-0.08021001	0.01113235	-0.02034209	-0.02486799	-0.009961595	
-0.1042677	-0.08021001	0.05023974	-0.003405093	-0.02152757	-0.007282494	0.08170889	-0.001285098	
0.01113235	-0.02034209	-0.02152757	-0.007282494	-0.04704625	-0.09540035	-0.05032274	-0.1241163	
-0.02486799	-0.009961595	0.08170889	-0.001285098	-0.05032274	-0.1241163	-0.01108893	0.01173442	

1.488e+10	-0.01789233	-0.03655507	-0.1311767	-0.005452066	0.006084466	-0.003486722	-0.0261691	0.006215055	
-0.1311767	-0.005452066	0.0504454	-0.007418724	-0.02194197	0.006771199	0.0834746	-0.004216079	
0.006084466	-0.003486722	-0.02194197	0.006771199	-0.06610111	-0.08762364	-0.1122661	-0.07235055	
-0.0261691	0.006215055	0.0834746	-0.004216079	-0.1122661	-0.07235055	-0.006698623	0.005551436	

1.49e+10	-0.0215341	-0.02321404	-0.1100855	0.07102684	0.006844862	0.01462883	-0.01792534	0.020318	
-0.1100855	0.07102684	0.04774466	-0.009913517	-0.01392818	0.01854386	0.08250415	-0.007474058	
0.006844862	0.01462883	-0.01392818	0.01854386	-0.08271601	-0.07635487	-0.1330608	0.005390798	
-0.01792534	0.020318	0.08250415	-0.007474058	-0.1330608	0.005390798	-0.009351208	-0.00134753	

1.492e+10	-0.022836	-0.01126643	-0.04877317	0.1212048	0.01262953	0.03082614	-0.002833855	0.02719977	
-0.04877317	0.1212048	0.04433156	-0.009010496	-0.000327828	0.0233897	0.07939349	-0.008829927	
0.01262953	0.03082614	-0.000327828	0.0233897	-0.09697617	-0.06249688	-0.1053784	0.08068451	
-0.002833855	0.02719977	0.07939349	-0.008829927	-0.1053784	0.08068451	-0.0165252	-0.002531663	

1.494e+10	-0.02389703	0.0006174184	0.02999431	0.1266774	0.02083247	0.04419514	0.0136964	0.02390075	
0.02999431	0.1266774	0.04335799	-0.005235991	0.0136566	0.01915646	0.07638574	-0.007110833	
0.02083247	0.04419514	0.0136566	0.01915646	-0.1090199	-0.04600698	-0.03961826	0.1261134	
0.0136964	0.02390075	0.07638574	-0.007110833	-0.03961826	0.1261134	-0.02124618	0.003384073	

1.496e+10	-0.02361234	0.01472599	0.09709311	0.08576789	0.03027593	0.05631323	0.02515196	0.01135179	
0.09709311	0.08576789	0.04657004	-0.001855873	0.02237573	0.00733081	0.0761635	-0.003436719	
0.03027593	0.05631323	0.02237573	0.00733081	-0.1180104	-0.0265948	0.03990402	0.1253833	
0.02515196	0.01135179	0.0761635	-0.003436719	0.03990402	0.1253833	-0.01838227	0.01098414	

1.498e+10	-0.01890337	0.0305118	0.1280496	0.01406714	0.04245817	0.06811117	0.02695582	-0.005473935	
0.1280496	0.01406714	0.05202477	-0.002605967	0.02227801	-0.007314298	0.07948353	-0.00101437	
0.04245817	0.06811117	0.02227801	-0.007314298	-0.122572	-0.004901574	0.1041877	0.07927782	
0.02695582	-0.005473935	0.07948353	-0.00101437	0.1041877	0.07927782	-0.009902874	0.01282207	

1.5e+10	-0.008855499	0.04447903	0.112204	-0.06176373	0.0589275	0.07760598	0.01868822	-0.02000353	
0.112204	-0.06176373	0.05492109	-0.007841075	0.01359022	-0.01890513	0.08387158	-0.002636357	
0.0589275	0.07760598	0.01359022	-0.01890513	-0.1219692	0.0172285	0.130149	0.005127902	
0.01868822	-0.02000353	0.08387158	-0.002636357	0.130149	0.005127902	-0.003498658	0.006680952	

1.502e+10	0.003961704	0.05412922	0.05606703	-0.1144218	0.07839065	0.08192801	0.00368804	-0.02709213	
0.05606703	-0.1144218	0.05214824	-0.01328563	-9.806782e-05	-0.02312279	0.08511389	-0.007705831	
0.07839065	0.08192801	-9.806782e-05	-0.02312279	-0.1168582	0.03828547	0.1090485	-0.07006973	
0.00368804	-0.02709213	0.08511389	-0.007705831	0.1090485	-0.07006973	-0.005207543	-0.001894362	

1.504e+10	0.0165422	0.0604681	-0.01976094	-0.1252609	0.09759082	0.08051921	-0.01273564	-0.0242784	
-0.01976094	-0.1252609	0.04601528	-0.01357184	-0.01357479	-0.01855439	0.08126697	-0.01177779	
0.09759082	0.08051921	-0.01357479	-0.01855439	-0.1083265	0.05781664	0.04897752	-0.1193839	
-0.01273564	-0.0242784	0.08126697	-0.01177779	0.04897752	-0.1193839	-0.01333377	-0.004745319	

1.506e+10	0.02899807	0.06600935	-0.08771222	-0.09063853	0.1145863	0.07542098	-0.02457869	-0.012292	
-0.08771222	-0.09063853	0.04288897	-0.00779734	-0.02174684	-0.006948666	0.0755659	-0.01044235	
0.1145863	0.07542098	-0.02174684	-0.006948666	-0.09651894	0.07595292	-0.02817582	-0.1253319	
-0.02457869	-0.012292	0.0755659	-0.01044235	-0.02817582	-0.1253319	-0.01990511	0.001179095	

1.508e+10	0.04361807	0.07094732	-0.1230828	-0.02367974	0.1300401	0.06852467	-0.02701095	0.004461947	
-0.1230828	-0.02367974	0.04705374	-0.00165968	-0.02140451	0.007136934	0.07396887	-0.004538903	
0.1300401	0.06852467	-0.02140451	0.007136934	-0.08089222	0.09227238	-0.09446429	-0.08613689	
-0.02701095	0.004461947	0.07396887	-0.004538903	-0.09446429	-0.08613689	-0.01792412	0.01039443	

1.51e+10	0.06127857	0.07259302	-0.1136565	0.05079339	0.1453966	0.05936781	-0.01910637	0.01919327	
-0.1136565	0.05079339	0.05531015	-0.002177493	-0.01290159	0.01802075	0.07873989	-0.0001308664	
0.1453966	0.05936781	-0.01290159	0.01802075	-0.0615538	0.1052523	-0.1261262	-0.01649287	
-0.01910637	0.01919327	0.07873989	-0.0001308664	-0.1261262	-0.01649287	-0.008532623	0.01372959	

1.512e+10	0.07954782	0.06867352	-0.06381516	0.1060385	0.1600244	0.04605556	-0.004452327	0.02636571	
-0.06381516	0.1060385	0.05951996	-0.00982241	-2.122781e-05	0.02171899	0.0853477	-0.00227441	
0.1600244	0.04605556	-2.122781e-05	0.02171899	-0.03971789	0.1136708	-0.1124152	0.0582705	
-0.004452327	0.02636571	0.0853477	-0.00227441	-0.1124152	0.0582705	-0.0004453419	0.007518121	

1.514e+10	0.09507737	0.06017512	0.008166112	0.1229792	0.1711395	0.02833902	0.01137263	0.02397878	
0.008166112	0.1229792	0.05518954	-0.0173017	0.01228943	0.01747053	0.08693137	-0.009398946	
0.1711395	0.02833902	0.01228943	0.01747053	-0.01699078	0.1173564	-0.05879022	0.1116472	
0.01137263	0.02397878	0.08693137	-0.009398946	-0.05879022	0.1116472	-0.001375271	-0.002429793	

1.516e+10	0.1072459	0.05012129	0.07680426	0.09593257	0.1768581	0.008659398	0.02306792	0.01309376	
0.07680426	0.09593257	0.04672646	-0.01700335	0.01987576	0.007136125	0.08145886	-0.01449243	
0.1768581	0.008659398	0.01987576	0.007136125	0.005723413	0.11694	0.01550198	0.1249017	
0.02306792	0.01309376	0.08145886	-0.01449243	0.01550198	0.1249017	-0.01022982	-0.00650708	

1.518e+10	0.1181654	0.0398061	0.117531	0.03453555	0.1780011	-0.01032052	0.02640529	-0.002710091	
0.117531	0.03453555	0.04325256	-0.009117108	0.02014285	-0.005615648	0.07432161	-0.01214879	
0.1780011	-0.01032052	0.02014285	-0.005615648	0.02835126	0.1127295	0.08398689	0.09334895	
0.02640529	-0.002710091	0.07432161	-0.01214879	0.08398689	0.09334895	-0.01807503	-0.0006848947	

1.52e+10	0.1291813	0.0275196	0.1156678	-0.03882539	0.1766801	-0.02809529	0.01977564	-0.01750463	
0.1156678	-0.03882539	0.04906344	-0.001945461	0.01298505	-0.01602433	0.0731321	-0.004700403	
0.1766801	-0.02809529	0.01298505	-0.01602433	0.05057183	0.1041624	0.1219664	0.02844755	
0.01977564	-0.01750463	0.0731321	-0.004700403	0.1219664	0.02844755	-0.01678898	0.009417682	

1.522e+10	0.1386081	0.01120133	0.07246432	-0.09756261	0.1734613	-0.04608965	0.005887123	-0.02540685	
0.07246432	-0.09756261	0.05871078	-0.00341475	0.001365891	-0.02020188	0.07931389	-0.000133105	
0.1734613	-0.04608965	0.001365891	-0.02020188	0.07118556	0.09068848	0.1160212	-0.04625023	
0.005887123	-0.02540685	0.07931389	-0.000133105	0.1160212	-0.04625023	-0.007143116	0.01378636	

1.524e+10	0.1433296	-0.008305493	0.003868936	-0.1211582	0.1667113	-0.06490418	-0.009582612	-0.02387361	
0.003868936	-0.1211582	0.06260473	-0.01247217	-0.01017652	-0.01708483	0.08647456	-0.00344113	
0.1667113	-0.06490418	-0.01017652	-0.01708483	0.08855167	0.072776	0.06868461	-0.1040195	
-0.009582612	-0.02387361	0.08647456	-0.00344113	0.06868461	-0.1040195	0.001838617	0.008013684	

1.526e+10	0.1423731	-0.02779058	-0.06594069	-0.1016563	0.154853	-0.08269424	-0.0212886	-0.01413876	
-0.06594069	-0.1016563	0.05709529	-0.02017814	-0.01784266	-0.008293644	0.08721237	-0.01136685	
0.154853	-0.08269424	-0.01784266	-0.008293644	0.1016259	0.05172065	-0.003036265	-0.124503	
-0.0212886	-0.01413876	0.08721237	-0.01136685	-0.003036265	-0.124503	0.001835482	-0.002394556	

1.528e+10	0.1377754	-0.04494148	-0.1123362	-0.04568354	0.1387209	-0.09661476	-0.02562261	0.000474085	
-0.1123362	-0.04568354	0.04817888	-0.01897817	-0.01938742	0.003219997	0.08080481	-0.01590893	
0.1387209	-0.09661476	-0.01938742	0.003219997	0.1102464	0.0286965	-0.07374092	-0.1003494	
-0.02562261	0.000474085	0.08080481	-0.01590893	-0.07374092	-0.1003494	-0.006791817	-0.007451037	

1.53e+10	0.1318415	-0.0605957	-0.1182672	0.02699991	0.1211654	-0.1058819	-0.02081187	0.01520411	
-0.1182672	0.02699991	0.045344	-0.01058025	-0.0141435	0.01372037	0.0739605	-0.01262915	
0.1211654	-0.1058819	-0.0141435	0.01372037	0.1145652	0.00440976	-0.1179187	-0.04000506	
-0.02081187	0.01520411	0.0739605	-0.01262915	-0.1179187	-0.04000506	-0.01526896	-0.002429294	

1.532e+10	0.1239528	-0.07680608	-0.0813162	0.08989975	0.1037629	-0.1121519	-0.008166527	0.02446392	
-0.0813162	0.08989975	0.05162597	-0.003964969	-0.003737584	0.01935442	0.07369176	-0.005242475	
0.1037629	-0.1121519	-0.003737584	0.01935442	0.1142356	-0.02094556	-0.1194555	0.03479548	
-0.008166527	0.02446392	0.07369176	-0.005242475	-0.1194555	0.03479548	-0.01505437	0.007611109	

1.534e+10	0.1115804	-0.09310061	-0.015112	0.1201635	0.08563326	-0.1168019	0.00741237	0.0245525	
-0.015112	0.1201635	0.06075878	-0.005904459	0.007966168	0.01797922	0.08001204	-0.001547067	
0.08563326	-0.1168019	0.007966168	0.01797922	0.1083333	-0.04649665	-0.07785115	0.09686192	
0.00741237	0.0245525	0.08001204	-0.001547067	-0.07785115	0.09686192	-0.006155347	0.01291075	

1.536e+10	0.09377621	-0.1062972	0.05642142	0.1071759	0.06529461	-0.1188786	0.01998546	0.01582155	
0.05642142	0.1071759	0.06407255	-0.01437358	0.01675609	0.01029109	0.08633164	-0.005198301	
0.06529461	-0.1188786	0.01675609	0.01029109	0.09647839	-0.07047972	-0.008315055	0.1238813	
0.01998546	0.01582155	0.08633164	-0.005198301	-0.008315055	0.1238813	0.003209155	0.008455273	

1.538e+10	0.07293168	-0.1136639	0.1078614	0.05553797	0.04337061	-0.1160185	0.0254575	0.001696955	
0.1078614	0.05553797	0.05911515	-0.02123965	0.01978673	-0.00100031	0.08648499	-0.01238303	
0.04337061	-0.1160185	0.01978673	-0.00100031	0.079382	-0.09113527	0.06420591	0.1062466	
0.0254575	0.001696955	0.08648499	-0.01238303	0.06420591	0.1062466	0.004641929	-0.001515961	

1.54e+10	0.05247569	-0.1155748	0.1204272	-0.01662969	0.02281664	-0.1073623	0.02211639	-0.01323691	
0.1204272	-0.01662969	0.05140818	-0.02043286	0.01593005	-0.01228197	0.08069886	-0.01609886	
0.02281664	-0.1073623	0.01593005	-0.01228197	0.05847569	-0.1074259	0.1135651	0.0501616	
0.02211639	-0.01323691	0.08069886	-0.01609886	0.1135651	0.0501616	-0.002713489	-0.007713962	

1.542e+10	0.03322614	-0.1145068	0.08890422	-0.08309329	0.005880947	-0.09492901	0.01056848	-0.0238919	
0.08890422	-0.08309329	0.04867548	-0.01351537	0.006023113	-0.01957114	0.07490512	-0.01318097	
0.005880947	-0.09492901	0.006023113	-0.01957114	0.03478428	-0.119115	0.1217219	-0.02422966	
0.01056848	-0.0238919	0.07490512	-0.01318097	0.1217219	-0.02422966	-0.01151465	-0.004431594	

1.544e+10	0.01335066	-0.1112518	0.02463815	-0.1190778	-0.008004696	-0.08109891	-0.005395429	-0.02580396	
0.02463815	-0.1190778	0.05337739	-0.007686569	-0.006611359	-0.01969072	0.07459207	-0.007023444	
-0.008004696	-0.08109891	-0.006611359	-0.01969072	0.008812442	-0.1259922	0.08548428	-0.08971402	
-0.005395429	-0.02580396	0.07459207	-0.007023444	0.08548428	-0.08971402	-0.01307693	0.004954406	

1.546e+10	-0.007930157	-0.1034866	-0.04843502	-0.1112867	-0.02059858	-0.06581065	-0.01948985	-0.01783414	
-0.04843502	-0.1112867	0.06097952	-0.008345891	-0.0170357	-0.01221436	0.07962231	-0.003716593	
-0.02059858	-0.06581065	-0.0170357	-0.01221436	-0.0189802	-0.1270905	0.01826219	-0.1222535	
-0.01948985	-0.01783414	0.07962231	-0.003716593	0.01826219	-0.1222535	-0.005720038	0.01147764	

1.548e+10	-0.02799055	-0.08888284	-0.1034921	-0.06292415	-0.03157877	-0.0472967	-0.0261964	-0.003207232	
-0.1034921	-0.06292415	0.06495209	-0.01466022	-0.02109698	2.945696e-05	0.08509882	-0.006194765	
-0.03157877	-0.0472967	-0.02109698	2.945696e-05	-0.04672965	-0.1214181	-0.0551183	-0.1102609	
-0.0261964	-0.003207232	0.08509882	-0.006194765	-0.0551183	-0.1102609	0.003967332	0.009079137	

1.55e+10	-0.04296038	-0.06853785	-0.1206414	0.008203353	-0.03849594	-0.02512392	-0.0232811	0.01251986	
-0.1206414	0.008203353	0.06247506	-0.02118432	-0.01725595	0.01242708	0.08611643	-0.0120831	
-0.03849594	-0.02512392	-0.01725595	0.01242708	-0.07220242	-0.1092102	-0.108169	-0.05851115	
-0.0232811	0.01251986	0.08611643	-0.0120831	-0.108169	-0.05851115	0.007434844	-6.173204e-05	

1.552e+10	-0.05148874	-0.04623065	-0.09361342	0.07615898	-0.03929705	-0.001681389	-0.01183558	0.02385308	
-0.09361342	0.07615898	0.05620099	-0.0227101	-0.006777756	0.02039846	0.08193784	-0.01618995	
-0.03929705	-0.001681389	-0.006777756	0.02039846	-0.09392269	-0.0918796	-0.1218919	0.01423274	
-0.01183558	0.02385308	0.08193784	-0.01618995	-0.1218919	0.01423274	0.001880331	-0.007666888	

1.554e+10	-0.05552742	-0.02421318	-0.0322877	0.1158757	-0.03477261	0.02008407	0.004385953	0.02652787	
-0.0322877	0.1158757	0.05184117	-0.01823582	0.006673261	0.02066945	0.07637015	-0.01499845	
-0.03477261	0.02008407	0.006673261	0.02066945	-0.1114929	-0.07070094	-0.09126728	0.08154506	
0.004385953	0.02652787	0.07637015	-0.01499845	-0.09126728	0.08154506	-0.007270958	-0.006768425	

1.556e+10	-0.05668305	-0.001504098	0.04040336	0.1126006	-0.02728609	0.03942081	0.01929532	0.0188934	
0.04040336	0.1126006	0.05355836	-0.01187949	0.01775792	0.01266052	0.07445364	-0.009739749	
-0.02728609	0.03942081	0.01775792	0.01266052	-0.1246252	-0.04624869	-0.02765178	0.1187326	
0.01929532	0.0188934	0.07445364	-0.009739749	-0.02765178	0.1187326	-0.01108598	0.001811426	

1.558e+10	-0.05346251	0.02314637	0.09723194	0.06825972	-0.01767016	0.05768845	0.02659737	0.003803839	
0.09723194	0.06825972	0.06031259	-0.00955646	0.0217254	-0.0004469644	0.07797989	-0.00525871	
-0.01767016	0.05768845	0.0217254	-0.0004469644	-0.1325081	-0.01883509	0.04536284	0.11252	
0.02659737	0.003803839	0.07797989	-0.00525871	0.04536284	0.11252	-0.00555454	0.009881902	

1.56e+10	-0.04323413	0.04806696	0.11797	-6.658898e-05	-0.004564445	0.0753619	0.02349049	-0.01240977	
0.11797	-6.658898e-05	0.06669626	-0.01379028	0.01702414	-0.01316392	0.08399378	-0.005788423	
-0.004564445	0.0753619	0.01702414	-0.01316392	-0.1338761	0.0102777	0.1011759	0.06581742	
0.02349049	-0.01240977	0.08399378	-0.005788423	0.1011759	0.06581742	0.004578578	0.00981566	

1.562e+10	-0.02597724	0.06936853	0.09593883	-0.06733443	0.01317154	0.09059753	0.01172246	-0.02348492	
0.09593883	-0.06733443	0.06720791	-0.02162728	0.005840179	-0.02043171	0.08709216	-0.01140699	
0.01317154	0.09059753	0.005840179	-0.02043171	-0.1282473	0.0390134	0.1200623	-0.004033224	
0.01172246	-0.02348492	0.08709216	-0.01140699	0.1200623	-0.004033224	0.01032167	0.001464158	

1.564e+10	-0.004605878	0.08463477	0.0396878	-0.1095527	0.03439256	0.1008256	-0.004028117	-0.02570834	
0.0396878	-0.1095527	0.06102014	-0.02639945	-0.007249824	-0.01967265	0.08398038	-0.01740984	
0.03439256	0.1008256	-0.007249824	-0.01967265	-0.1164319	0.06523171	0.09571688	-0.07177749	
-0.004028117	-0.02570834	0.08398038	-0.01740984	0.09571688	-0.07177749	0.006571894	-0.007686546	

1.566e+10	0.01785104	0.09452824	-0.03019897	-0.1118447	0.05625053	0.1053877	-0.01812019	-0.01847791	
-0.03019897	-0.1118447	0.05378872	-0.02340698	-0.01722481	-0.01144414	0.07706462	-0.01798313	
0.05625053	0.1053877	-0.01722481	-0.01144414	-0.09974083	0.0880572	0.03721222	-0.1132216	
-0.01812019	-0.01847791	0.07706462	-0.01798313	0.03721222	-0.1132216	-0.003014348	-0.009109211	

1.568e+10	0.04070459	0.1009096	-0.08834182	-0.07381285	0.076707	0.1058848	-0.02534425	-0.004368601	
-0.08834182	-0.07381285	0.05301483	-0.01516071	-0.02034222	0.0009415242	0.07295291	-0.01215146	
0.076707	0.1058848	-0.02034222	0.0009415242	-0.07899592	0.1071475	-0.03424857	-0.1136518	
-0.02534425	-0.004368601	0.07295291	-0.01215146	-0.03424857	-0.1136518	-0.009011004	-0.001304928	

1.57e+10	0.06526132	0.1040113	-0.1138888	-0.009803764	0.09618039	0.1041677	-0.02281123	0.01118992	
-0.1138888	-0.009803764	0.06041785	-0.009846816	-0.01550858	0.01255412	0.07613984	-0.005412893	
0.09618039	0.1041677	-0.01550858	0.01255412	-0.05464217	0.1219257	-0.09276258	-0.07320691	
-0.02281123	0.01118992	0.07613984	-0.005412893	-0.09276258	-0.07320691	-0.005132369	0.00828089	

1.572e+10	0.09171353	0.1017724	-0.09834214	0.05668636	0.1158935	0.09993431	-0.01176966	0.02197794	
-0.09834214	0.05668636	0.06959724	-0.01345019	-0.004955392	0.01875541	0.08405608	-0.004746706	
0.1158935	0.09993431	-0.004955392	0.01875541	-0.02737662	0.1313881	-0.117413	-0.006975616	
-0.01176966	0.02197794	0.08405608	-0.004746706	-0.117413	-0.006975616	0.00544279	0.01026534	

1.574e+10	0.1173155	0.09258708	-0.04816463	0.1020774	0.1353863	0.09166684	0.002994459	0.02422362	
-0.04816463	0.1020774	0.07179091	-0.02338309	0.006721464	0.01752098	0.08902235	-0.01160054	
0.1353863	0.09166684	0.006721464	0.01752098	0.001388979	0.1346528	-0.09996363	0.06106597	
0.002994459	0.02422362	0.08902235	-0.01160054	-0.09996363	0.06106597	0.01306827	0.002540924	

1.576e+10	0.1389725	0.07782517	0.01858505	0.1108934	0.1525156	0.07908362	0.01604254	0.01788535	
0.01858505	0.1108934	0.06461264	-0.03040715	0.01511113	0.01007711	0.08557204	-0.01976058	
0.1525156	0.07908362	0.01511113	0.01007711	0.02989705	0.1317094	-0.04704081	0.1069084	
0.01604254	0.01788535	0.08557204	-0.01976058	-0.04704081	0.1069084	0.01080394	-0.00777887	

1.578e+10	0.1561101	0.06043515	0.0784071	0.080145	0.1656945	0.06398601	0.02319267	0.005435094	
0.0784071	0.080145	0.05511183	-0.02751138	0.01764577	-0.0004294661	0.07653497	-0.02094047	
0.1656945	0.06398601	0.01764577	-0.0004294661	0.05681346	0.1233115	0.0224405	0.1143591	
0.02319267	0.005435094	0.07653497	-0.02094047	0.0224405	0.1143591	0.001040995	-0.01097373	

1.58e+10	0.1703452	0.0418471	0.1097633	0.02076381	0.1754951	0.04852401	0.02189707	-0.008911518	
0.1097633	0.02076381	0.05335704	-0.01745317	0.01379633	-0.01024457	0.07107126	-0.01341364	
0.1754951	0.04852401	0.01379633	-0.01024457	0.08157392	0.1101041	0.08363185	0.08075952	
0.02189707	-0.008911518	0.07107126	-0.01341364	0.08363185	0.08075952	-0.006478514	-0.003935901	

1.582e+10	0.1827179	0.02072892	0.1014064	-0.04548452	0.1836746	0.03296885	0.01243133	-0.01968418	
0.1014064	-0.04548452	0.061908	-0.01074178	0.005170036	-0.01581961	0.07526068	-0.004837608	
0.1836746	0.03296885	0.005170036	-0.01581961	0.1035974	0.09222406	0.1144324	0.01832255	
0.01243133	-0.01968418	0.07526068	-0.004837608	0.1144324	0.01832255	-0.003915254	0.006447063	

1.584e+10	0.1914742	-0.004189015	0.05713974	-0.09467305	0.1906758	0.01592872	-0.001176896	-0.02266847	
0.05713974	-0.09467305	0.07249931	-0.01474225	-0.004635383	-0.01528561	0.08509876	-0.004410988	
0.1906758	0.01592872	-0.004635383	-0.01528561	0.1218038	0.07000916	0.1040453	-0.05012506	
-0.001176896	-0.02266847	0.08509876	-0.004410988	0.1040453	-0.05012506	0.006579629	0.009842276	

1.586e+10	0.1939065	-0.03163457	-0.006768935	-0.1100721	0.1949214	-0.003336688	-0.01343654	-0.01752983	
-0.006768935	-0.1100721	0.07482366	-0.02576677	-0.0118684	-0.009593705	0.09053549	-0.01294315	
0.1949214	-0.003336688	-0.0118684	-0.009593705	0.1350177	0.04423754	0.05676012	-0.1002578	
-0.01343654	-0.01752983	0.09053549	-0.01294315	0.05676012	-0.1002578	0.01516298	0.002979806	

1.588e+10	0.1894229	-0.05832839	-0.06819808	-0.0866643	0.1948706	-0.02347979	-0.02055425	-0.006917271	
-0.06819808	-0.0866643	0.06703988	-0.03318123	-0.01460097	-0.00144193	0.08591375	-0.02208927	
0.1948706	-0.02347979	-0.01460097	-0.00144193	0.1424603	0.01630158	-0.01054184	-0.1146162	
-0.02055425	-0.006917271	0.08591375	-0.02208927	-0.01054184	-0.1146162	0.01419568	-0.007546703	

1.59e+10	0.1800731	-0.08196535	-0.1056087	-0.03230796	0.1908128	-0.04236857	-0.02078028	0.005704337	
-0.1056087	-0.03230796	0.05728474	-0.03006496	-0.01271561	0.006548971	0.07566656	-0.02264349	
0.1908128	-0.04236857	-0.01271561	0.006548971	0.1439991	-0.01225951	-0.07413863	-0.08804245	
-0.02078028	0.005704337	0.07566656	-0.02264349	-0.07413863	-0.08804245	0.005118705	-0.01189979	

1.592e+10	0.1679821	-0.1030848	-0.1051761	0.0339507	0.1845597	-0.0592592	-0.01389748	0.01641637	
-0.1051761	0.0339507	0.0556157	-0.02002508	-0.006986924	0.01223449	0.07026738	-0.01397195	
0.1845597	-0.0592592	-0.006986924	0.01223449	0.140012	-0.04034887	-0.111158	-0.02982629	
-0.01389748	0.01641637	0.07026738	-0.01397195	-0.111158	-0.02982629	-0.002931096	-0.006164543	

1.594e+10	0.1528632	-0.1231206	-0.06677797	0.08797673	0.1771578	-0.07533407	-0.002059058	0.02126354	
-0.06677797	0.08797673	0.06387007	-0.01357134	0.000851486	0.01388191	0.07539694	-0.005096554	
0.1771578	-0.07533407	0.000851486	0.01388191	0.1306961	-0.06728694	-0.1081143	0.03913684	
-0.002059058	0.02126354	0.07539694	-0.005096554	-0.1081143	0.03913684	-0.001864948	0.003847542	

1.596e+10	0.1328992	-0.1413699	-0.004589097	0.1102746	0.1675261	-0.09171789	0.01019387	0.01844333	
-0.004589097	0.1102746	0.07389529	-0.01725444	0.008165441	0.01101565	0.08572209	-0.00530366	
0.1675261	-0.09171789	0.008165441	0.01101565	0.1160007	-0.09220171	-0.06622447	0.09380964	
0.01019387	0.01844333	0.08572209	-0.00530366	-0.06622447	0.09380964	0.007473611	0.008369945	

1.598e+10	0.1076311	-0.1549821	0.05919095	0.0933096	0.1539521	-0.1074304	0.01850028	0.009528679	
0.05919095	0.0933096	0.07626473	-0.02731574	0.0126776	0.004867743	0.09073052	-0.01434157	
0.1539521	-0.1074304	0.0126776	0.004867743	0.09615284	-0.1138097	-0.000817335	0.1147771	
0.01850028	0.009528679	0.09073052	-0.01434157	-0.000817335	0.1147771	0.01639786	0.003188609	

1.6e+10	0.07970896	-0.1614561	0.1022307	0.04295911	0.1365128	-0.1200646	0.02067002	-0.0022303	
0.1022307	0.04295911	0.06963022	-0.03421402	0.01340036	-0.002619574	0.08564967	-0.02317261	
0.1365128	-0.1200646	0.01340036	-0.002619574	0.07187562	-0.1307575	0.0649438	0.09477349	
0.02067002	-0.0022303	0.08564967	-0.02317261	0.0649438	0.09477349	0.01707185	-0.006682136	

1.602e+10	0.05229905	-0.1612088	0.1088695	-0.02351455	0.1171332	-0.1283717	0.01616249	-0.01348616	
0.1088695	-0.02351455	0.06114021	-0.0320966	0.01016237	-0.009622177	0.07573986	-0.02328037	
0.1171332	-0.1283717	0.01016237	-0.009622177	0.04443289	-0.1420635	0.1077	0.04057617	
0.01616249	-0.01348616	0.07573986	-0.02328037	0.1077	0.04057617	0.009553827	-0.01212158	

1.604e+10	0.02654963	-0.1564229	0.07576179	-0.0821339	0.09769557	-0.1331668	0.005838793	-0.02060366	
0.07576179	-0.0821339	0.05912873	-0.0239472	0.003346709	-0.01409821	0.07089069	-0.01498424	
0.09769557	-0.1331668	0.003346709	-0.01409821	0.01547874	-0.1473693	0.1116716	-0.02857684	
0.005838793	-0.02060366	0.07089069	-0.01498424	0.1116716	-0.02857684	0.001460483	-0.00838374	

1.606e+10	0.001420292	-0.1479532	0.01468202	-0.1109225	0.07793449	-0.1357954	-0.007058645	-0.02051142	
0.01468202	-0.1109225	0.06523303	-0.01810543	-0.005279371	-0.0140381	0.07567068	-0.006871125	
0.07793449	-0.1357954	-0.005279371	-0.0140381	-0.01406037	-0.1468283	0.07508548	-0.08752641	
-0.007058645	-0.02051142	0.07567068	-0.006871125	0.07508548	-0.08752641	0.0007024402	0.0005740199	

1.608e+10	-0.023561	-0.1340451	-0.05184404	-0.09921068	0.05655649	-0.1358148	-0.01762869	-0.01289752	
-0.05184404	-0.09921068	0.07356165	-0.01995042	-0.01265389	-0.008876817	0.08497627	-0.006937647	
0.05655649	-0.1358148	-0.01265389	-0.008876817	-0.04341881	-0.1402635	0.01129839	-0.114735	
-0.01762869	-0.01289752	0.08497627	-0.006937647	0.01129839	-0.114735	0.008081601	0.006154079	

1.61e+10	-0.04576971	-0.1130567	-0.09952478	-0.05145659	0.03377498	-0.1310889	-0.02197178	-0.0006367547	
-0.09952478	-0.05145659	0.07695448	-0.02746281	-0.0159181	-0.0001694786	0.08970022	-0.01476325	
0.03377498	-0.1310889	-0.0159181	-0.0001694786	-0.07142311	-0.1272224	-0.0565486	-0.1004806	
-0.02197178	-0.0006367547	0.08970022	-0.01476325	-0.0565486	-0.1004806	0.01698762	0.003283293	

1.612e+10	-0.06155662	-0.08617188	-0.1112194	0.01517584	0.01222555	-0.120421	-0.01872321	0.01203393	
-0.1112194	0.01517584	0.07326564	-0.03406319	-0.01364403	0.009185702	0.08578016	-0.02271215	
0.01222555	-0.120421	-0.01364403	0.009185702	-0.0961678	-0.1077848	-0.1040366	-0.04993534	
-0.01872321	0.01203393	0.08578016	-0.02271215	-0.1040366	-0.04993534	0.01968938	-0.005333622	

1.614e+10	-0.06946442	-0.05713998	-0.08224927	0.07672553	-0.005519094	-0.1052754	-0.008721948	0.02097377	
-0.08224927	0.07672553	0.06648558	-0.03464561	-0.006130792	0.0159214	0.07738033	-0.02366788	
-0.005519094	-0.1052754	-0.006130792	0.0159214	-0.115846	-0.08299879	-0.1139754	0.01888894	
-0.008721948	0.02097377	0.07738033	-0.02366788	-0.1139754	0.01888894	0.01434674	-0.01191767	

1.616e+10	-0.07110526	-0.02881504	-0.02274474	0.1102176	-0.0192333	-0.08806418	0.005114044	0.02263753	
-0.02274474	0.1102176	0.06275189	-0.02943388	0.004453067	0.01713481	0.0723413	-0.01732088	
-0.0192333	-0.08806418	0.004453067	0.01713481	-0.1295025	-0.05451763	-0.08233854	0.08114016	
0.005114044	0.02263753	0.0723413	-0.01732088	-0.08233854	0.08114016	0.006392776	-0.01071718	

1.618e+10	-0.06834175	-0.0008469233	0.04514361	0.1028595	-0.03018817	-0.06962734	0.01764961	0.01562165	
0.04514361	0.1028595	0.06533948	-0.02332804	0.01412534	0.01154952	0.07504493	-0.009914366	
-0.03018817	-0.06962734	0.01412534	0.01154952	-0.1368544	-0.02398338	-0.02059215	0.1136495	
0.01764961	0.01562165	0.07504493	-0.009914366	-0.02059215	0.1136495	0.003499895	-0.003173733	

1.62e+10	-0.06025615	0.02766378	0.09591099	0.0576428	-0.03860459	-0.04893455	0.02361536	0.002339853	
0.09591099	0.0576428	0.07230379	-0.02179401	0.01860325	0.0009203309	0.08272906	-0.008256	
-0.03860459	-0.04893455	0.01860325	0.0009203309	-0.1377867	0.00784822	0.04846344	0.1045871	
0.02361536	0.002339853	0.08272906	-0.008256	0.04846344	0.1045871	0.008562204	0.003590606	

1.622e+10	-0.04460587	0.05512299	0.1110928	-0.008131052	-0.04270415	-0.02560855	0.02057481	-0.01186738	
0.1110928	-0.008131052	0.07815804	-0.02657977	0.01570785	-0.01043311	0.08839619	-0.01376171	
-0.04270415	-0.02560855	0.01570785	-0.01043311	-0.1316063	0.03985963	0.09954812	0.05755756	
0.02057481	-0.01186738	0.08839619	-0.01376171	0.09954812	0.05755756	0.01733257	0.003316399	

1.624e+10	-0.02139692	0.07762812	0.08581794	-0.07030622	-0.04066348	-0.001675867	0.009921809	-0.02160135	
0.08581794	-0.07030622	0.0780524	-0.03419926	0.006542791	-0.01783367	0.08708767	-0.02155686	
-0.04066348	-0.001675867	0.006542791	-0.01783367	-0.1179482	0.069949	0.1142984	-0.0100575	
0.009921809	-0.02160135	0.08708767	-0.02155686	0.1142984	-0.0100575	0.02228464	-0.003915429	

1.626e+10	0.005984589	0.09236933	0.02959422	-0.1065256	-0.0330564	0.01990943	-0.004409698	-0.02347237	
0.02959422	-0.1065256	0.07193628	-0.03838136	-0.005265776	-0.01836394	0.07997798	-0.02484454	
-0.0330564	0.01990943	-0.005265776	-0.01836394	-0.09755345	0.09593246	0.08760524	-0.07375739	
-0.004409698	-0.02347237	0.07997798	-0.02484454	0.08760524	-0.07375739	0.01922142	-0.01172636	

1.628e+10	0.03389987	0.1001586	-0.03707001	-0.1037036	-0.0222743	0.03804164	-0.01735839	-0.01662285	
-0.03707001	-0.1037036	0.06533072	-0.03530503	-0.01518551	-0.01176212	0.07338888	-0.02072823	
-0.0222743	0.03804164	-0.01518551	-0.01176212	-0.07216583	0.1163462	0.02913455	-0.1104728	
-0.01735839	-0.01662285	0.07338888	-0.02072823	0.02913455	-0.1104728	0.01132092	-0.01306831	

1.63e+10	0.06143605	0.1032319	-0.08955159	-0.06303136	-0.009830392	0.05366709	-0.02384882	-0.003292329	
-0.08955159	-0.06303136	0.06491401	-0.02766675	-0.01922497	-0.0004396328	0.07341287	-0.01289051	
-0.009830392	0.05366709	-0.01922497	-0.0004396328	-0.04359787	0.1306792	-0.03956148	-0.1067767	
-0.02384882	-0.003292329	0.07341287	-0.01289051	-0.03956148	-0.1067767	0.006362189	-0.006799972	

1.632e+10	0.0898814	0.1018787	-0.10871	-3.794695e-05	0.004898177	0.067687	-0.02109117	0.01125218	
-0.10871	-3.794695e-05	0.0719458	-0.02298436	-0.01558863	0.0110088	0.08032116	-0.008672484	
0.004898177	0.067687	-0.01558863	0.0110088	-0.01276539	0.1389247	-0.09330251	-0.06436509	
-0.02109117	0.01125218	0.08032116	-0.008672484	-0.09330251	-0.06436509	0.009432023	0.001048304	

1.634e+10	0.1188738	0.09400222	-0.08846463	0.0617597	0.02283423	0.07901788	-0.01044848	0.02111306	
-0.08846463	0.0617597	0.0803755	-0.02651475	-0.005947438	0.017806	0.08785304	-0.01241559	
0.02283423	0.07901788	-0.005947438	0.017806	0.01944551	0.1404604	-0.1127971	0.000807173	
-0.01044848	0.02111306	0.08785304	-0.01241559	-0.1127971	0.000807173	0.01808507	0.002924478	

1.636e+10	0.1453213	0.07844061	-0.03712105	0.100621	0.043141	0.085672	0.003512982	0.02291731	
-0.03712105	0.100621	0.08234548	-0.0356921	0.005458349	0.01752043	0.08884837	-0.02105035	
0.043141	0.085672	0.005458349	0.01752043	0.05128717	0.1346321	-0.09161826	0.06494139	
0.003512982	0.02291731	0.08884837	-0.02105035	-0.09161826	0.06494139	0.02469014	-0.003155741	

1.638e+10	0.1659142	0.05705434	0.02688488	0.1034124	0.06337346	0.08704386	0.01576176	0.01666352	
0.02688488	0.1034124	0.0758955	-0.04212846	0.01423612	0.01090364	0.08201076	-0.02660735	
0.06337346	0.08704386	0.01423612	0.01090364	0.08065757	0.1216618	-0.0378864	0.1052912	
0.01576176	0.01666352	0.08201076	-0.02660735	-0.0378864	0.1052912	0.02342429	-0.01170956	

1.64e+10	0.1798951	0.03340329	0.0809503	0.06929706	0.08167203	0.08458568	0.02231654	0.004694697	
0.0809503	0.06929706	0.06747622	-0.03968469	0.01757288	0.0007758222	0.07368209	-0.02363829	
0.08167203	0.08458568	0.01757288	0.0007758222	0.1058394	0.1026622	0.02912057	0.1076716	
0.02231654	0.004694697	0.07368209	-0.02363829	0.02912057	0.1076716	0.01584323	-0.01477715	

1.642e+10	0.1890369	0.009390969	0.105702	0.01047724	0.09809197	0.08005034	0.02085604	-0.008849856	
0.105702	0.01047724	0.06591685	-0.03103638	0.01460685	-0.009228716	0.07211727	-0.01491771	
0.09809197	0.08005034	0.01460685	-0.009228716	0.1255597	0.07923451	0.0851608	0.07142801	
0.02085604	-0.008849856	0.07211727	-0.01491771	0.0851608	0.07142801	0.009780058	-0.009657924	

1.644e+10	0.1944945	-0.01548536	0.09239846	-0.05159955	0.1136727	0.07376634	0.01196899	-0.01893892	
0.09239846	-0.05159955	0.07316622	-0.02530319	0.006646584	-0.01556312	0.07904873	-0.009188756	
0.1136727	0.07376634	0.006646584	-0.01556312	0.1393253	0.05287184	0.1103462	0.01001763	
0.01196899	-0.01893892	0.07904873	-0.009188756	0.1103462	0.01001763	0.01142987	-0.00170951	

1.646e+10	0.1951798	-0.04196408	0.04643558	-0.09478681	0.1285027	0.06482977	-0.0007366592	-0.02212474	
0.04643558	-0.09478681	0.08221548	-0.02851788	-0.00314221	-0.01627138	0.08762034	-0.01231829	
0.1285027	0.06482977	-0.00314221	-0.01627138	0.1469364	0.02507117	0.0962045	-0.05460291	
-0.0007366592	-0.02212474	0.08762034	-0.01231829	0.0962045	-0.05460291	0.01925946	0.001295824	

1.648e+10	0.1892328	-0.06853121	-0.01576921	-0.1043553	0.1413937	0.05274123	-0.01283042	-0.01790813	
-0.01576921	-0.1043553	0.08458777	-0.03766621	-0.01141997	-0.01166576	0.0894573	-0.02131668	
0.1413937	0.05274123	-0.01141997	-0.01166576	0.1486929	-0.002839473	0.04791306	-0.09971628	
-0.01283042	-0.01790813	0.0894573	-0.02131668	0.04791306	-0.09971628	0.02621263	-0.003311658	

1.65e+10	0.1766992	-0.09209748	-0.0726536	-0.07690965	0.1508407	0.03839275	-0.02073993	-0.007861795	
-0.0726536	-0.07690965	0.0786452	-0.04420043	-0.01588531	-0.003521689	0.08283081	-0.02752685	
0.1508407	0.03839275	-0.01588531	-0.003521689	0.1447849	-0.02994925	-0.01767124	-0.1093716	
-0.02073993	-0.007861795	0.08283081	-0.02752685	-0.01767124	-0.1093716	0.02648295	-0.01125662	

1.652e+10	0.1599451	-0.110582	-0.1039566	-0.02156622	0.1567405	0.02361859	-0.02195218	0.005144796	
-0.1039566	-0.02156622	0.07077398	-0.04233219	-0.01537433	0.005797213	0.07433151	-0.02501243	
0.1567405	0.02361859	-0.01537433	0.005797213	0.1354805	-0.05502946	-0.07723936	-0.07970484	
-0.02195218	0.005144796	0.07433151	-0.02501243	-0.07723936	-0.07970484	0.02041782	-0.01532456	

1.654e+10	0.1416147	-0.1245299	-0.0977778	0.04210977	0.1603584	0.009164211	-0.01547849	0.01696895	
-0.0977778	0.04210977	0.06907985	-0.03479492	-0.009783943	0.01357576	0.07245687	-0.01661747	
0.1603584	0.009164211	-0.009783943	0.01357576	0.1216534	-0.07699229	-0.1091337	-0.0210751	
-0.01547849	0.01696895	0.07245687	-0.01661747	-0.1091337	-0.0210751	0.01434109	-0.01208959	

1.656e+10	0.1218152	-0.1356795	-0.0559466	0.09076234	0.1622039	-0.005868656	-0.00311461	0.02310905	
-0.0559466	0.09076234	0.07503175	-0.02975414	-0.0005497183	0.01705614	0.07879933	-0.01106204	
0.1622039	-0.005868656	-0.0005497183	0.01705614	0.1042237	-0.09543985	-0.1015741	0.04532997	
-0.00311461	0.02310905	0.07879933	-0.01106204	-0.1015741	0.04532997	0.01434596	-0.005207895	

1.658e+10	0.09902059	-0.1435385	0.00622669	0.1065983	0.1609656	-0.02191047	0.01068645	0.02105868	
0.00622669	0.1065983	0.08250749	-0.03208375	0.009271001	0.01473978	0.08662406	-0.01377198	
0.1609656	-0.02191047	0.009271001	0.01473978	0.08357293	-0.1101552	-0.05725712	0.09544272	
0.01068645	0.02105868	0.08662406	-0.01377198	-0.05725712	0.09544272	0.02037483	-0.001430644	

1.66e+10	0.07330476	-0.1453961	0.06643846	0.08400203	0.1552627	-0.03738421	0.02105512	0.01154167	
0.06643846	0.08400203	0.08482968	-0.03904241	0.01630994	0.007230978	0.08825917	-0.02161321	
0.1552627	-0.03738421	0.01630994	0.007230978	0.05995823	-0.1202734	0.007767294	0.111189	
0.02105512	0.01154167	0.08825917	-0.02161321	0.007767294	0.111189	0.02694379	-0.004053511	

1.662e+10	0.04789702	-0.1392847	0.1031023	0.03067932	0.1457422	-0.04981346	0.02448134	-0.002453747	
0.1031023	0.03067932	0.08111459	-0.04420124	0.01813664	-0.00324696	0.08277368	-0.02677027	
0.1457422	-0.04981346	0.01813664	-0.00324696	0.03442001	-0.1245619	0.07029578	0.08684524	
0.02448134	-0.002453747	0.08277368	-0.02677027	0.07029578	0.08684524	0.0286903	-0.01040557	

1.664e+10	0.02650729	-0.1265742	0.1023779	-0.03457933	0.1346681	-0.05815892	0.01924941	-0.01650107	
0.1023779	-0.03457933	0.07591846	-0.04390931	0.01363616	-0.0134781	0.07614364	-0.02482728	
0.1346681	-0.05815892	0.01363616	-0.0134781	0.00882406	-0.1224725	0.1077444	0.03072636	
0.01924941	-0.01650107	0.07614364	-0.02482728	0.1077444	0.03072636	0.02499084	-0.01489694	

1.666e+10	0.01021372	-0.110499	0.06369884	-0.08772221	0.1239201	-0.06353869	0.006323907	-0.02534496	
0.06369884	-0.08772221	0.07407281	-0.03985242	0.003542161	-0.01967468	0.07475272	-0.01871973	
0.1239201	-0.06353869	0.003542161	-0.01967468	-0.01491504	-0.1145733	0.1060068	-0.03700471	
0.006323907	-0.02534496	0.07475272	-0.01871973	0.1060068	-0.03700471	0.01992181	-0.01407622	

1.668e+10	-0.002570629	-0.09266735	0.001129134	-0.1085441	0.1131554	-0.06724819	-0.009908193	-0.02491084	
0.001129134	-0.1085441	0.0765222	-0.0364222	-0.008926105	-0.01877296	0.07902846	-0.01492258	
0.1131554	-0.06724819	-0.008926105	-0.01877296	-0.03586107	-0.1019466	0.06539599	-0.0914419	
-0.009908193	-0.02491084	0.07902846	-0.01492258	0.06539599	-0.0914419	0.01826273	-0.009432961	

1.67e+10	-0.01250954	-0.07175777	-0.06194525	-0.08912754	0.1014007	-0.06866116	-0.02312929	-0.01471796	
-0.06194525	-0.08912754	0.08072702	-0.03620737	-0.0189021	-0.01030576	0.08399029	-0.01649651	
0.1014007	-0.06866116	-0.0189021	-0.01030576	-0.05373498	-0.08516479	0.0006792445	-0.1124779	
-0.02312929	-0.01471796	0.08399029	-0.01649651	0.0006792445	-0.1124779	0.0213502	-0.005365177	

1.672e+10	-0.01710943	-0.04688045	-0.1020479	-0.03673951	0.08969278	-0.06611997	-0.02793786	0.001674495	
-0.1020479	-0.03673951	0.08389738	-0.03883358	-0.02201394	0.002929466	0.08527737	-0.0209414	
0.08969278	-0.06611997	-0.02201394	0.002929466	-0.06760109	-0.06430819	-0.06430198	-0.092312	
-0.02793786	0.001674495	0.08527737	-0.0209414	-0.06430198	-0.092312	0.02665236	-0.00516911	

1.674e+10	-0.01323976	-0.02055984	-0.1043054	0.02914222	0.08068607	-0.05964791	-0.02205113	0.01814525	
-0.1043054	0.02914222	0.08469815	-0.04270251	-0.01645413	0.01585077	0.08291325	-0.02403989	
0.08068607	-0.05964791	-0.01645413	0.01585077	-0.07582717	-0.03997913	-0.1057797	-0.03827083	
-0.02205113	0.01814525	0.08291325	-0.02403989	-0.1057797	-0.03827083	0.03034013	-0.008876672	

1.676e+10	-0.001122215	0.002454525	-0.06795617	0.0839788	0.07605262	-0.05168336	-0.00720587	0.02818752	
-0.06795617	0.0839788	0.08282585	-0.04603214	-0.003885689	0.02310352	0.07978807	-0.02410919	
0.07605262	-0.05168336	-0.003885689	0.02310352	-0.07706614	-0.01424163	-0.1083599	0.02982694	
-0.00720587	0.02818752	0.07978807	-0.02410919	-0.1083599	0.02982694	0.03004416	-0.01376417	

1.678e+10	0.01585227	0.0197897	-0.006615039	0.1074165	0.07497409	-0.04474675	0.01110077	0.02739	
-0.006615039	0.1074165	0.07916085	-0.04674848	0.01091781	0.02130776	0.07817383	-0.02225513	
0.07497409	-0.04474675	0.01091781	0.02130776	-0.07150564	0.01025317	-0.07111079	0.08678765	
0.01110077	0.02739	0.07817383	-0.02225513	-0.07111079	0.08678765	0.02631415	-0.01628179	

1.68e+10	0.03482188	0.03226348	0.0565947	0.09090196	0.07542093	-0.03940397	0.02552799	0.01559581	
0.0565947	0.09090196	0.07648815	-0.04374315	0.02193205	0.01071831	0.07838367	-0.0201853	
0.07542093	-0.03940397	0.02193205	0.01071831	-0.06054603	0.0319223	-0.007838322	0.1116452	
0.02552799	0.01559581	0.07838367	-0.0201853	-0.007838322	0.1116452	0.02233512	-0.01439676	

1.682e+10	0.05593629	0.04137406	0.09815472	0.04099059	0.07683956	-0.03448472	0.03005046	-0.002727667	
0.09815472	0.04099059	0.0781067	-0.03913168	0.0243122	-0.004729776	0.07993894	-0.01887467	
0.07683956	-0.03448472	0.0243122	-0.004729776	-0.04535157	0.0503857	0.05787522	0.09532664	
0.03005046	-0.002727667	0.07993894	-0.01887467	0.05787522	0.09532664	0.02191906	-0.009577114	

1.684e+10	0.08045725	0.04587526	0.1029038	-0.02312432	0.08053873	-0.02985452	0.02254869	-0.02019629	
0.1029038	-0.02312432	0.08403604	-0.0376827	0.0166355	-0.01859469	0.08228397	-0.01898616	
0.08053873	-0.02985452	0.0166355	-0.01859469	-0.02602599	0.0652016	0.1018129	0.04424203	
0.02254869	-0.02019629	0.08228397	-0.01898616	0.1018129	0.04424203	0.02626961	-0.006035366	

1.686e+10	0.1070595	0.04267124	0.07008123	-0.07751691	0.08703315	-0.02754837	0.006048188	-0.02960347	
0.07008123	-0.07751691	0.08948649	-0.04222175	0.002050195	-0.02486261	0.0841618	-0.02107753	
0.08703315	-0.02754837	0.002050195	-0.02486261	-0.002909637	0.07485447	0.1080862	-0.02248394	
0.006048188	-0.02960347	0.0841618	-0.02107753	0.1080862	-0.02248394	0.0323702	-0.007425659	

1.688e+10	0.1314397	0.03088699	0.01264174	-0.1027956	0.09445727	-0.02940027	-0.01263225	-0.02726368	
0.01264174	-0.1027956	0.0890091	-0.04969047	-0.01318436	-0.02099325	0.08378766	-0.02434574	
0.09445727	-0.02940027	-0.01318436	-0.02099325	0.02210453	0.07776337	0.07502394	-0.08013027	
-0.01263225	-0.02726368	0.08378766	-0.02434574	0.07502394	-0.08013027	0.03512155	-0.01322791	

1.69e+10	0.1503144	0.01316667	-0.04826047	-0.09068837	0.1003004	-0.03499503	-0.02611313	-0.01440333	
-0.04826047	-0.09068837	0.082542	-0.0532518	-0.02289663	-0.008917817	0.08067756	-0.02620594	
0.1003004	-0.03499503	-0.02289663	-0.008917817	0.04655517	0.07383402	0.01524643	-0.1080597	
-0.02611313	-0.01440333	0.08067756	-0.02620594	0.01524643	-0.1080597	0.03206824	-0.01860801	

1.692e+10	0.1636119	-0.007417842	-0.09083644	-0.04624355	0.1035304	-0.04264677	-0.02928864	0.003736375	
-0.09083644	-0.04624355	0.07650568	-0.04923843	-0.02345159	0.006349685	0.07721881	-0.02453531	
0.1035304	-0.04264677	-0.02345159	0.006349685	0.06871349	0.06400913	-0.04929171	-0.09665701	
-0.02928864	0.003736375	0.07721881	-0.02453531	-0.04929171	-0.09665701	0.02618358	-0.01863867	

1.694e+10	0.1723015	-0.02997847	-0.1002149	0.01394162	0.1043843	-0.05134762	-0.02125534	0.01993218	
-0.1002149	0.01394162	0.07753919	-0.04168947	-0.01497308	0.01866942	0.07685265	-0.02052792	
0.1043843	-0.05134762	-0.01497308	0.01866942	0.08740781	0.0490911	-0.09529652	-0.05069139	
-0.02125534	0.01993218	0.07685265	-0.02052792	-0.09529652	-0.05069139	0.02343388	-0.01329986	

1.696e+10	0.1760178	-0.05466172	-0.07386827	0.06830704	0.1029344	-0.0607613	-0.005635383	0.02822798	
-0.07386827	0.06830704	0.08528717	-0.03856241	-0.001260433	0.02357032	0.08029712	-0.01790881	
0.1029344	-0.0607613	-0.001260433	0.02357032	0.1014316	0.03029785	-0.106762	0.01299525	
-0.005635383	0.02822798	0.08029712	-0.01790881	-0.106762	0.01299525	0.02691388	-0.007730141	

1.698e+10	0.1732659	-0.08077681	-0.02155279	0.09786481	0.09898954	-0.0708983	0.01162902	0.02601405	
-0.02155279	0.09786481	0.09272981	-0.04360371	0.0125182	0.01970728	0.08481784	-0.01949756	
0.09898954	-0.0708983	0.0125182	0.01970728	0.1103501	0.008919847	-0.07980747	0.07163229	
0.01162902	0.02601405	0.08481784	-0.01949756	-0.07980747	0.07163229	0.03408542	-0.007345868	

1.7e+10	0.1625242	-0.1057502	0.03807534	0.09247848	0.09128342	-0.08119634	0.02426268	0.01445256	
0.03807534	0.09247848	0.09290309	-0.05261985	0.02139058	0.008792112	0.08616605	-0.02446539	
0.09128342	-0.08119634	0.02139058	0.008792112	0.1134516	-0.01406399	-0.02428126	0.1041777	
0.02426268	0.01445256	0.08616605	-0.02446539	-0.02428126	0.1041777	0.03885257	-0.01298179	

1.702e+10	0.145029	-0.1257433	0.08416192	0.05411815	0.07946603	-0.08936956	0.02809123	-0.002009366	
0.08416192	0.05411815	0.08590644	-0.05740302	0.02249316	-0.005012979	0.08274467	-0.02849289	
0.07946603	-0.08936956	0.02249316	-0.005012979	0.1101686	-0.0367294	0.03983763	0.09912422	
0.02809123	-0.002009366	0.08274467	-0.02849289	0.03983763	0.09912422	0.03716776	-0.01980907	

1.704e+10	0.1243973	-0.1394881	0.1001566	-0.00408714	0.06542076	-0.09382382	0.02201326	-0.01785335	
0.1001566	-0.00408714	0.0787573	-0.05390808	0.01566535	-0.01709213	0.07746943	-0.02787849	
0.06542076	-0.09382382	0.01566535	-0.01709213	0.1014476	-0.05695069	0.08949992	0.05820191	
0.02201326	-0.01785335	0.07746943	-0.02787849	0.08949992	0.05820191	0.0309068	-0.02188566	

1.706e+10	0.1027462	-0.1487557	0.07948984	-0.06111823	0.05095451	-0.0951334	0.007684213	-0.02759613	
0.07948984	-0.06111823	0.07863775	-0.04596877	0.002942136	-0.02329595	0.07524927	-0.02302468	
0.05095451	-0.0951334	0.002942136	-0.02329595	0.08868344	-0.07407463	0.1065561	-0.003968691	
0.007684213	-0.02759613	0.07524927	-0.02302468	0.1065561	-0.003968691	0.02619758	-0.0173918	

1.708e+10	0.07888761	-0.1546855	0.02953605	-0.09562232	0.03585553	-0.09447478	-0.009991935	-0.02711347	
0.02953605	-0.09562232	0.08590006	-0.04170527	-0.01135694	-0.02087343	0.07834706	-0.01851902	
0.03585553	-0.09447478	-0.01135694	-0.02087343	0.07236268	-0.08801117	0.08453776	-0.06451017	
-0.009991935	-0.02711347	0.07834706	-0.01851902	0.08453776	-0.06451017	0.02799559	-0.01063061	

1.71e+10	0.05165149	-0.1551164	-0.03091373	-0.09486092	0.01898285	-0.09121568	-0.02407799	-0.01616145	
-0.03091373	-0.09486092	0.09379056	-0.04548966	-0.02162325	-0.01033693	0.08399815	-0.01876657	
0.01898285	-0.09121568	-0.02162325	-0.01033693	0.052521	-0.09794715	0.03180863	-0.1010624	
-0.02407799	-0.01616145	0.08399815	-0.01876657	0.03180863	-0.1010624	0.03516729	-0.008254243	

1.712e+10	0.0231644	-0.1466518	-0.07969273	-0.05953105	0.0006811242	-0.08303121	-0.02899871	0.00097212	
-0.07969273	-0.05953105	0.09544629	-0.05393276	-0.02373449	0.004317567	0.08707496	-0.02368222	
0.0006811242	-0.08303121	-0.02373449	0.004317567	0.02986985	-0.1022463	-0.03206706	-0.10054	
-0.02899871	0.00097212	0.08707496	-0.02368222	-0.03206706	-0.10054	0.04154345	-0.01272966	

1.714e+10	-0.001432381	-0.128832	-0.09921574	-0.002719358	-0.0161262	-0.06859286	-0.02305009	0.01768695	
-0.09921574	-0.002719358	0.09008366	-0.05973593	-0.01685564	0.01749114	0.0848793	-0.02906895	
-0.0161262	-0.06859286	-0.01685564	0.01749114	0.006642116	-0.0996599	-0.08376622	-0.06355898	
-0.02305009	0.01768695	0.0848793	-0.02906895	-0.08376622	-0.06355898	0.04178645	-0.02021656	

1.716e+10	-0.01858494	-0.105465	-0.08245996	0.05499396	-0.02849057	-0.04954662	-0.008544271	0.02794705	
-0.08245996	0.05499396	0.08311999	-0.05847841	-0.003527479	0.0243286	0.07933578	-0.03036998	
-0.02849057	-0.04954662	-0.003527479	0.0243286	-0.01455119	-0.09077512	-0.1047736	-0.00373201	
-0.008544271	0.02794705	0.07933578	-0.03036998	-0.1047736	-0.00373201	0.03619276	-0.02422162	

1.718e+10	-0.02948328	-0.08065408	-0.03523443	0.09241502	-0.0363724	-0.0285709	0.009522111	0.02798222	
-0.03523443	0.09241502	0.08087182	-0.05221227	0.0116856	0.02215059	0.07523736	-0.0266326	
-0.0363724	-0.0285709	0.0116856	0.02215059	-0.0327671	-0.07719446	-0.08737518	0.05728568	
0.009522111	0.02798222	0.07523736	-0.0266326	-0.08737518	0.05728568	0.03027016	-0.02153177	

1.72e+10	-0.0361564	-0.0539894	0.02481631	0.09520998	-0.04082407	-0.005926483	0.02445773	0.01711786	
0.02481631	0.09520998	0.08521036	-0.04681768	0.02297443	0.01098138	0.07605684	-0.0211582	
-0.04082407	-0.005926483	0.02297443	0.01098138	-0.04764785	-0.05932556	-0.03806993	0.09669564	
0.02445773	0.01711786	0.07605684	-0.0211582	-0.03806993	0.09669564	0.02972584	-0.0148551	

1.722e+10	-0.03713822	-0.02428406	0.07485264	0.06271983	-0.04101532	0.01905608	0.02999411	-0.0007302118	
0.07485264	0.06271983	0.09267689	-0.04708074	0.02522091	-0.005057491	0.08120962	-0.01857115	
-0.04101532	0.01905608	0.02522091	-0.005057491	-0.05786797	-0.03729336	0.02454156	0.1002704	
0.02999411	-0.0007302118	0.08120962	-0.01857115	0.02454156	0.1002704	0.03545919	-0.01035421	

1.724e+10	-0.02966422	0.006952217	0.09651698	0.007691994	-0.0352692	0.04551797	0.02376295	-0.01843442	
0.09651698	0.007691994	0.09756644	-0.05324577	0.01723091	-0.01932325	0.0867295	-0.02134294	
-0.0352692	0.04551797	0.01723091	-0.01932325	-0.06190353	-0.01256066	0.07730137	0.06731083	
0.02376295	-0.01843442	0.0867295	-0.02134294	0.07730137	0.06731083	0.04298758	-0.01227211	

1.726e+10	-0.01260655	0.0355998	0.08239314	-0.04910838	-0.0222846	0.07124095	0.008189569	-0.02896448	
0.08239314	-0.04910838	0.09603544	-0.06107299	0.002132498	-0.02591039	0.08798611	-0.02792098	
-0.0222846	0.07124095	0.002132498	-0.02591039	-0.058881	0.01296738	0.1011865	0.01040396	
0.008189569	-0.02896448	0.08798611	-0.02792098	0.1011865	0.01040396	0.04625977	-0.01948003	

1.728e+10	0.01171382	0.05769896	0.03837019	-0.08684084	-0.002738369	0.09319778	-0.0106372	-0.02819518	
0.03837019	-0.08684084	0.08896553	-0.06447132	-0.01396766	-0.02198405	0.08307483	-0.03315358	
-0.002738369	0.09319778	-0.01396766	-0.02198405	-0.04888532	0.03682435	0.08798307	-0.0493738	
-0.0106372	-0.02819518	0.08307483	-0.03315358	0.08798307	-0.0493738	0.04249879	-0.02616793	

1.73e+10	0.03929606	0.07241955	-0.01873379	-0.0919153	0.02097622	0.1097738	-0.02540512	-0.01627851	
-0.01873379	-0.0919153	0.08234707	-0.06017409	-0.02443422	-0.009028798	0.07556147	-0.03193551	
0.02097622	0.1097738	-0.02443422	-0.009028798	-0.03328108	0.05702226	0.0431224	-0.09021341	
-0.02540512	-0.01627851	0.07556147	-0.03193551	0.0431224	-0.09021341	0.03505545	-0.02643249	

1.732e+10	0.06844858	0.08139481	-0.06741552	-0.06319677	0.04715308	0.1214045	-0.03002085	0.00231525	
-0.06741552	-0.06319677	0.08299855	-0.05167411	-0.02476324	0.007717632	0.07248576	-0.02444909	
0.04715308	0.1214045	-0.02476324	0.007717632	-0.01348131	0.07288061	-0.01647796	-0.09755819	
-0.03002085	0.00231525	0.07248576	-0.02444909	-0.01647796	-0.09755819	0.03115927	-0.01977198	

1.734e+10	0.09956522	0.08485658	-0.08987605	-0.01267925	0.07540473	0.1282677	-0.02222863	0.01979803	
-0.08987605	-0.01267925	0.0916745	-0.04741404	-0.01467396	0.02101117	0.07770173	-0.01754077	
0.07540473	0.1282677	-0.01467396	0.02101117	0.009403029	0.08386954	-0.06864157	-0.06963104	
-0.02222863	0.01979803	0.07770173	-0.01754077	-0.06864157	-0.06963104	0.03541972	-0.01242255	

1.736e+10	0.1322314	0.08090774	-0.07950567	0.04021347	0.1055376	0.1294895	-0.005642837	0.02855071	
-0.07950567	0.04021347	0.1009123	-0.05273327	0.001226461	0.02504098	0.08696575	-0.01846293	
0.1055376	0.1294895	0.001226461	0.02504098	0.03453724	0.08934281	-0.09497292	-0.01768793	
-0.005642837	0.02855071	0.08696575	-0.01846293	-0.09497292	-0.01768793	0.04467826	-0.01185374	

1.738e+10	0.163161	0.06827514	-0.04194004	0.07698741	0.1358641	0.1238915	0.01214433	0.02552415	
-0.04194004	0.07698741	0.1019112	-0.06377272	0.01571309	0.01856367	0.09142211	-0.02728539	
0.1358641	0.1238915	0.01571309	0.01856367	0.06040767	0.08864404	-0.08717633	0.03916031	
0.01214433	0.02552415	0.09142211	-0.02728539	-0.08717633	0.03916031	0.05071743	-0.01926473	

1.74e+10	0.1889203	0.04859437	0.008970524	0.08611504	0.16397	0.1117689	0.02414204	0.01309115	
0.008970524	0.08611504	0.0933965	-0.07061984	0.02292161	0.00518621	0.08621753	-0.03618233	
0.16397	0.1117689	0.02292161	0.00518621	0.08507833	0.08186698	-0.04895796	0.08109453	
0.02414204	0.01309115	0.08621753	-0.03618233	-0.04895796	0.08109453	0.04816572	-0.02823607	

1.742e+10	0.2083546	0.02542401	0.05570789	0.06514494	0.1882429	0.09491932	0.02663159	-0.003441258	
0.05570789	0.06514494	0.08347185	-0.06675166	0.02076133	-0.0092162	0.07561357	-0.03646027	
0.1882429	0.09491932	0.02076133	-0.0092162	0.1070385	0.0700814	0.005886176	0.09384559	
0.02663159	-0.003441258	0.07561357	-0.03646027	0.005886176	0.09384559	0.03960952	-0.03060047	

1.744e+10	0.2229884	0.0008574634	0.08200781	0.0216873	0.2089277	0.07502507	0.0191562	-0.01812082	
0.08200781	0.0216873	0.08230254	-0.05590125	0.0108107	-0.01914682	0.06985983	-0.02727093	
0.2089277	0.07502507	0.0108107	-0.01914682	0.1255801	0.05455946	0.05787923	0.07325101	
0.0191562	-0.01812082	0.06985983	-0.02727093	0.05787923	0.07325101	0.03353953	-0.02418858	

1.746e+10	0.2341719	-0.02544211	0.07889349	-0.02833343	0.2266674	0.05237613	0.004564178	-0.02539206	
0.07889349	-0.02833343	0.09189308	-0.04923134	-0.002686465	-0.0210674	0.07511437	-0.0174161	
0.2266674	0.05237613	-0.002686465	-0.0210674	0.1407069	0.03616405	0.08860428	0.0270248	
0.004564178	-0.02539206	0.07511437	-0.0174161	0.08860428	0.0270248	0.03641811	-0.01530128	

1.748e+10	0.2410347	-0.05459365	0.04853935	-0.06717289	0.2412296	0.02640062	-0.01104642	-0.0224394	
0.04853935	-0.06717289	0.1033255	-0.05407467	-0.01414927	-0.01464689	0.08665393	-0.01689719	
0.2412296	0.02640062	-0.01414927	-0.01464689	0.1521925	0.01530325	0.08757126	-0.02791219	
-0.01104642	-0.0224394	0.08665393	-0.01689719	0.08757126	-0.02791219	0.04614052	-0.01281845	

1.75e+10	0.2414237	-0.08563017	0.002349797	-0.08217141	0.2511942	-0.002821767	-0.02127057	-0.01123843	
0.002349797	-0.08217141	0.1057928	-0.06639199	-0.01909733	-0.003226644	0.09337349	-0.02670036	
0.2511942	-0.002821767	-0.01909733	-0.003226644	0.1594836	-0.007503758	0.05595124	-0.0721657	
-0.02127057	-0.01123843	0.09337349	-0.02670036	0.05595124	-0.0721657	0.05396521	-0.0194904	

1.752e+10	0.2345761	-0.1158634	-0.04412748	-0.06900022	0.2553548	-0.03401219	-0.02295411	0.002997515	
-0.04412748	-0.06900022	0.09721309	-0.07496421	-0.01644416	0.008109363	0.08865119	-0.03782391	
0.2553548	-0.03401219	-0.01644416	0.008109363	0.1620656	-0.0314554	0.005131763	-0.09076504	
-0.02295411	0.002997515	0.08865119	-0.03782391	0.005131763	-0.09076504	0.05305379	-0.029453	

1.754e+10	0.2220109	-0.1428351	-0.07530073	-0.03202532	0.2536583	-0.06526525	-0.01660082	0.01512678	
-0.07530073	-0.03202532	0.08603507	-0.07209737	-0.008301215	0.01527622	0.07664871	-0.03975468	
0.2536583	-0.06526525	-0.008301215	0.01527622	0.1598144	-0.05520329	-0.04713808	-0.07743715	
-0.01660082	0.01512678	0.07664871	-0.03975468	-0.04713808	-0.07743715	0.04464882	-0.03377744	

1.756e+10	0.2057239	-0.1664374	-0.08007669	0.0163209	0.2469587	-0.09571954	-0.00476646	0.0214293	
-0.08007669	0.0163209	0.08341622	-0.06098216	0.001856587	0.01646365	0.06881517	-0.0303755	
0.2469587	-0.09571954	0.001856587	0.01646365	0.1531141	-0.07783047	-0.08260824	-0.03679683	
-0.00476646	0.0214293	0.06881517	-0.0303755	-0.08260824	-0.03679683	0.03709245	-0.0285867	

1.758e+10	0.1863237	-0.1874654	-0.05655237	0.05866406	0.2357116	-0.125309	0.008367191	0.01972144	
-0.05655237	0.05866406	0.09227375	-0.0530769	0.01045769	0.01186651	0.07304316	-0.01882905	
0.2357116	-0.125309	0.01045769	0.01186651	0.1426046	-0.09864837	-0.0886128	0.01664747	
0.008367191	0.01972144	0.07304316	-0.01882905	-0.0886128	0.01664747	0.03815857	-0.01917841	

1.76e+10	0.1627349	-0.2058807	-0.01346549	0.08013149	0.2193285	-0.1539923	0.0176649	0.01078312	
-0.01346549	0.08013149	0.1041427	-0.05655899	0.01459643	0.003558766	0.08529209	-0.01657138	
0.2193285	-0.1539923	0.01459643	0.003558766	0.1286196	-0.1174994	-0.06328036	0.06383501	
0.0176649	0.01078312	0.08529209	-0.01657138	-0.06328036	0.06383501	0.04724772	-0.01495156	

1.762e+10	0.1346186	-0.219755	0.03405832	0.07379689	0.1970026	-0.1805006	0.01976958	-0.001264894	
0.03405832	0.07379689	0.1080173	-0.06830154	0.01324525	-0.005009719	0.09377067	-0.02584812	
0.1970026	-0.1805006	0.01324525	-0.005009719	0.1111478	-0.1339257	-0.01585563	0.08829871	
0.01976958	-0.001264894	0.09377067	-0.02584812	-0.01585563	0.08829871	0.05618327	-0.02009551	

1.764e+10	0.1033818	-0.2270187	0.07009718	0.04186428	0.1688976	-0.2028899	0.014995	-0.01162922	
0.07009718	0.04186428	0.1009254	-0.07765009	0.007800142	-0.01078736	0.0905631	-0.03800414	
0.1688976	-0.2028899	0.007800142	-0.01078736	0.09036318	-0.1470788	0.03702019	0.08173945	
0.014995	-0.01162922	0.0905631	-0.03800414	0.03702019	0.08173945	0.05722716	-0.03006277	

1.766e+10	0.07170264	-0.2272043	0.08205226	-0.005388345	0.1363106	-0.219581	0.00590255	-0.01744234	
0.08205226	-0.005388345	0.09007691	-0.07662622	0.0007860903	-0.01261754	0.07870112	-0.0418109	
0.1363106	-0.219581	0.0007860903	-0.01261754	0.06671852	-0.1560344	0.07709966	0.0462639	
0.00590255	-0.01744234	0.07870112	-0.0418109	0.07709966	0.0462639	0.0499664	-0.0360369	

1.768e+10	0.04120416	-0.2215408	0.0646847	-0.05162788	0.1009412	-0.230136	-0.004675628	-0.01753535	
0.0646847	-0.05162788	0.08599846	-0.06703721	-0.005783096	-0.01080353	0.06939632	-0.03381836	
0.1009412	-0.230136	-0.005783096	-0.01080353	0.0414752	-0.1600845	0.08994176	-0.005959735	
-0.004675628	-0.01753535	0.06939632	-0.03381836	0.08994176	-0.005959735	0.04167153	-0.03282642	

1.77e+10	0.01182422	-0.211029	0.02352619	-0.07967835	0.06342732	-0.2346487	-0.01361456	-0.01175177	
0.02352619	-0.07967835	0.09260872	-0.05874635	-0.01049484	-0.006032362	0.07150975	-0.0218177	
0.06342732	-0.2346487	-0.01049484	-0.006032362	0.01551754	-0.1591754	0.07049376	-0.05638531	
-0.01361456	-0.01175177	0.07150975	-0.0218177	0.07049376	-0.05638531	0.04068642	-0.02389445	

1.772e+10	-0.01682483	-0.1948148	-0.02635986	-0.07896447	0.02395458	-0.2323987	-0.01759415	-0.001886484	
-0.02635986	-0.07896447	0.1034823	-0.05994316	-0.01204815	0.0005344611	0.08286008	-0.01745683	
0.02395458	-0.2323987	-0.01204815	0.0005344611	-0.01052758	-0.1533591	0.0256157	-0.08659369	
-0.01759415	-0.001886484	0.08286008	-0.01745683	0.0256157	-0.08659369	0.04822167	-0.01819741	

1.774e+10	-0.04301199	-0.1713645	-0.06693853	-0.04987627	-0.01630627	-0.2217312	-0.01521801	0.008156406	
-0.06693853	-0.04987627	0.1088598	-0.06947429	-0.009848458	0.006919044	0.09263311	-0.02471703	
-0.01630627	-0.2217312	-0.009848458	0.006919044	-0.03606865	-0.1421246	-0.0284113	-0.08575718	
-0.01521801	0.008156406	0.09263311	-0.02471703	-0.0284113	-0.08575718	0.05750772	-0.02120888	

1.776e+10	-0.06347235	-0.1407721	-0.08384906	-0.002620414	-0.05472041	-0.2015436	-0.007997194	0.01487105	
-0.08384906	-0.002620414	0.1047047	-0.07892643	-0.00466162	0.01117682	0.0919868	-0.03677906	
-0.05472041	-0.2015436	-0.00466162	0.01117682	-0.05989658	-0.1247343	-0.07242979	-0.05424358	
-0.007997194	0.01487105	0.0919868	-0.03677906	-0.07242979	-0.05424358	0.0606256	-0.03026249	

1.778e+10	-0.07560799	-0.105764	-0.07054214	0.04633753	-0.08801804	-0.1726706	0.001397485	0.01672271	
-0.07054214	0.04633753	0.09544937	-0.08068096	0.002069324	0.01221902	0.08175822	-0.04283123	
-0.08801804	-0.1726706	0.002069324	0.01221902	-0.0798808	-0.1012919	-0.09069106	-0.003040225	
0.001397485	0.01672271	0.08175822	-0.04283123	-0.09069106	-0.003040225	0.05538882	-0.03750669	

1.78e+10	-0.07934675	-0.06943837	-0.03088782	0.07893806	-0.1142629	-0.13724	0.01052964	0.01334768	
-0.03088782	0.07893806	0.08964298	-0.07410906	0.008755455	0.009510486	0.07135107	-0.03759369	
-0.1142629	-0.13724	0.008755455	0.009510486	-0.09406133	-0.07304036	-0.07616755	0.04972881	
0.01052964	0.01334768	0.07135107	-0.03759369	-0.07616755	0.04972881	0.04711032	-0.03678411	

1.782e+10	-0.07588573	-0.03339052	0.02060535	0.08223375	-0.1329064	-0.09727275	0.0165654	0.005104413	
0.02060535	0.08223375	0.09256384	-0.06582061	0.01325389	0.00306648	0.07034109	-0.02615403	
-0.1329064	-0.09727275	0.01325389	0.00306648	-0.101484	-0.04189086	-0.03364732	0.08455199	
0.0165654	0.005104413	0.07034109	-0.02615403	-0.03364732	0.08455199	0.04394889	-0.02925599	

1.784e+10	-0.06521533	0.002414133	0.0641636	0.0548629	-0.1434232	-0.05350963	0.01663186	-0.005520114	
0.0641636	0.0548629	0.1016379	-0.06370046	0.01312958	-0.005468812	0.07954354	-0.01925977	
-0.1434232	-0.05350963	0.01312958	-0.005468812	-0.1018854	-0.009200586	0.0211429	0.08830412	
0.01663186	-0.005520114	0.07954354	-0.01925977	0.0211429	0.08830412	0.04917443	-0.02241941	

1.786e+10	-0.04586397	0.03648185	0.08353079	0.007776562	-0.1441874	-0.007455605	0.01027187	-0.01412868	
0.08353079	0.007776562	0.1090785	-0.06993042	0.007572875	-0.01256659	0.09042059	-0.02329851	
-0.1441874	-0.007455605	0.007572875	-0.01256659	-0.09485723	0.02349236	0.06778865	0.05991109	
0.01027187	-0.01412868	0.09042059	-0.02329851	0.06778865	0.05991109	0.05819619	-0.02283262	

1.788e+10	-0.01744412	0.06528463	0.0723809	-0.04142945	-0.1339232	0.03807323	0.0002636461	-0.01730199	
0.0723809	-0.04142945	0.1088831	-0.07960579	-0.001406306	-0.0148827	0.09319189	-0.03464109	
-0.1339232	0.03807323	-0.001406306	-0.0148827	-0.07987046	0.0545248	0.08956946	0.01016129	
0.0002636461	-0.01730199	0.09319189	-0.03464109	0.08956946	0.01016129	0.06341848	-0.03026265	

1.79e+10	0.01733397	0.08522202	0.03524192	-0.07513442	-0.1133389	0.07918403	-0.009600519	-0.01430865	
0.03524192	-0.07513442	0.1014214	-0.08501519	-0.01009272	-0.01129999	0.08540361	-0.04332398	
-0.1133389	0.07918403	-0.01009272	-0.01129999	-0.05735522	0.08118582	0.07897757	-0.04289382	
-0.009600519	-0.01430865	0.08540361	-0.04332398	0.07897757	-0.04289382	0.06078384	-0.0384928	

1.792e+10	0.05424598	0.0955562	-0.01437548	-0.08127852	-0.08518162	0.1134513	-0.01617132	-0.006269194	
-0.01437548	-0.08127852	0.09326287	-0.0817951	-0.01503466	-0.00312995	0.07391626	-0.0415868	
-0.08518162	0.1134513	-0.01503466	-0.00312995	-0.02914058	0.1012916	0.03990112	-0.08021501	
-0.01617132	-0.006269194	0.07391626	-0.0415868	0.03990112	-0.08021501	0.05301935	-0.0405789	

1.794e+10	0.09070532	0.09798028	-0.0581121	-0.05764741	-0.05201672	0.1403935	-0.01695	0.004408826	
-0.0581121	-0.05764741	0.09216178	-0.07299939	-0.01407147	0.006615531	0.0693152	-0.03094233	
-0.05201672	0.1403935	-0.01407147	0.006615531	0.002151288	0.1137997	-0.01333283	-0.08816962	
-0.01695	0.004408826	0.0693152	-0.03094233	-0.01333283	-0.08816962	0.04765898	-0.03491177	

1.796e+10	0.1262617	0.09383181	-0.07972526	-0.01364201	-0.01519347	0.1603418	-0.01097647	0.01363735	
-0.07972526	-0.01364201	0.09986428	-0.06725538	-0.007163517	0.01388501	0.07612505	-0.02137485	
-0.01519347	0.1603418	-0.007163517	0.01388501	0.03450062	0.1190621	-0.06108873	-0.06412707	
-0.01097647	0.01363735	0.07612505	-0.02137485	-0.06108873	-0.06412707	0.05024479	-0.02713326	

1.798e+10	0.160724	0.08265058	-0.07228026	0.03384317	0.02464013	0.1727415	-0.0006274338	0.01717654	
-0.07228026	0.03384317	0.1097039	-0.0707698	0.002848235	0.0151974	0.08808066	-0.02211289	
0.02464013	0.1727415	0.002848235	0.0151974	0.06647677	0.1175212	-0.08610574	-0.01754971	
-0.0006274338	0.01717654	0.08808066	-0.02211289	-0.08610574	-0.01754971	0.05881033	-0.02490659	

1.8e+10	0.1918577	0.06380768	-0.0399238	0.06807569	0.06577471	0.1764386	0.009321263	0.01377211	
-0.0399238	0.06807569	0.1127973	-0.08110682	0.0112482	0.01000805	0.09408432	-0.03273969	
0.06577471	0.1764386	0.0112482	0.01000805	0.09686371	0.1094807	-0.08020191	0.03437458	
0.009321263	0.01377211	0.09408432	-0.03273969	-0.08020191	0.03437458	0.06595694	-0.03061059	

1.802e+10	0.2169136	0.03864991	0.005530896	0.07815454	0.105649	0.1714885	0.01503193	0.005653725	
0.005530896	0.07815454	0.1063862	-0.08949038	0.01444925	0.001125306	0.08850031	-0.04367617	
0.105649	0.1714885	0.01444925	0.001125306	0.124163	0.09541483	-0.04619487	0.07349837	
0.01503193	0.005653725	0.08850031	-0.04367617	-0.04619487	0.07349837	0.06577307	-0.03956108	

1.804e+10	0.2345328	0.01032646	0.0486048	0.06101493	0.1420496	0.159293	0.01517231	-0.00384933	
0.0486048	0.06101493	0.0963984	-0.08855597	0.01178084	-0.007401575	0.07631804	-0.04491709	
0.1420496	0.159293	0.01178084	-0.007401575	0.1468698	0.07652402	0.003761054	0.0864192	
0.01517231	-0.00384933	0.07631804	-0.04491709	0.003761054	0.0864192	0.05870933	-0.04410585	

1.806e+10	0.2458156	-0.01862319	0.07432378	0.02250055	0.1744235	0.1417198	0.01000787	-0.01169165	
0.07432378	0.02250055	0.09262833	-0.07939769	0.004903079	-0.01245356	0.06895452	-0.03517048	
0.1744235	0.1417198	0.004903079	-0.01245356	0.1643654	0.05451466	0.05214947	0.06865212	
0.01000787	-0.01169165	0.06895452	-0.03517048	0.05214947	0.06865212	0.05165598	-0.04022901	

1.808e+10	0.252346	-0.04751253	0.07349631	-0.02348394	0.2028666	0.1198412	0.001219327	-0.0150236	
0.07349631	-0.02348394	0.09935535	-0.07145193	-0.003353214	-0.01242756	0.07366205	-0.02387315	
0.2028666	0.1198412	-0.003353214	-0.01242756	0.1766478	0.03113093	0.08161458	0.02667103	
0.001219327	-0.0150236	0.07366205	-0.02387315	0.08161458	0.02667103	0.05194893	-0.0319392	

1.81e+10	0.2543733	-0.07702756	0.04706459	-0.06046367	0.2274031	0.09356631	-0.007604083	-0.01236026	
0.04706459	-0.06046367	0.1103818	-0.07324036	-0.00966339	-0.007533585	0.08592251	-0.0221315	
0.2274031	0.09356631	-0.00966339	-0.007533585	0.1844473	0.007256305	0.08194398	-0.02431025	
-0.007604083	-0.01236026	0.08592251	-0.0221315	0.08194398	-0.02431025	0.05983702	-0.02767013	

1.812e+10	0.2507279	-0.1067067	0.004963393	-0.07615443	0.2467527	0.06304784	-0.01263692	-0.005301693	
0.004963393	-0.07615443	0.1153025	-0.0835479	-0.01144508	-0.0002097655	0.09395427	-0.03167206	
0.2467527	0.06304784	-0.01144508	-0.0002097655	0.1881818	-0.01668487	0.05360004	-0.06620944	
-0.01263692	-0.005301693	0.09395427	-0.03167206	0.05360004	-0.06620944	0.06825781	-0.03183349	

1.814e+10	0.2408939	-0.1344821	-0.03863646	-0.06590695	0.259659	0.02959359	-0.01258121	0.002584841	
-0.03863646	-0.06590695	0.1099163	-0.09319928	-0.008588237	0.006026961	0.09033179	-0.04356894	
0.259659	0.02959359	-0.008588237	0.006026961	0.1878433	-0.04031126	0.006745534	-0.08483926	
-0.01258121	0.002584841	0.09033179	-0.04356894	0.006745534	-0.08483926	0.06995455	-0.04095024	

1.816e+10	0.2261103	-0.1583595	-0.06939796	-0.03286356	0.2657851	-0.004886161	-0.008629875	0.008566846	
-0.06939796	-0.03286356	0.09962061	-0.09376945	-0.003268972	0.008928056	0.07851696	-0.04689656	
0.2657851	-0.004886161	-0.003268972	0.008928056	0.1833757	-0.06276567	-0.04250449	-0.07388773	
-0.008629875	0.008566846	0.07851696	-0.04689656	-0.04250449	-0.07388773	0.06378531	-0.04711944	

1.818e+10	0.208646	-0.1777727	-0.07625633	0.01226889	0.2658527	-0.03894437	-0.002472517	0.0114552	
-0.07625633	0.01226889	0.09459331	-0.08532478	0.001999692	0.008404891	0.06973533	-0.0386422	
0.2658527	-0.03894437	0.001999692	0.008404891	0.1753603	-0.08318469	-0.07714837	-0.03681442	
-0.002472517	0.0114552	0.06973533	-0.0386422	-0.07714837	-0.03681442	0.05592404	-0.04483887	

1.82e+10	0.1897099	-0.1939149	-0.05606615	0.0535967	0.2606978	-0.07212152	0.004163847	0.01055649	
-0.05606615	0.0535967	0.1000518	-0.07686681	0.005717178	0.005468611	0.07247651	-0.0270647	
0.2606978	-0.07212152	0.005717178	0.005468611	0.1648059	-0.1009378	-0.08461524	0.01359861	
0.004163847	0.01055649	0.07247651	-0.0270647	-0.08461524	0.01359861	0.05456055	-0.03670327	

1.822e+10	0.1687962	-0.2075704	-0.01592697	0.0761717	0.250186	-0.1044653	0.008932309	0.006113332	
-0.01592697	0.0761717	0.1106562	-0.07741901	0.007084846	0.001377411	0.08382325	-0.02364376	
0.250186	-0.1044653	0.007084846	0.001377411	0.1525689	-0.1165127	-0.06200722	0.05940049	
0.008932309	0.006113332	0.08382325	-0.02364376	-0.06200722	0.05940049	0.06150667	-0.03126083	

1.824e+10	0.1449218	-0.2178855	0.03001749	0.07225808	0.2335004	-0.1351051	0.01009855	0.0002223262	
0.03001749	0.07225808	0.1162259	-0.08664786	0.006022325	-0.002295006	0.09260551	-0.0314804	
0.2335004	-0.1351051	0.006022325	-0.002295006	0.1386981	-0.1302371	-0.01741402	0.0843114	
0.01009855	0.0002223262	0.09260551	-0.0314804	-0.01741402	0.0843114	0.07032808	-0.03417527	

1.826e+10	0.118815	-0.2229233	0.06621217	0.04312531	0.2104429	-0.162057	0.008164317	-0.004652691	
0.06621217	0.04312531	0.1121735	-0.09600852	0.003640474	-0.004320293	0.09077282	-0.04287711	
0.2104429	-0.162057	0.003640474	-0.004320293	0.122686	-0.1420279	0.0336161	0.07970074	
0.008164317	-0.004652691	0.09077282	-0.04287711	0.0336161	0.07970074	0.07317317	-0.04286695	

1.828e+10	0.09261313	-0.2218228	0.08006208	-0.002114538	0.1823356	-0.1834208	0.004693026	-0.007693845	
0.08006208	-0.002114538	0.1031104	-0.09751686	0.001363048	-0.004893098	0.08051509	-0.04734188	
0.1823356	-0.1834208	0.001363048	-0.004893098	0.104529	-0.1509027	0.07346843	0.04684602	
0.004693026	-0.007693845	0.08051509	-0.04734188	0.07346843	0.04684602	0.0680309	-0.0495908	

1.83e+10	0.06841575	-0.2156999	0.06538221	-0.04817046	0.1512556	-0.1984364	0.0003854744	-0.009046191	
0.06538221	-0.04817046	0.0980753	-0.09088234	-0.0005619459	-0.004975366	0.07175539	-0.04114128	
0.1512556	-0.1984364	-0.0005619459	-0.004975366	0.08519182	-0.1560843	0.08781494	-0.003406818	
0.0003854744	-0.009046191	0.07175539	-0.04114128	0.08781494	-0.003406818	0.060414	-0.04850123	

1.832e+10	0.04642246	-0.2063117	0.02615694	-0.07787661	0.1185178	-0.2075901	-0.004377519	-0.008201809	
0.02615694	-0.07787661	0.1018523	-0.08360289	-0.002736597	-0.004647675	0.07274087	-0.03083622	
0.1185178	-0.2075901	-0.002736597	-0.004647675	0.0657773	-0.1578645	0.07064863	-0.05345053	
-0.004377519	-0.008201809	0.07274087	-0.03083622	0.07064863	-0.05345053	0.05827986	-0.04133473	

1.834e+10	0.0254853	-0.1937107	-0.02356017	-0.07948684	0.08415357	-0.2109219	-0.008179882	-0.004797189	
-0.02356017	-0.07948684	0.110367	-0.08327631	-0.005065927	-0.003174155	0.08191754	-0.02664508	
0.08415357	-0.2109219	-0.005065927	-0.003174155	0.04642942	-0.1568838	0.02749651	-0.0848573	
-0.008179882	-0.004797189	0.08191754	-0.02664508	0.02749651	-0.0848573	0.06397687	-0.03584051	

1.836e+10	0.00602499	-0.176237	-0.06549243	-0.05203906	0.04866937	-0.2071289	-0.009609243	0.0001123728	
-0.06549243	-0.05203906	0.1155427	-0.09006741	-0.006617925	-0.000316724	0.09011978	-0.03213275	
0.04866937	-0.2071289	-0.006617925	-0.000316724	0.02677207	-0.1529242	-0.02619356	-0.08588969	
-0.009609243	0.0001123728	0.09011978	-0.03213275	-0.02619356	-0.08588969	0.07208456	-0.03770893	

1.838e+10	-0.009315529	-0.1530968	-0.08439419	-0.005013939	0.01416308	-0.1947256	-0.008504509	0.005073729	
-0.08439419	-0.005013939	0.1135524	-0.09768773	-0.006572643	0.003425876	0.09004317	-0.04162295	
0.01416308	-0.1947256	-0.006572643	0.003425876	0.006991369	-0.1447613	-0.07121574	-0.05586035	
-0.008504509	0.005073729	0.09004317	-0.04162295	-0.07121574	-0.05586035	0.07534942	-0.04516538	

1.84e+10	-0.0175961	-0.1264516	-0.07270215	0.04509481	-0.01585558	-0.1741899	-0.005073561	0.009267049	
-0.07270215	0.04509481	0.1073445	-0.1001809	-0.004299291	0.007232203	0.08257237	-0.04654233	
-0.01585558	-0.1741899	-0.004299291	0.007232203	-0.0110198	-0.1315894	-0.09123117	-0.004924934	
-0.005073561	0.009267049	0.08257237	-0.04654233	-0.09123117	-0.004924934	0.0716268	-0.05144633	

1.842e+10	-0.01857572	-0.09983659	-0.03341647	0.0797673	-0.03916553	-0.1480263	0.0007263335	0.01150309	
-0.03341647	0.0797673	0.1028879	-0.09683465	0.0005213401	0.009579825	0.07497084	-0.04317459	
-0.03916553	-0.1480263	0.0005213401	0.009579825	-0.02510409	-0.114275	-0.07812311	0.04904454	
0.0007263335	0.01150309	0.07497084	-0.04317459	-0.07812311	0.04904454	0.06532256	-0.05140748	

1.844e+10	-0.01439033	-0.07515165	0.01942266	0.08494684	-0.05575489	-0.118808	0.007695607	0.00986802	
0.01942266	0.08494684	0.1038421	-0.09175222	0.006786983	0.008392002	0.07397289	-0.03546251	
-0.05575489	-0.118808	0.006786983	0.008392002	-0.03452063	-0.09489619	-0.03560499	0.08587327	
0.007695607	0.00986802	0.07397289	-0.03546251	-0.03560499	0.08587327	0.06296148	-0.04608927	

1.846e+10	-0.006367888	-0.05166102	0.06550348	0.0579424	-0.06622056	-0.08749577	0.01275353	0.003815328	
0.06550348	0.0579424	0.1090041	-0.08987845	0.01149318	0.002861311	0.07979229	-0.03079888	
-0.06622056	-0.08749577	0.01149318	0.002861311	-0.03989579	-0.07474957	0.02085257	0.09107632	
0.01275353	0.003815328	0.07979229	-0.03079888	0.02085257	0.09107632	0.06687468	-0.04139945	

1.848e+10	0.006893125	-0.02884274	0.08705959	0.009072143	-0.06970838	-0.05412984	0.01317057	-0.004484142	
0.08705959	0.009072143	0.1140617	-0.09292046	0.01163508	-0.005050627	0.08671746	-0.0330639	
-0.06970838	-0.05412984	0.01163508	-0.005050627	-0.0415712	-0.05370931	0.06995183	0.06235328	
0.01317057	-0.004484142	0.08671746	-0.0330639	0.06995183	0.06235328	0.07334696	-0.04206062	

1.85e+10	0.02687083	-0.009419509	0.07618077	-0.04309223	-0.06451377	-0.02080008	0.008508815	-0.01167791	
0.07618077	-0.04309223	0.1153547	-0.09876619	0.006518497	-0.01164581	0.08885519	-0.03984739	
-0.06451377	-0.02080008	0.006518497	-0.01164581	-0.03846133	-0.03218149	0.09333222	0.01041924	
0.008508815	-0.01167791	0.08885519	-0.03984739	0.09333222	0.01041924	0.07686796	-0.04745238	

1.852e+10	0.0518418	0.002920553	0.03712912	-0.07925499	-0.05070962	0.008832006	0.0002677021	-0.01505062	
0.03712912	-0.07925499	0.1122092	-0.103406	-0.001889309	-0.01378513	0.08487277	-0.0453883	
-0.05070962	0.008832006	-0.001889309	-0.01378513	-0.02977687	-0.01206692	0.08234643	-0.04556462	
0.0002677021	-0.01505062	0.08487277	-0.0453883	0.08234643	-0.04556462	0.07515529	-0.05297106	

1.854e+10	0.07733818	0.007018592	-0.01568901	-0.08607485	-0.03117447	0.03195683	-0.008910133	-0.01295948	
-0.01568901	-0.08607485	0.1072279	-0.1037008	-0.01018191	-0.0102604	0.07838927	-0.0454096	
-0.03117447	0.03195683	-0.01018191	-0.0102604	-0.01661599	0.004226099	0.04081055	-0.08498397	
-0.008910133	-0.01295948	0.07838927	-0.0454096	0.04081055	-0.08498397	0.07054426	-0.05439115	

1.856e+10	0.1002889	0.005507119	-0.06259431	-0.06089157	-0.009262622	0.04869487	-0.01542831	-0.005399896	
-0.06259431	-0.06089157	0.1047825	-0.09970634	-0.01480378	-0.002085805	0.07493431	-0.04021816	
-0.009262622	0.04869487	-0.01480378	-0.002085805	-0.001535044	0.0157775	-0.01599578	-0.09293446	
-0.01542831	-0.005399896	0.07493431	-0.04021816	-0.01599578	-0.09293446	0.06764875	-0.05126822	

1.858e+10	0.1212154	0.001050722	-0.08591167	-0.01325377	0.01391668	0.0605739	-0.01599735	0.004994875	
-0.08591167	-0.01325377	0.1076907	-0.09540071	-0.01333822	0.007540258	0.07755624	-0.03458218	
0.01391668	0.0605739	-0.01333822	0.007540258	0.01370618	0.02381557	-0.06678315	-0.06634169	
-0.01599735	0.004994875	0.07755624	-0.03458218	-0.06678315	-0.06634169	0.06944048	-0.04705717	

1.86e+10	0.1416226	-0.006679247	-0.07728206	0.03853141	0.03865054	0.06769297	-0.009994268	0.01364544	
-0.07728206	0.03853141	0.1139203	-0.09569559	-0.006046421	0.01425139	0.08392359	-0.03382047	
0.03865054	0.06769297	-0.006046421	0.01425139	0.02914958	0.02941945	-0.09252345	-0.01548312	
-0.009994268	0.01364544	0.08392359	-0.03382047	-0.09252345	-0.01548312	0.07468322	-0.04615412	

1.862e+10	0.1605413	-0.01957292	-0.04083633	0.07546224	0.06438012	0.06865145	-0.0001287462	0.01691851	
-0.04083633	0.07546224	0.117839	-0.1014757	0.003762323	0.01496738	0.08821707	-0.03887526	
0.06438012	0.06865145	0.003762323	0.01496738	0.04527783	0.03234288	-0.08420681	0.04056221	
-0.0001287462	0.01691851	0.08821707	-0.03887526	-0.08420681	0.04056221	0.07901531	-0.04993404	

1.864e+10	0.1746921	-0.03725305	0.009678793	0.08491014	0.08837225	0.06282842	0.009634851	0.01394411	
0.009678793	0.08491014	0.115663	-0.1081371	0.01178596	0.009732539	0.08648943	-0.04534829	
0.08837225	0.06282842	0.01178596	0.009732539	0.06121797	0.03172696	-0.04541999	0.08140291	
0.009634851	0.01394411	0.08648943	-0.04534829	-0.04541999	0.08140291	0.07889505	-0.05548129	

1.866e+10	0.1823244	-0.05643884	0.05650667	0.06395909	0.1081422	0.05191985	0.01604248	0.006003462	
0.05650667	0.06395909	0.109523	-0.1098637	0.01514069	0.001019897	0.08029198	-0.04744862	
0.1081422	0.05191985	0.01514069	0.001019897	0.07534697	0.02788963	0.009656594	0.09257572	
0.01604248	0.006003462	0.08029198	-0.04744862	0.009656594	0.09257572	0.07488563	-0.0581878	

1.868e+10	0.1849801	-0.07377714	0.08294746	0.0199078	0.1232138	0.038705	0.01682861	-0.004394817	
0.08294746	0.0199078	0.1057418	-0.1055132	0.01291911	-0.007959081	0.07548891	-0.04337299	
0.1232138	0.038705	0.01291911	-0.007959081	0.08680709	0.02254523	0.06115614	0.07001328	
0.01682861	-0.004394817	0.07548891	-0.04337299	0.06115614	0.07001328	0.07127433	-0.05595253	

1.87e+10	0.1856827	-0.08897618	0.07919229	-0.03133686	0.1349842	0.02466954	0.01127286	-0.01350038	
0.07919229	-0.03133686	0.108549	-0.1002504	0.005858318	-0.01401919	0.07678086	-0.03733082	
0.1349842	0.02466954	0.005858318	-0.01401919	0.09638361	0.0172779	0.0901406	0.02193891	
0.01127286	-0.01350038	0.07678086	-0.03733082	0.0901406	0.02193891	0.07222255	-0.05155389	

1.872e+10	0.1852391	-0.1041896	0.04676223	-0.07090788	0.1443019	0.009123208	0.001367647	-0.01755781	
0.04676223	-0.07090788	0.1153266	-0.1004358	-0.003424543	-0.0147394	0.08279761	-0.03560861	
0.1443019	0.009123208	-0.003424543	-0.0147394	0.1055835	0.01206014	0.08608027	-0.03386454	
0.001367647	-0.01755781	0.08279761	-0.03560861	0.08608027	-0.03386454	0.07739795	-0.05011123	

1.874e+10	0.1816416	-0.120071	-0.002156261	-0.08477558	0.1500293	-0.00832411	-0.008859123	-0.0151545	
-0.002156261	-0.08477558	0.1191849	-0.1065973	-0.01119596	-0.009919289	0.08737744	-0.03999529	
0.1500293	-0.00832411	-0.01119596	-0.009919289	0.1146239	0.005789347	0.05088276	-0.07696007	
-0.008859123	-0.0151545	0.08737744	-0.03999529	0.05088276	-0.07696007	0.0820326	-0.05382388	

1.876e+10	0.1734193	-0.1343627	-0.05027909	-0.06844668	0.150685	-0.02639929	-0.01589024	-0.007606508	
-0.05027909	-0.06844668	0.1165315	-0.1129821	-0.01468151	-0.001771459	0.08610727	-0.04609101	
0.150685	-0.02639929	-0.01468151	-0.001771459	0.1225349	-0.001925723	-0.002510415	-0.0921208	
-0.01589024	-0.007606508	0.08610727	-0.04609101	-0.002510415	-0.0921208	0.08185812	-0.05957169	

1.878e+10	0.1621742	-0.1441673	-0.0807551	-0.02742838	0.1464449	-0.0424381	-0.0177273	0.002620902	
-0.0807551	-0.02742838	0.1107178	-0.1138934	-0.01312367	0.006759135	0.08063304	-0.0480574	
0.1464449	-0.0424381	-0.01312367	0.006759135	0.128505	-0.01008288	-0.05498822	-0.07398774	
-0.0177273	0.002620902	0.08063304	-0.0480574	-0.05498822	-0.07398774	0.07755478	-0.06205091	

1.88e+10	0.1513417	-0.1492848	-0.08221126	0.02411815	0.13946	-0.05496288	-0.01347145	0.01251406	
-0.08221126	0.02411815	0.1082375	-0.1096177	-0.007132458	0.01310361	0.07670812	-0.04454309	
0.13946	-0.05496288	-0.007132458	0.01310361	0.1332591	-0.01747527	-0.08761821	-0.0288413	
-0.01347145	0.01251406	0.07670812	-0.04454309	-0.08761821	-0.0288413	0.07426295	-0.05928545	

1.882e+10	0.1426068	-0.1524463	-0.05343522	0.06729774	0.1317132	-0.06477664	-0.003940272	0.01841108	
-0.05343522	0.06729774	0.1116273	-0.1059896	0.001605117	0.01506674	0.07809427	-0.03990268	
0.1317132	-0.06477664	0.001605117	0.01506674	0.1382935	-0.02428757	-0.08818365	0.02694362	
-0.003940272	0.01841108	0.07809427	-0.03990268	-0.08818365	0.02694362	0.07614545	-0.05504521	

1.884e+10	0.1343341	-0.1556989	-0.00489933	0.08593545	0.1231827	-0.0731987	0.007482999	0.01763397	
-0.00489933	0.08593545	0.1168757	-0.1076535	0.0100652	0.01158278	0.08271071	-0.03922618	
0.1231827	-0.0731987	0.0100652	0.01158278	0.1440171	-0.03195682	-0.05644795	0.07274604	
0.007482999	0.01763397	0.08271071	-0.03922618	-0.05644795	0.07274604	0.08161241	-0.05480405	

1.886e+10	0.1243945	-0.1577937	0.04555122	0.07325802	0.1126751	-0.07997047	0.01646686	0.01038861	
0.04555122	0.07325802	0.1184589	-0.1129686	0.01502441	0.003810132	0.08539299	-0.04283435	
0.1126751	-0.07997047	0.01502441	0.003810132	0.1492042	-0.04150701	-0.004265758	0.091852	
0.01646686	0.01038861	0.08539299	-0.04283435	-0.004265758	0.091852	0.08511062	-0.0594889	

1.888e+10	0.1137974	-0.1560552	0.07973906	0.0337438	0.1004748	-0.08316727	0.01991548	-0.0008113428	
0.07973906	0.0337438	0.1155787	-0.1166609	0.01473197	-0.005453612	0.08381941	-0.04660348	
0.1004748	-0.08316727	0.01473197	-0.005453612	0.1525268	-0.05213239	0.04937049	0.07752302	
0.01991548	-0.0008113428	0.08381941	-0.04660348	0.04937049	0.07752302	0.08339178	-0.06457347	

1.89e+10	0.1059833	-0.1503746	0.08492555	-0.01860684	0.08890083	-0.08190614	0.01637941	-0.01243851	
0.08492555	-0.01860684	0.11235	-0.1160578	0.009221139	-0.01312571	0.0804534	-0.04699622	
0.08890083	-0.08190614	0.009221139	-0.01312571	0.1542431	-0.0625407	0.08504002	0.03487399	
0.01637941	-0.01243851	0.0804534	-0.04699622	0.08504002	0.03487399	0.07903409	-0.06515763	

1.892e+10	0.1027871	-0.1440597	0.0585683	-0.06456692	0.08024509	-0.07767334	0.006325774	-0.02028977	
0.0585683	-0.06456692	0.1125626	-0.1136523	2.468816e-05	-0.01644798	0.0791834	-0.04473234	
0.08024509	-0.07767334	2.468816e-05	-0.01644798	0.1556352	-0.0725871	0.08950473	-0.0206457	
0.006325774	-0.02028977	0.0791834	-0.04473234	0.08950473	-0.0206457	0.07760918	-0.06147038	

1.894e+10	0.1021663	-0.1401923	0.0102958	-0.08661321	0.07447414	-0.07300689	-0.006936964	-0.02069638	
0.0102958	-0.08661321	0.1153885	-0.1135227	-0.009727077	-0.01373804	0.08069592	-0.0432724	
0.07447414	-0.07300689	-0.009727077	-0.01373804	0.1570109	-0.08370577	0.06098484	-0.06843346	
-0.006936964	-0.02069638	0.08069592	-0.0432724	0.06098484	-0.06843346	0.08128065	-0.05864733	

1.896e+10	0.1008726	-0.1381282	-0.04177243	-0.07652069	0.06978104	-0.06865029	-0.0181203	-0.01298243	
-0.04177243	-0.07652069	0.1171056	-0.1161813	-0.016197	-0.005640392	0.08237564	-0.04423239	
0.06978104	-0.06865029	-0.016197	-0.005640392	0.1569792	-0.09677075	0.01025157	-0.09080817	
-0.0181203	-0.01298243	0.08237564	-0.04423239	0.01025157	-0.09080817	0.0862491	-0.06075642	

1.898e+10	0.0987847	-0.1349722	-0.07832166	-0.03816619	0.06550203	-0.06331425	-0.02274198	3.175381e-05	
-0.07832166	-0.03816619	0.1162301	-0.1186862	-0.01674903	0.004881897	0.08219945	-0.04591337	
0.06550203	-0.06331425	-0.01674903	0.004881897	0.1538628	-0.1108755	-0.04385125	-0.07986415	
-0.02274198	3.175381e-05	0.08219945	-0.04591337	-0.04385125	-0.07986415	0.08735725	-0.06603901	

1.9e+10	0.09880439	-0.1301181	-0.08586524	0.01427649	0.06314326	-0.0562329	-0.0188446	0.01362118	
-0.08586524	0.01427649	0.1148972	-0.118992	-0.01100555	0.01395046	0.08106628	-0.04622439	
0.06314326	-0.0562329	-0.01100555	0.01395046	0.1476107	-0.1241677	-0.08168037	-0.03982053	
-0.0188446	0.01362118	0.08106628	-0.04622439	-0.08168037	-0.03982053	0.08407584	-0.06921317	

1.902e+10	0.1023772	-0.1266195	-0.06154354	0.06128629	0.06430978	-0.04904593	-0.0073854	0.02259566	
-0.06154354	0.06128629	0.1154003	-0.1184204	-0.0008311625	0.0180739	0.08101831	-0.04549697	
0.06430978	-0.04904593	-0.0008311625	0.0180739	0.1395784	-0.1359143	-0.08943075	0.01456472	
-0.0073854	0.02259566	0.08101831	-0.04549697	-0.08943075	0.01456472	0.08081908	-0.06762559	

1.904e+10	0.1069548	-0.1272651	-0.01458607	0.0853141	0.0681891	-0.04420135	0.007546331	0.02299964	
-0.01458607	0.0853141	0.1170552	-0.1193618	0.01004704	0.01539215	0.08214682	-0.04567915	
0.0681891	-0.04420135	0.01004704	0.01539215	0.1303446	-0.1470327	-0.0643584	0.06331109	
0.007546331	0.02299964	0.08214682	-0.04567915	-0.0643584	0.06331109	0.08177589	-0.06406058	

1.906e+10	0.1087882	-0.1309197	0.03729717	0.07772331	0.07229699	-0.04230113	0.0199409	0.01426681	
0.03729717	0.07772331	0.1175072	-0.1218098	0.01736738	0.006714054	0.08255583	-0.04732419	
0.07229699	-0.04230113	0.01736738	0.006714054	0.1189257	-0.1579803	-0.01597866	0.08845132	
0.0199409	0.01426681	0.08255583	-0.04732419	-0.01597866	0.08845132	0.08626293	-0.06335715	

1.908e+10	0.1073804	-0.1338507	0.07509636	0.04168487	0.0752416	-0.0415733	0.02478081	-0.0002428949	
0.07509636	0.04168487	0.1161626	-0.1234499	0.01826013	-0.004726811	0.08117229	-0.04862103	
0.0752416	-0.0415733	0.01826013	-0.004726811	0.1040585	-0.1675809	0.03778106	0.08111044	
0.02478081	-0.0002428949	0.08117229	-0.04862103	0.03778106	0.08111044	0.0898064	-0.06699084	

1.91e+10	0.1057045	-0.1344665	0.08504369	-0.009385305	0.07806917	-0.04058657	0.02009677	-0.01495568	
0.08504369	-0.009385305	0.1150602	-0.1230033	0.0122508	-0.01470439	0.07950554	-0.04790594	
0.07806917	-0.04058657	0.0122508	-0.01470439	0.08628267	-0.1736783	0.07728139	0.04432398	
0.02009677	-0.01495568	0.07950554	-0.04790594	0.07728139	0.04432398	0.08916127	-0.07167725	

1.912e+10	0.1058324	-0.1350653	0.063609	-0.05658201	0.08233009	-0.04019243	0.007445026	-0.02419442	
0.063609	-0.05658201	0.1161001	-0.1221602	0.001314635	-0.01938347	0.07977477	-0.04613599	
0.08233009	-0.04019243	0.001314635	-0.01938347	0.06758595	-0.1753991	0.0882876	-0.008333198	
0.007445026	-0.02419442	0.07977477	-0.04613599	0.0882876	-0.008333198	0.08576598	-0.07329768	

1.914e+10	0.1059533	-0.1382608	0.01912225	-0.08240748	0.08737981	-0.04247648	-0.008408914	-0.02405245	
0.01912225	-0.08240748	0.1182611	-0.1232354	-0.01048255	-0.01660742	0.08183423	-0.04578998	
0.08737981	-0.04247648	-0.01048255	-0.01660742	0.04967208	-0.1737076	0.06695209	-0.05739502	
-0.008408914	-0.02405245	0.08183423	-0.04578998	0.06695209	-0.05739502	0.08369896	-0.07119058	

1.916e+10	0.1026925	-0.1430698	-0.03161412	-0.0778562	0.09077019	-0.0478496	-0.02103727	-0.01437757	
-0.03161412	-0.0778562	0.1190398	-0.1259736	-0.01834338	-0.007244148	0.08332369	-0.04767166	
0.09077019	-0.0478496	-0.01834338	-0.007244148	0.03230019	-0.1699681	0.02149885	-0.08489408	
-0.02103727	-0.01437757	0.08332369	-0.04767166	0.02149885	-0.08489408	0.0853251	-0.06837297	

1.918e+10	0.09537378	-0.1457242	-0.07018562	-0.04531828	0.09069397	-0.05444274	-0.02530119	0.0007730214	
-0.07018562	-0.04531828	0.117909	-0.1280948	-0.01903727	0.004880857	0.08267689	-0.04998023	
0.09069397	-0.05444274	-0.01903727	0.004880857	0.01446332	-0.1641942	-0.03090346	-0.08122579	
-0.02530119	0.0007730214	0.08267689	-0.04998023	-0.03090346	-0.08122579	0.08944434	-0.06823459	

1.92e+10	0.08678513	-0.1438483	-0.08319394	0.003108743	0.0873778	-0.05993865	-0.01995711	0.01519774	
-0.08319394	0.003108743	0.1166198	-0.1285009	-0.01261368	0.01487881	0.08075952	-0.0508314	
0.0873778	-0.05993865	-0.01261368	0.01487881	-0.004418517	-0.154987	-0.0713553	-0.04865704	
-0.01995711	0.01519774	0.08075952	-0.0508314	-0.0713553	-0.04865704	0.09272724	-0.07166	

1.922e+10	0.08010522	-0.1382722	-0.06632154	0.05023141	0.08237784	-0.06308747	-0.007622217	0.0238118	
-0.06632154	0.05023141	0.11653	-0.1281232	-0.001933116	0.01938787	0.07924496	-0.04998051	
0.08237784	-0.06308747	-0.001933116	0.01938787	-0.02319873	-0.1405584	-0.08614717	0.000811942	
-0.007622217	0.0238118	0.07924496	-0.04998051	-0.08614717	0.000811942	0.09238854	-0.0764223	

1.924e+10	0.07599444	-0.1315467	-0.02532018	0.0793386	0.07722776	-0.06425017	0.0074141	0.02410141	
-0.02532018	0.0793386	0.1175258	-0.1282838	0.009476322	0.01732465	0.07928136	-0.04842584	
0.07722776	-0.06425017	0.009476322	0.01732465	-0.03924071	-0.1202703	-0.07019304	0.05006821	
0.0074141	0.02410141	0.07928136	-0.04842584	-0.07019304	0.05006821	0.08887478	-0.07854684	

1.926e+10	0.07263482	-0.124559	0.02518015	0.07943561	0.07180709	-0.06429321	0.02027236	0.01565922	
0.02518015	0.07943561	0.1185592	-0.1294663	0.01811458	0.009048973	0.08079051	-0.04774702	
0.07180709	-0.06429321	0.01811458	0.009048973	-0.0504521	-0.09585306	-0.02859118	0.08146123	
0.02027236	0.01565922	0.08079051	-0.04774702	-0.02859118	0.08146123	0.08611802	-0.07656135	

1.928e+10	0.06950098	-0.1152449	0.06650309	0.05015372	0.06564239	-0.06236855	0.02603711	0.0009379468	
0.06650309	0.05015372	0.1188957	-0.1310134	0.02060312	-0.003185961	0.0824013	-0.04871064	
0.06564239	-0.06236855	0.02060312	-0.003185961	-0.05666462	-0.06864199	0.02374839	0.08298993	
0.02603711	0.0009379468	0.0824013	-0.04871064	0.02374839	0.08298993	0.08731502	-0.07310773	

1.93e+10	0.06943937	-0.1024075	0.08312326	0.002297161	0.06010879	-0.05724883	0.02197058	-0.01471302	
0.08312326	0.002297161	0.1189338	-0.1322054	0.01529355	-0.01507306	0.08286181	-0.05063864	
0.06010879	-0.05724883	0.01529355	-0.01507306	-0.05739156	-0.03903256	0.06726902	0.05380981	
0.02197058	-0.01471302	0.08286181	-0.05063864	0.06726902	0.05380981	0.0918652	-0.07221293	

1.932e+10	0.07538065	-0.08876012	0.06881611	-0.04622682	0.05757139	-0.04977149	0.009259805	-0.02512816	
0.06881611	-0.04622682	0.1191702	-0.1334439	0.003537864	-0.0217856	0.08198013	-0.05239824	
0.05757139	-0.04977149	0.003537864	-0.0217856	-0.05096707	-0.007717143	0.08567784	0.004885243	
0.009259805	-0.02512816	0.08198013	-0.05239824	0.08567784	0.004885243	0.09609452	-0.07563523	

1.934e+10	0.08641132	-0.07837499	0.02907401	-0.0772478	0.05853474	-0.04247025	-0.007370508	-0.02608157	
0.02907401	-0.0772478	0.1189914	-0.1351261	-0.01035528	-0.02010601	0.08021082	-0.0531226	
0.05853474	-0.04247025	-0.01035528	-0.02010601	-0.03618317	0.02252204	0.07231249	-0.04540376	
-0.007370508	-0.02608157	0.08021082	-0.0531226	0.07231249	-0.04540376	0.09639536	-0.0812501	

1.936e+10	0.09888014	-0.07234548	-0.0210788	-0.07933138	0.06133182	-0.03680964	-0.02160373	-0.01693949	
-0.0210788	-0.07933138	0.1177697	-0.1362451	-0.02075591	-0.0101323	0.07851269	-0.05229219	
0.06133182	-0.03680964	-0.02075591	-0.0101323	-0.01387686	0.04868285	0.03244381	-0.07841529	
-0.02160373	-0.01693949	0.07851269	-0.05229219	0.03244381	-0.07841529	0.09250188	-0.08466736	

1.938e+10	0.1110073	-0.06834556	-0.06277424	-0.05198676	0.06446929	-0.03192293	-0.02778533	-0.0008392107	
-0.06277424	-0.05198676	0.1167913	-0.1356099	-0.02308822	0.00445445	0.0782988	-0.05024378	
0.06446929	-0.03192293	-0.02308822	0.00445445	0.01366128	0.06911479	-0.01884421	-0.08208063	
-0.02778533	-0.0008392107	0.0782988	-0.05024378	-0.01884421	-0.08208063	0.08817672	-0.0829919	

1.94e+10	0.1247139	-0.06476985	-0.08053931	-0.005815518	0.06886188	-0.02665585	-0.02298749	0.01606017	
-0.08053931	-0.005815518	0.1180905	-0.1343203	-0.01589272	0.01773762	0.08042752	-0.04878925	
0.06886188	-0.02665585	-0.01589272	0.01773762	0.04494918	0.08385447	-0.06229045	-0.05544029	
-0.02298749	0.01606017	0.08042752	-0.04878925	-0.06229045	-0.05544029	0.08828281	-0.07811427	

1.942e+10	0.1419915	-0.06388202	-0.06822927	0.04141883	0.07598057	-0.02201257	-0.008806661	0.02666009	
-0.06822927	0.04141883	0.12134	-0.1353401	-0.001870553	0.02386882	0.08351284	-0.05009629	
0.07598057	-0.02201257	-0.001870553	0.02386882	0.07948634	0.09249953	-0.08188233	-0.009141165	
-0.008806661	0.02666009	0.08351284	-0.05009629	-0.08188233	-0.009141165	0.09376473	-0.07557487	

1.944e+10	0.1610096	-0.06907202	-0.03146181	0.0722882	0.0854017	-0.02030776	0.008773198	0.02651528	
-0.03146181	0.0722882	0.1230774	-0.1395892	0.01294762	0.02004618	0.08440687	-0.05406975	
0.0854017	-0.02030776	0.01294762	0.02004618	0.1165749	0.09366165	-0.07126967	0.03914844	
0.008773198	0.02651528	0.08440687	-0.05406975	-0.07126967	0.03914844	0.09997943	-0.07915468	

1.946e+10	0.1776766	-0.08051916	0.01563484	0.07637001	0.09476723	-0.02234091	0.02259322	0.01607101	
0.01563484	0.07637001	0.1207111	-0.1439191	0.02220844	0.008107363	0.08139466	-0.05744953	
0.09476723	-0.02234091	0.02220844	0.008107363	0.1537711	0.08604896	-0.03544232	0.07202831	
0.02259322	0.01607101	0.08139466	-0.05744953	-0.03544232	0.07202831	0.1010182	-0.08668099	

1.948e+10	0.1897885	-0.09511772	0.05612388	0.05297546	0.1023801	-0.02676155	0.027597	-0.000332399	
0.05612388	0.05297546	0.1161831	-0.1441725	0.02236394	-0.006752072	0.07674399	-0.05667364	
0.1023801	-0.02676155	0.02236394	-0.006752072	0.1882747	0.07006736	0.01206962	0.07839027	
0.027597	-0.000332399	0.07674399	-0.05667364	0.01206962	0.07839027	0.09575486	-0.0916109	

1.95e+10	0.198651	-0.110241	0.07558281	0.01097178	0.1085165	-0.03194225	0.02199645	-0.01654303	
0.07558281	0.01097178	0.1146713	-0.1402607	0.01369924	-0.01854729	0.07523903	-0.05204942	
0.1085165	-0.03194225	0.01369924	-0.01854729	0.2179683	0.04752875	0.05410237	0.05671985	
0.02199645	-0.01654303	0.07523903	-0.05204942	0.05410237	0.05671985	0.08956648	-0.08944463	

1.952e+10	0.2062345	-0.1265193	0.06735955	-0.0339933	0.114303	-0.03792385	0.007786938	-0.02620762	
0.06735955	-0.0339933	0.1186555	-0.1372505	-0.0001294392	-0.02267963	0.07905409	-0.04840646	
0.114303	-0.03792385	-0.0001294392	-0.02267963	0.2423903	0.02019305	0.07588527	0.01544455	
0.007786938	-0.02620762	0.07905409	-0.04840646	0.07588527	0.01544455	0.08932629	-0.08278658	

1.954e+10	0.2116808	-0.1458108	0.03543163	-0.06552942	0.1195812	-0.04576649	-0.009167783	-0.02532572	
0.03543163	-0.06552942	0.1243851	-0.1399408	-0.01333554	-0.01770329	0.0846464	-0.05026335	
0.1195812	-0.04576649	-0.01333554	-0.01770329	0.261373	-0.01089674	0.07031858	-0.03014584	
-0.009167783	-0.02532572	0.0846464	-0.05026335	0.07031858	-0.03014584	0.09610686	-0.07926947	

1.956e+10	0.2121797	-0.1678763	-0.008013854	-0.07329218	0.1229221	-0.05576513	-0.02184019	-0.01478136	
-0.008013854	-0.07329218	0.1256915	-0.1469476	-0.02060659	-0.006182274	0.0861163	-0.05648826	
0.1229221	-0.05576513	-0.02060659	-0.006182274	0.2744035	-0.04531503	0.04033133	-0.06404258	
-0.02184019	-0.01478136	0.0861163	-0.05648826	0.04033133	-0.06404258	0.1036605	-0.08350316	

1.958e+10	0.2063198	-0.1895747	-0.04790072	-0.05545437	0.1232438	-0.06656261	-0.02585293	0.0006047433	
-0.04790072	-0.05545437	0.1209225	-0.1520096	-0.01969633	0.006793526	0.08160624	-0.06125833	
0.1232438	-0.06656261	-0.01969633	0.006793526	0.2804184	-0.08185133	-0.003007016	-0.07499874	
-0.02585293	0.0006047433	0.08160624	-0.06125833	-0.003007016	-0.07499874	0.1048244	-0.09234685	

1.96e+10	0.1957225	-0.2080592	-0.07073053	-0.01826582	0.1209763	-0.07669694	-0.02054015	0.01519891	
-0.07073053	-0.01826582	0.1148878	-0.1506263	-0.0118224	0.01643444	0.07527013	-0.05994553	
0.1209763	-0.07669694	-0.0118224	0.01643444	0.2788808	-0.1187227	-0.04472239	-0.05973817	
-0.02054015	0.01519891	0.07527013	-0.05994553	-0.04472239	-0.05973817	0.09864161	-0.09798956	

1.962e+10	0.1830895	-0.2232302	-0.06827995	0.02533884	0.1173177	-0.08582587	-0.007926285	0.02415054	
-0.06827995	0.02533884	0.1141056	-0.1449451	-0.0002499244	0.01977742	0.07343835	-0.05386694	
0.1173177	-0.08582587	-0.0002499244	0.01977742	0.2703497	-0.1538485	-0.07041256	-0.02369644	
-0.007926285	0.02415054	0.07343835	-0.05386694	-0.07041256	-0.02369644	0.09151003	-0.09551917	

1.964e+10	0.1690995	-0.2368501	-0.04134099	0.0595484	0.1127143	-0.09483024	0.007605805	0.02409613	
-0.04134099	0.0595484	0.1197362	-0.1419296	0.01091719	0.016004	0.07815793	-0.04941512	
0.1127143	-0.09483024	0.01091719	0.016004	0.2559983	-0.1862805	-0.07109961	0.02042778	
0.007605805	0.02409613	0.07815793	-0.04941512	-0.07109961	0.02042778	0.09107174	-0.08811298	

1.966e+10	0.1520807	-0.2494221	-5.666176e-05	0.07214398	0.1062555	-0.1041548	0.01998958	0.01491878	
-5.666176e-05	0.07214398	0.1260097	-0.1458961	0.01770713	0.006713227	0.0846499	-0.05152867	
0.1062555	-0.1041548	0.01770713	0.006713227	0.236642	-0.2156752	-0.04673818	0.05694051	
0.01998958	0.01491878	0.0846499	-0.05152867	-0.04673818	0.05694051	0.09827903	-0.08408369	

1.968e+10	0.1306913	-0.2587698	0.04087641	0.0592825	0.09674766	-0.1129492	0.02448661	0.0006015189	
0.04087641	0.0592825	0.1265088	-0.1537023	0.01792515	-0.004398858	0.0863518	-0.05840744	
0.09674766	-0.1129492	0.01792515	-0.004398858	0.2121936	-0.2417816	-0.006212478	0.0731858	
0.02448661	0.0006015189	0.0863518	-0.05840744	-0.006212478	0.0731858	0.1063679	-0.08835852	

1.97e+10	0.1065549	-0.2620981	0.06750783	0.0255441	0.08438247	-0.1194515	0.02015066	-0.01325615	
0.06750783	0.0255441	0.1209516	-0.1584272	0.01215391	-0.0133462	0.08163889	-0.06358618	
0.08438247	-0.1194515	0.01215391	-0.0133462	0.1826578	-0.2632708	0.03633637	0.06378978	
0.02015066	-0.01325615	0.08163889	-0.06358618	0.03633637	0.06378978	0.1078238	-0.09759051	

1.972e+10	0.08294379	-0.2589295	0.07031345	-0.01778159	0.07045748	-0.1227225	0.009071998	-0.02222582	
0.07031345	-0.01778159	0.1150755	-0.156433	0.002768809	-0.01763091	0.07507923	-0.06249374	
0.07045748	-0.1227225	0.002768809	-0.01763091	0.1488425	-0.2785466	0.06626638	0.03193033	
0.009071998	-0.02222582	0.07507923	-0.06249374	0.06626638	0.03193033	0.1016335	-0.1036579	

1.974e+10	0.06170576	-0.2513155	0.0474392	-0.05524476	0.05615067	-0.1231203	-0.005230261	-0.02355327	
0.0474392	-0.05524476	0.1147864	-0.1509299	-0.007398654	-0.01630268	0.07288725	-0.05662481	
0.05615067	-0.1231203	-0.007398654	-0.01630268	0.1126994	-0.2865439	0.0728745	-0.01158117	
-0.005230261	-0.02355327	0.07288725	-0.05662481	0.0728745	-0.01158117	0.09425718	-0.1015465	

1.976e+10	0.04210909	-0.240877	0.00683896	-0.07260562	0.04136777	-0.1212049	-0.01798889	-0.01634569	
0.00683896	-0.07260562	0.1201554	-0.1485226	-0.01540459	-0.009588514	0.07696515	-0.05204275	
0.04136777	-0.1212049	-0.01540459	-0.009588514	0.0758538	-0.2874811	0.05328739	-0.05131903	
-0.01798889	-0.01634569	0.07696515	-0.05204275	0.05328739	-0.05131903	0.09333509	-0.09431435	

1.978e+10	0.0230027	-0.2265753	-0.03630857	-0.06324468	0.02555264	-0.1163266	-0.02419858	-0.00287694	
-0.03630857	-0.06324468	0.1256086	-0.1522671	-0.01846599	0.000693254	0.083082	-0.05334589	
0.02555264	-0.1163266	-0.01846599	0.000693254	0.03914331	-0.2816934	0.01429087	-0.07270684	
-0.02419858	-0.00287694	0.083082	-0.05334589	0.01429087	-0.07270684	0.1000047	-0.0900004	

1.98e+10	0.006013049	-0.2062424	-0.06618345	-0.03073538	0.009448349	-0.1067928	-0.02138311	0.01161491	
-0.06618345	-0.03073538	0.1261064	-0.1590154	-0.01519179	0.01118808	0.085406	-0.05927475	
0.009448349	-0.1067928	-0.01519179	0.01118808	0.00315633	-0.2687015	-0.02997578	-0.06786792	
-0.02138311	0.01161491	0.085406	-0.05927475	-0.02997578	-0.06786792	0.1080045	-0.09353994	

1.982e+10	-0.005072395	-0.1800186	-0.07190263	0.0132485	-0.004625381	-0.0916864	-0.01088056	0.02180396	
-0.07190263	0.0132485	0.1218055	-0.1633075	-0.006418255	0.01829694	0.08207277	-0.06450839	
-0.004625381	-0.0916864	-0.006418255	0.01829694	-0.03063369	-0.2474913	-0.0636105	-0.03847838	
-0.01088056	0.02180396	0.08207277	-0.06450839	-0.0636105	-0.03847838	0.1101363	-0.1022304	

1.984e+10	-0.007639566	-0.1514875	-0.05085005	0.05269357	-0.01402036	-0.0723307	0.00359534	0.0243682	
-0.05085005	0.05269357	0.1170147	-0.1626274	0.005309757	0.01939324	0.0762972	-0.06489039	
-0.01402036	-0.0723307	0.005309757	0.01939324	-0.05921145	-0.2180848	-0.07435595	0.005134273	
0.00359534	0.0243682	0.0762972	-0.06489039	-0.07435595	0.005134273	0.104949	-0.1086779	

1.986e+10	-0.002600814	-0.1244728	-0.01044064	0.0723546	-0.01792174	-0.05103363	0.01737043	0.01814476	
-0.01044064	0.0723546	0.1158072	-0.1589337	0.01623577	0.01332388	0.07305284	-0.06067333	
-0.01792174	-0.05103363	0.01623577	0.01332388	-0.07998761	-0.1822169	-0.05783701	0.04720434	
0.01737043	0.01814476	0.07305284	-0.06067333	-0.05783701	0.04720434	0.09782672	-0.1078122	

1.988e+10	0.007649102	-0.09988755	0.03372068	0.06429931	-0.01682332	-0.02916235	0.02524097	0.004522923	
0.03372068	0.06429931	0.1188394	-0.156378	0.02192709	0.001219849	0.074914	-0.05592261	
-0.01682332	-0.02916235	0.02192709	0.001219849	-0.09160525	-0.1427446	-0.01977689	0.07189757	
0.02524097	0.004522923	0.074914	-0.05592261	-0.01977689	0.07189757	0.09581823	-0.1015235	

1.99e+10	0.02297971	-0.07708883	0.06418146	0.03202347	-0.01051835	-0.007009562	0.02326659	-0.01160232	
0.06418146	0.03202347	0.1234369	-0.1577194	0.01897642	-0.01270169	0.08009527	-0.05498417	
-0.01051835	-0.007009562	0.01897642	-0.01270169	-0.09396064	-0.1017529	0.02542706	0.0697126	
0.02326659	-0.01160232	0.08009527	-0.05498417	0.02542706	0.0697126	0.1010175	-0.09671339	

1.992e+10	0.04500936	-0.05758864	0.06969726	-0.01118478	0.00225534	0.01401165	0.01170765	-0.02332571	
0.06969726	-0.01118478	0.1259851	-0.1626299	0.007532468	-0.02227804	0.08411557	-0.05893993	
0.00225534	0.01401165	0.007532468	-0.02227804	-0.08668589	-0.0611955	0.06057595	0.04185256	
0.01170765	-0.02332571	0.08411557	-0.05893993	0.06057595	0.04185256	0.1087773	-0.09866787	

1.994e+10	0.07320739	-0.0454489	0.04939871	-0.04863728	0.0216978	0.03076772	-0.004550153	-0.02562211	
0.04939871	-0.04863728	0.1243368	-0.1681911	-0.007858549	-0.02265576	0.08343231	-0.0648638	
0.0216978	0.03076772	-0.007858549	-0.02265576	-0.0694564	-0.02353672	0.07294545	-0.0007200212	
-0.004550153	-0.02562211	0.08343231	-0.0648638	0.07294545	-0.0007200212	0.1122867	-0.1063551	

1.996e+10	0.1030295	-0.04361252	0.01199715	-0.0669455	0.04513306	0.04010623	-0.01882449	-0.017789	
0.01199715	-0.0669455	0.1193882	-0.1706054	-0.02033643	-0.01315623	0.07824277	-0.06804178	
0.04513306	0.04010623	-0.02033643	-0.01315623	-0.04336178	0.007630246	0.0586927	-0.04211289	
-0.01882449	-0.017789	0.07824277	-0.06804178	0.0586927	-0.04211289	0.1086968	-0.1136335	

1.998e+10	0.12906	-0.05072363	-0.0281152	-0.06040331	0.06838867	0.04160712	-0.02559733	-0.003029644	
-0.0281152	-0.06040331	0.1151946	-0.1680361	-0.02416681	0.002169585	0.07269668	-0.06562659	
0.06838867	0.04160712	-0.02416681	0.002169585	-0.01163965	0.02957925	0.02366056	-0.06746956	
-0.02559733	-0.003029644	0.07269668	-0.06562659	0.02366056	-0.06746956	0.1015596	-0.1146591	

2e+10	0.1488973	-0.06254479	-0.05633972	-0.03269841	0.08864338	0.03747908	-0.02209948	0.0128364	
-0.05633972	-0.03269841	0.116095	-0.1631625	-0.01753338	0.01649953	0.07196156	-0.05957833	
0.08864338	0.03747908	-0.01753338	0.01649953	0.02162566	0.04196902	-0.01900316	-0.06810758	
-0.02209948	0.0128364	0.07196156	-0.05957833	-0.01900316	-0.06810758	0.09789955	-0.1092143	

2.002e+10	0.1632207	-0.07546006	-0.06348733	0.004885084	0.1050202	0.0303582	-0.009733089	0.02310893	
-0.06348733	0.004885084	0.1219985	-0.1618504	-0.003592394	0.02334016	0.07721952	-0.05587913	
0.1050202	0.0303582	-0.003592394	0.02334016	0.05305571	0.04659253	-0.05384375	-0.04463848	
-0.009733089	0.02310893	0.07721952	-0.05587913	-0.05384375	-0.04463848	0.1016854	-0.1034108	

2.004e+10	0.1738717	-0.08766138	-0.04890876	0.03897352	0.1181726	0.02236312	0.005769512	0.02362985	
-0.04890876	0.03897352	0.127221	-0.1669893	0.01102914	0.02007022	0.083537	-0.05882413	
0.1181726	0.02236312	0.01102914	0.02007022	0.08157141	0.04644075	-0.06905483	-0.006114389	
0.005769512	0.02362985	0.083537	-0.05882413	-0.06905483	-0.006114389	0.1096077	-0.1038322	

2.006e+10	0.1828781	-0.09877871	-0.01855892	0.05911311	0.129651	0.01459585	0.01786498	0.01530889	
-0.01855892	0.05911311	0.1263348	-0.1747943	0.02012442	0.009162322	0.0845889	-0.06614517	
0.129651	0.01459585	0.02012442	0.009162322	0.1082262	0.04355054	-0.0599983	0.03397306	
0.01786498	0.01530889	0.0845889	-0.06614517	-0.0599983	0.03397306	0.1144193	-0.1109226	

2.008e+10	0.191528	-0.1099023	0.01793366	0.05914907	0.1410959	0.006379241	0.02287748	0.002251501	
0.01793366	0.05914907	0.1199675	-0.1786584	0.02103622	-0.004298988	0.07911393	-0.071252	
0.1410959	0.006379241	0.02103622	-0.004298988	0.1346685	0.03752918	-0.02988016	0.06189276	
0.02287748	0.002251501	0.07911393	-0.071252	-0.02988016	0.06189276	0.1120116	-0.1189387	

2.01e+10	0.1994176	-0.1220836	0.04835425	0.03833885	0.1523945	-0.003722579	0.01990016	-0.01119304	
0.04835425	0.03833885	0.1141009	-0.1756664	0.01426557	-0.01551967	0.07201302	-0.06955674	
0.1523945	-0.003722579	0.01426557	-0.01551967	0.1602662	0.026669	0.01082681	0.06761669	
0.01990016	-0.01119304	0.07201302	-0.06955674	0.01082681	0.06761669	0.1049197	-0.1213921	

2.012e+10	0.2059074	-0.1350965	0.06119314	0.003685062	0.162332	-0.01601406	0.009643112	-0.02076956	
0.06119314	0.003685062	0.1145752	-0.1694498	0.002326245	-0.02075202	0.06995071	-0.06275657	
0.162332	-0.01601406	0.002326245	-0.02075202	0.1826391	0.01099888	0.0473124	0.0489199	
0.009643112	-0.02076956	0.06995071	-0.06275657	0.0473124	0.0489199	0.1000687	-0.1167934	

2.014e+10	0.2111624	-0.1487766	0.05160483	-0.03157642	0.1702984	-0.02999663	-0.004676391	-0.02240415	
0.05160483	-0.03157642	0.1212407	-0.1672108	-0.0105096	-0.01784176	0.07505031	-0.05769017	
0.1702984	-0.02999663	-0.0105096	-0.01784176	0.200427	-0.007573512	0.06615255	0.01294385	
-0.004676391	-0.02240415	0.07505031	-0.05769017	0.06615255	0.01294385	0.1025344	-0.1104136	

2.016e+10	0.2150864	-0.1631944	0.02419432	-0.05434134	0.1759961	-0.044887	-0.01702285	-0.01476647	
0.02419432	-0.05434134	0.1275234	-0.1724513	-0.0188927	-0.007629312	0.08232867	-0.05974067	
0.1759961	-0.044887	-0.0188927	-0.007629312	0.2139807	-0.02686094	0.0610499	-0.02667458	
-0.01702285	-0.01476647	0.08232867	-0.05974067	0.0610499	-0.02667458	0.1103213	-0.1094315	

2.018e+10	0.2176178	-0.1781371	-0.01027544	-0.05768598	0.1799547	-0.06001998	-0.02174759	-0.001436848	
-0.01027544	-0.05768598	0.1271326	-0.1811869	-0.01900873	0.005396848	0.08465237	-0.06734036	
0.1799547	-0.06001998	-0.01900873	0.005396848	0.2248527	-0.04595118	0.03490646	-0.05587937	
-0.02174759	-0.001436848	0.08465237	-0.06734036	0.03490646	-0.05587937	0.1162891	-0.1157828	

2.02e+10	0.219163	-0.1939673	-0.04030787	-0.0418422	0.1831262	-0.0758159	-0.01752585	0.01122981	
-0.04030787	-0.0418422	0.1202319	-0.1859926	-0.01119675	0.01514812	0.07962717	-0.07367106	
0.1831262	-0.0758159	-0.01119675	0.01514812	0.2343946	-0.06548384	-0.002498092	-0.06535427	
-0.01752585	0.01122981	0.07962717	-0.07367106	-0.002498092	-0.06535427	0.1150556	-0.1245231	

2.022e+10	0.2191043	-0.2115422	-0.05671883	-0.01224232	0.1851819	-0.09370443	-0.007385391	0.01843679	
-0.05671883	-0.01224232	0.1132997	-0.1829832	0.0001682036	0.0177152	0.07172405	-0.07298692	
0.1851819	-0.09370443	0.0001682036	0.0177152	0.2423686	-0.08688075	-0.03865994	-0.05257142	
-0.007385391	0.01843679	0.07172405	-0.07298692	-0.03865994	-0.05257142	0.1078342	-0.1283025	

2.024e+10	0.2159937	-0.2308078	-0.0539376	0.02172653	0.1842736	-0.1141788	0.004368403	0.01861017	
-0.0539376	0.02172653	0.1133786	-0.1758955	0.009909292	0.01329918	0.06847173	-0.06603467	
0.1842736	-0.1141788	0.009909292	0.01329918	0.2472255	-0.1104599	-0.06164054	-0.02170706	
0.004368403	0.01861017	0.06847173	-0.06603467	-0.06164054	-0.02170706	0.1018469	-0.1241626	

2.026e+10	0.2087651	-0.2507634	-0.03241712	0.04840584	0.1787912	-0.1361186	0.01384464	0.0122845	
-0.03241712	0.04840584	0.1206328	-0.1730904	0.01481758	0.004745711	0.07313474	-0.0600244	
0.1787912	-0.1361186	0.01481758	0.004745711	0.2479928	-0.1349855	-0.06326305	0.01699863	
0.01384464	0.0122845	0.07313474	-0.0600244	-0.06326305	0.01699863	0.1035624	-0.117093	

2.028e+10	0.196695	-0.2701123	0.0004095126	0.05836556	0.1679984	-0.1579211	0.01773411	0.001894353	
0.0004095126	0.05836556	0.1274924	-0.1786783	0.01392892	-0.004412092	0.08085006	-0.06133073	
0.1679984	-0.1579211	0.01392892	-0.004412092	0.2447534	-0.1595223	-0.04258713	0.04993367	
0.01773411	0.001894353	0.08085006	-0.06133073	-0.04258713	0.04993367	0.1115983	-0.1153658	

2.03e+10	0.1797986	-0.2868126	0.03327147	0.04830547	0.1519541	-0.177752	0.01486231	-0.008279731	
0.03327147	0.04830547	0.1269253	-0.1879339	0.008255452	-0.01085804	0.08388245	-0.0688185	
0.1519541	-0.177752	0.008255452	-0.01085804	0.237549	-0.1835988	-0.006862273	0.06539996	
0.01486231	-0.008279731	0.08388245	-0.0688185	-0.006862273	0.06539996	0.1181197	-0.1216902	

2.032e+10	0.1594626	-0.2990739	0.05519973	0.02140613	0.1315221	-0.1940602	0.007189041	-0.01445498	
0.05519973	0.02140613	0.1196227	-0.1926762	0.0005896761	-0.01260221	0.07938772	-0.07553388	
0.1315221	-0.1940602	0.0005896761	-0.01260221	0.2260671	-0.2064349	0.03145382	0.05802973	
0.007189041	-0.01445498	0.07938772	-0.07553388	0.03145382	0.05802973	0.1170836	-0.1307486	

2.034e+10	0.1379221	-0.3064756	0.05830756	-0.01379837	0.1080191	-0.206008	-0.001915139	-0.01530162	
0.05830756	-0.01379837	0.112802	-0.1893924	-0.005941745	-0.009967371	0.07161524	-0.07553797	
0.1080191	-0.206008	-0.005941745	-0.009967371	0.2104262	-0.2268105	0.05915692	0.03016537	
-0.001915139	-0.01530162	0.07161524	-0.07553797	0.05915692	0.03016537	0.109821	-0.134745	

2.036e+10	0.1165459	-0.3102626	0.04046166	-0.04509051	0.08267076	-0.2135247	-0.009688219	-0.01137155	
0.04046166	-0.04509051	0.113187	-0.1825236	-0.009566697	-0.004872372	0.06787855	-0.06923547	
0.08267076	-0.2135247	-0.009566697	-0.004872372	0.1917337	-0.2436325	0.06629427	-0.008877342	
-0.009688219	-0.01137155	0.06787855	-0.06923547	0.06629427	-0.008877342	0.1037841	-0.1307459	

2.038e+10	0.09489419	-0.3115905	0.007478328	-0.06061744	0.05595763	-0.2169187	-0.01402679	-0.00397447	
0.007478328	-0.06061744	0.1201652	-0.1802347	-0.01005581	0.0007666913	0.07161218	-0.06323021	
0.05595763	-0.2169187	-0.01005581	0.0007666913	0.1711713	-0.2569811	0.04969595	-0.04541842	
-0.01402679	-0.00397447	0.07161218	-0.06323021	0.04969595	-0.04541842	0.1053864	-0.1238768	

2.04e+10	0.07190762	-0.3098865	-0.02864572	-0.05442351	0.02789546	-0.2158449	-0.01342435	0.004431883	
-0.02864572	-0.05442351	0.1263094	-0.185754	-0.00781084	0.00556114	0.0787427	-0.06371226	
0.02789546	-0.2158449	-0.00781084	0.00556114	0.1490795	-0.2674694	0.01494611	-0.06599881	
-0.01342435	0.004431883	0.0787427	-0.06371226	0.01494611	-0.06599881	0.1131441	-0.1223001	

2.042e+10	0.04788405	-0.3032528	-0.05504289	-0.02866573	-0.001059156	-0.2092573	-0.008352198	0.01065195	
-0.05504289	-0.02866573	0.1254877	-0.1942048	-0.003717834	0.008366106	0.08216875	-0.07021099	
-0.001059156	-0.2092573	-0.003717834	0.008366106	0.1248534	-0.2749061	-0.02547962	-0.06306426	
-0.008352198	0.01065195	0.08216875	-0.07021099	-0.02547962	-0.06306426	0.1192901	-0.1284658	

2.044e+10	0.02511231	-0.2906572	-0.06233638	0.008018651	-0.02939832	-0.1962402	-0.001296282	0.01286888	
-0.06233638	0.008018651	0.1189262	-0.1983025	0.000841033	0.008772979	0.07880118	-0.07670577	
-0.02939832	-0.1962402	0.000841033	0.008772979	0.09830592	-0.2779156	-0.05728797	-0.03754535	
-0.001296282	0.01286888	0.07880118	-0.07670577	-0.05728797	-0.03754535	0.118129	-0.1370181	

2.046e+10	0.00587054	-0.2731969	-0.04704933	0.04303729	-0.05506971	-0.1769172	0.005385539	0.01137777	
-0.04704933	0.04303729	0.1131783	-0.1955494	0.0048352	0.007274807	0.07189029	-0.07760999	
-0.05506971	-0.1769172	0.0048352	0.007274807	0.07087525	-0.2750243	-0.06911271	0.001942565	
0.005385539	0.01137777	0.07189029	-0.07760999	-0.06911271	0.001942565	0.1113822	-0.14061	

2.048e+10	-0.009363895	-0.2528367	-0.01357212	0.06314694	-0.07662722	-0.1524225	0.01050214	0.00701943	
-0.01357212	0.06314694	0.113496	-0.1901196	0.007991412	0.004302032	0.06781231	-0.07264351	
-0.07662722	-0.1524225	0.007991412	0.004302032	0.04480817	-0.2661647	-0.05602834	0.04170143	
0.01050214	0.00701943	0.06781231	-0.07264351	-0.05602834	0.04170143	0.1060991	-0.1369745	

2.05e+10	-0.02160161	-0.2299777	0.02593352	0.05978562	-0.09367409	-0.1236798	0.01292306	0.0004235991	
0.02593352	0.05978562	0.1189567	-0.1884329	0.009791236	-0.0002489368	0.07011212	-0.06706384	
-0.09367409	-0.1236798	0.009791236	-0.0002489368	0.02132568	-0.252481	-0.02186067	0.06696196	
0.01292306	0.0004235991	0.07011212	-0.06706384	-0.02186067	0.06696196	0.1077298	-0.1311197	

2.052e+10	-0.03038814	-0.2033318	0.0562071	0.03370058	-0.105595	-0.09072986	0.01137139	-0.006810761	
0.0562071	0.03370058	0.1238208	-0.192745	0.008919882	-0.005875326	0.07610583	-0.0664756	
-0.105595	-0.09072986	0.008919882	-0.005875326	0.0006063016	-0.2347192	0.0209704	0.06767334	
0.01137139	-0.006810761	0.07610583	-0.0664756	0.0209704	0.06767334	0.1144917	-0.1301077	

2.054e+10	-0.03284	-0.1726444	0.065612	-0.005303566	-0.1104814	-0.05378993	0.005956242	-0.01215176	
0.065612	-0.005303566	0.1236241	-0.1994552	0.00457896	-0.01065474	0.07990889	-0.07139912	
-0.1104814	-0.05378993	0.00457896	-0.01065474	-0.01694501	-0.2124152	0.05645767	0.04329958	
0.005956242	-0.01215176	0.07990889	-0.07139912	0.05645767	0.04329958	0.119612	-0.1356588	

2.056e+10	-0.02619361	-0.1409162	0.05046564	-0.04271778	-0.1060024	-0.01501089	-0.001592632	-0.01381752	
0.05046564	-0.04271778	0.1190201	-0.2034421	-0.002377823	-0.01229009	0.07815251	-0.07745183	
-0.1060024	-0.01501089	-0.002377823	-0.01229009	-0.02923139	-0.1854605	0.07140867	0.002734382	
-0.001592632	-0.01381752	0.07815251	-0.07745183	0.07140867	0.002734382	0.1185696	-0.1429446	

2.058e+10	-0.01086779	-0.1125164	0.01599621	-0.06437743	-0.09158741	0.02195438	-0.009237404	-0.0112338	
0.01599621	-0.06437743	0.1141999	-0.2025896	-0.009675944	-0.00938975	0.0724577	-0.07964114	
-0.09158741	0.02195438	-0.009675944	-0.00938975	-0.03391162	-0.1559249	0.06008717	-0.03927801	
-0.009237404	-0.0112338	0.0724577	-0.07964114	0.06008717	-0.03927801	0.1131031	-0.1460957	

2.06e+10	0.01004908	-0.08974514	-0.02484166	-0.06148527	-0.06894494	0.05404031	-0.01478825	-0.004414191	
-0.02484166	-0.06148527	0.1130373	-0.1988927	-0.01435632	-0.002119957	0.06775871	-0.076442	
-0.06894494	0.05404031	-0.01435632	-0.002119957	-0.03065141	-0.1270859	0.02615223	-0.0670943	
-0.01478825	-0.004414191	0.06775871	-0.076442	0.02615223	-0.0670943	0.1088283	-0.1435633	

2.062e+10	0.03427277	-0.07195129	-0.05591807	-0.03491435	-0.04031385	0.08012034	-0.01550036	0.005267696	
-0.05591807	-0.03491435	0.1162622	-0.196479	-0.01365506	0.007367872	0.06813422	-0.07107951	
-0.04031385	0.08012034	-0.01365506	0.007367872	-0.02124094	-0.1014093	-0.01779314	-0.0697544	
-0.01550036	0.005267696	0.06813422	-0.07107951	-0.01779314	-0.0697544	0.1098283	-0.1391616	

2.064e+10	0.06208906	-0.05873729	-0.06501664	0.00440959	-0.006785857	0.0997695	-0.009769475	0.01405643	
-0.06501664	0.00440959	0.1209788	-0.198452	-0.006679153	0.01494543	0.07314331	-0.06886413	
-0.006785857	0.0997695	-0.006679153	0.01494543	-0.007560776	-0.07936367	-0.05481074	-0.046204	
-0.009769475	0.01405643	0.07314331	-0.06886413	-0.05481074	-0.046204	0.1150026	-0.1381726	

2.066e+10	0.0936751	-0.0522053	-0.04955391	0.04083457	0.03099001	0.1116178	0.0005806789	0.01757841	
-0.04955391	0.04083457	0.1228643	-0.2042544	0.004080789	0.01646998	0.07797564	-0.07230488	
0.03099001	0.1116178	0.004080789	0.01646998	0.009775737	-0.0608619	-0.0709775	-0.005847885	
0.0005806789	0.01757841	0.07797564	-0.07230488	-0.0709775	-0.005847885	0.1194884	-0.1423603	

2.068e+10	0.1260448	-0.05471952	-0.01655726	0.0610672	0.07056343	0.1137628	0.01107697	0.0140304	
-0.01655726	0.0610672	0.1198142	-0.2098439	0.01360937	0.0106903	0.07787678	-0.07867463	
0.07056343	0.1137628	0.01360937	0.0106903	0.03043143	-0.04679769	-0.06092657	0.03594581	
0.01107697	0.0140304	0.07787678	-0.07867463	-0.06092657	0.03594581	0.1194283	-0.1486079	

2.07e+10	0.1548812	-0.065418	0.02141616	0.05865877	0.108174	0.1062689	0.017488	0.004887014	
0.02141616	0.05865877	0.1140774	-0.2109729	0.0174692	0.0001667553	0.072537	-0.08240165	
0.108174	0.1062689	0.0174692	0.0001667553	0.05287978	-0.03841941	-0.02891861	0.06410727	
0.017488	0.004887014	0.072537	-0.08240165	-0.02891861	0.06410727	0.1152451	-0.1522764	

2.072e+10	0.1781067	-0.08073284	0.05067127	0.03510739	0.1412085	0.09140435	0.01732483	-0.006525439	
0.05067127	0.03510739	0.110815	-0.2071638	0.01407534	-0.01051783	0.06666288	-0.08005956	
0.1412085	0.09140435	0.01407534	-0.01051783	0.07483462	-0.03556771	0.01324521	0.0686652	
0.01732483	-0.006525439	0.06666288	-0.08005956	0.01324521	0.0686652	0.110963	-0.1510909	

2.074e+10	0.1970007	-0.09786486	0.06070681	-0.0005156027	0.1692125	0.07168359	0.01013957	-0.0158835	
0.06070681	-0.0005156027	0.1134411	-0.2029124	0.00483592	-0.01696314	0.06595346	-0.07406097	
0.1692125	0.07168359	0.00483592	-0.01696314	0.09463627	-0.03666329	0.05005428	0.04815149	
0.01013957	-0.0158835	0.06595346	-0.07406097	0.05005428	0.04815149	0.1108013	-0.1471986	

2.076e+10	0.2131415	-0.1168076	0.04853836	-0.03461696	0.1926056	0.0481791	-0.00156749	-0.01890814	
0.04853836	-0.03461696	0.1195666	-0.203829	-0.006485986	-0.01638173	0.07113068	-0.07081358	
0.1926056	0.0481791	-0.006485986	-0.01638173	0.1123295	-0.0398839	0.06806681	0.0105137	
-0.00156749	-0.01890814	0.07113068	-0.07081358	0.06806681	0.0105137	0.1151857	-0.1454429	

2.078e+10	0.2260011	-0.1385696	0.01987999	-0.05507698	0.2110635	0.02104387	-0.01258501	-0.01397707	
0.01987999	-0.05507698	0.1227527	-0.2105382	-0.0149627	-0.008930183	0.07675485	-0.07411871	
0.2110635	0.02104387	-0.0149627	-0.008930183	0.1289286	-0.04458506	0.06126588	-0.03012796	
-0.01258501	-0.01397707	0.07675485	-0.07411871	0.06126588	-0.03012796	0.1200429	-0.1487549	

2.08e+10	0.2337866	-0.1623166	-0.01451975	-0.05590213	0.2233461	-0.008814335	-0.01809275	-0.003628426	
-0.01451975	-0.05590213	0.1193126	-0.2175501	-0.01692816	0.001922734	0.07690278	-0.08105279	
0.2233461	-0.008814335	-0.01692816	0.001922734	0.1447821	-0.05126434	0.03285315	-0.05928574	
-0.01809275	-0.003628426	0.07690278	-0.08105279	0.03285315	-0.05928574	0.1208091	-0.1551023	

2.082e+10	0.2361298	-0.1855824	-0.04318231	-0.03763053	0.2288642	-0.03927672	-0.01645373	0.007547004	
-0.04318231	-0.03763053	0.1122438	-0.2188441	-0.01207182	0.0113243	0.07119859	-0.08505297	
0.2288642	-0.03927672	-0.01207182	0.0113243	0.1591989	-0.06019754	-0.006814006	-0.06710594	
-0.01645373	0.007547004	0.07119859	-0.08505297	-0.006814006	-0.06710594	0.1168027	-0.159544	

2.084e+10	0.2347467	-0.2065497	-0.05657868	-0.006466333	0.2285196	-0.06837661	-0.008846983	0.01554822	
-0.05657868	-0.006466333	0.1084164	-0.2139596	-0.002982227	0.01581325	0.06510923	-0.08243962	
0.2285196	-0.06837661	-0.002982227	0.01581325	0.1714706	-0.07074161	-0.04380172	-0.05099617	
-0.008846983	0.01554822	0.06510923	-0.08243962	-0.04380172	-0.05099617	0.1119053	-0.1587652	

2.086e+10	0.2318107	-0.2255599	-0.04985837	0.02667783	0.2238819	-0.09537365	0.001979885	0.01764829	
-0.04985837	0.02667783	0.1118075	-0.2089578	0.006703815	0.01421669	0.06468659	-0.0762866	
0.2238819	-0.09537365	0.006703815	0.01421669	0.181789	-0.08171445	-0.06487376	-0.01666882	
0.001979885	0.01764829	0.06468659	-0.0762866	-0.06487376	-0.01666882	0.1112308	-0.1544695	

2.088e+10	0.2276553	-0.2441902	-0.02569905	0.049791	0.2157704	-0.1205455	0.01192582	0.01284135	
-0.02569905	0.049791	0.118775	-0.2103879	0.01348922	0.007388192	0.07003901	-0.0734352	
0.2157704	-0.1205455	0.01348922	0.007388192	0.1912377	-0.0928353	-0.06242667	0.02336522	
0.01192582	0.01284135	0.07003901	-0.0734352	-0.06242667	0.02336522	0.115858	-0.1522507	

2.09e+10	0.2209288	-0.2628824	0.00679685	0.05516486	0.2039814	-0.1439677	0.01678796	0.003161195	
0.00679685	0.05516486	0.1217148	-0.2180152	0.01484292	-0.001946413	0.07520638	-0.07712068	
0.2039814	-0.1439677	0.01484292	-0.001946413	0.2004468	-0.1050585	-0.0376732	0.05454928	
0.01678796	0.003161195	0.07520638	-0.07712068	-0.0376732	0.05454928	0.1212006	-0.1557227	

2.092e+10	0.21078	-0.2803146	0.03650074	0.04166364	0.1883531	-0.1646759	0.01493254	-0.007016854	
0.03650074	0.04166364	0.1173517	-0.2250851	0.01049309	-0.00992594	0.0747353	-0.08368677	
0.1883531	-0.1646759	0.01049309	-0.00992594	0.2086417	-0.1192776	0.0001417029	0.06600785	
0.01493254	-0.007016854	0.0747353	-0.08368677	0.0001417029	0.06600785	0.1219219	-0.1626211	

2.094e+10	0.1981698	-0.2948411	0.05371332	0.01384921	0.1697757	-0.1814072	0.007934189	-0.01385388	
0.05371332	0.01384921	0.1099222	-0.2255837	0.002716378	-0.0136065	0.06912825	-0.08687189	
0.1697757	-0.1814072	0.002716378	-0.0136065	0.2145954	-0.1352112	0.0376523	0.05403558	
0.007934189	-0.01385388	0.06912825	-0.08687189	0.0376523	0.05403558	0.117331	-0.1671993	

2.096e+10	0.1849944	-0.3064631	0.05223739	-0.01911824	0.1498729	-0.19385	-0.001330085	-0.01555624	
0.05223739	-0.01911824	0.1067729	-0.2201541	-0.005302793	-0.01229522	0.06394175	-0.08399027	
0.1498729	-0.19385	-0.005302793	-0.01229522	0.2179159	-0.1517546	0.06171128	0.02280443	
-0.001330085	-0.01555624	0.06394175	-0.08399027	0.06171128	0.02280443	0.1121172	-0.1659331	

2.098e+10	0.1720906	-0.3167274	0.03206568	-0.04548802	0.1299046	-0.202814	-0.009878324	-0.01181434	
0.03206568	-0.04548802	0.1109164	-0.2156811	-0.01103892	-0.006967731	0.06421745	-0.07865425	
0.1299046	-0.202814	-0.01103892	-0.006967731	0.2193601	-0.1681446	0.0635318	-0.01663289	
-0.009878324	-0.01181434	0.06421745	-0.07865425	0.0635318	-0.01663289	0.1118926	-0.1611904	

2.1e+10	0.1583673	-0.3268992	0.0005351629	-0.05554642	0.1099272	-0.2093094	-0.01465565	-0.003814781	
0.0005351629	-0.05554642	0.1175467	-0.2181345	-0.01278958	0.0005405147	0.06906064	-0.07694232	
0.1099272	-0.2093094	-0.01278958	0.0005405147	0.2195931	-0.1849932	0.04238322	-0.04984593	
-0.01465565	-0.003814781	0.06906064	-0.07694232	0.04238322	-0.04984593	0.1171127	-0.1593538	

2.102e+10	0.1421767	-0.336301	-0.03095374	-0.04606402	0.0894107	-0.2134501	-0.01376367	0.005261339	
-0.03095374	-0.04606402	0.1192839	-0.2258216	-0.009958535	0.007594614	0.07283944	-0.08065828	
0.0894107	-0.2134501	-0.009958535	0.007594614	0.2179636	-0.2031406	0.006243067	-0.06481301	
-0.01376367	0.005261339	0.07283944	-0.08065828	0.006243067	-0.06481301	0.1222403	-0.1636817	

2.104e+10	0.1235437	-0.3431371	-0.05173372	-0.02055598	0.06843992	-0.2145799	-0.008009132	0.01179836	
-0.05173372	-0.02055598	0.1143845	-0.231704	-0.003753188	0.01160624	0.07166456	-0.08590162	
0.06843992	-0.2145799	-0.003753188	0.01160624	0.2130178	-0.2223192	-0.0317252	-0.05653363	
-0.008009132	0.01179836	0.07166456	-0.08590162	-0.0317252	-0.05653363	0.1219571	-0.1706749	

2.106e+10	0.1039241	-0.3465948	-0.05458592	0.01253193	0.04798332	-0.2124692	3.348128e-05	0.01390096	
-0.05458592	0.01253193	0.1080086	-0.2311616	0.003366026	0.01142132	0.06703122	-0.08774618	
0.04798332	-0.2124692	0.003366026	0.01142132	0.2041265	-0.241013	-0.05810471	-0.02822666	
3.348128e-05	0.01390096	0.06703122	-0.08774618	-0.05810471	-0.02822666	0.1169095	-0.1742555	

2.108e+10	0.08433753	-0.3475742	-0.03782179	0.04169699	0.02887501	-0.2079044	0.007807111	0.01131621	
-0.03782179	0.04169699	0.1064056	-0.2265235	0.009093822	0.0074297	0.06367222	-0.08527054	
0.02887501	-0.2079044	0.009093822	0.0074297	0.192043	-0.25804	-0.06353885	0.01000673	
0.007807111	0.01131621	0.06367222	-0.08527054	-0.06353885	0.01000673	0.1126811	-0.1721751	

2.11e+10	0.06402807	-0.3470531	-0.007146608	0.05588086	0.01073671	-0.2020349	0.01285173	0.004649724	
-0.007146608	0.05588086	0.1102285	-0.2241422	0.0116338	0.0008388397	0.06429592	-0.08206155	
0.01073671	-0.2020349	0.0116338	0.0008388397	0.1774977	-0.2735732	-0.04610126	0.04417864	
0.01285173	0.004649724	0.06429592	-0.08206155	-0.04610126	0.04417864	0.1136671	-0.1683979	

2.112e+10	0.04120831	-0.3440509	0.02586632	0.04985645	-0.007796693	-0.1948841	0.01281351	-0.003865942	
0.02586632	0.04985645	0.1144269	-0.2269893	0.009692728	-0.006101002	0.06700938	-0.08153793	
-0.007796693	-0.1948841	0.009692728	-0.006101002	0.1598504	-0.2881286	-0.01276053	0.06189021	
0.01281351	-0.003865942	0.06700938	-0.08153793	-0.01276053	0.06189021	0.1181248	-0.1682181	

2.114e+10	0.01583504	-0.3356567	0.04938105	0.02650785	-0.02752998	-0.1848917	0.007480616	-0.01025811	
0.04938105	0.02650785	0.1149428	-0.2322424	0.003893775	-0.01018079	0.06883279	-0.08345633	
-0.02752998	-0.1848917	0.003893775	-0.01018079	0.1374808	-0.3006583	0.0239344	0.05784271	
0.007480616	-0.01025811	0.06883279	-0.08345633	0.0239344	0.05784271	0.1212267	-0.1721494	

2.116e+10	-0.009512701	-0.3193884	0.05597928	-0.005712525	-0.0475965	-0.1700132	-4.703436e-05	-0.0115659	
0.05597928	-0.005712525	0.1122025	-0.2361276	-0.002600428	-0.009604284	0.06890252	-0.08620773	
-0.0475965	-0.1700132	-0.002600428	-0.009604284	0.1099299	-0.3081062	0.05189375	0.03469395	
-4.703436e-05	-0.0115659	0.06890252	-0.08620773	0.05189375	0.03469395	0.1209098	-0.1769815	

2.118e+10	-0.03105358	-0.2949598	0.04376905	-0.03656547	-0.06568366	-0.1491362	-0.005675176	-0.0084043	
0.04376905	-0.03656547	0.1084586	-0.2372659	-0.006549552	-0.005772176	0.06703574	-0.08865964	
-0.06568366	-0.1491362	-0.006549552	-0.005772176	0.07938407	-0.3073537	0.06291086	0.0001339235	
-0.005675176	-0.0084043	0.06703574	-0.08865964	0.06291086	0.0001339235	0.1181111	-0.1800945	

2.12e+10	-0.04552856	-0.2642972	0.01581924	-0.05614704	-0.07894935	-0.1226464	-0.007864739	-0.003996916	
0.01581924	-0.05614704	0.1059035	-0.2357121	-0.007401911	-0.001706145	0.06370675	-0.08901091	
-0.07894935	-0.1226464	-0.007401911	-0.001706145	0.04992715	-0.2972056	0.05326941	-0.03563922	
-0.007864739	-0.003996916	0.06370675	-0.08901091	0.05326941	-0.03563922	0.1147715	-0.1802524	

2.122e+10	-0.05152855	-0.2303366	-0.01978365	-0.05652486	-0.08516338	-0.09271187	-0.008208705	-0.0003928564	
-0.01978365	-0.05652486	0.1065561	-0.2333086	-0.0070369	0.001249662	0.0617239	-0.08639649	
-0.08516338	-0.09271187	-0.0070369	0.001249662	0.02545373	-0.2794733	0.02430395	-0.06102971	
-0.008208705	-0.0003928564	0.0617239	-0.08639649	0.02430395	-0.06102971	0.1137479	-0.1777738	

2.124e+10	-0.04904945	-0.195274	-0.05015097	-0.03522054	-0.08396376	-0.06192605	-0.007982136	0.003142638	
-0.05015097	-0.03522054	0.1099118	-0.2333947	-0.006407902	0.00423969	0.06344009	-0.08373086	
-0.08396376	-0.06192605	-0.006407902	0.00423969	0.007232499	-0.2573184	-0.0155967	-0.06541743	
-0.007982136	0.003142638	0.06344009	-0.08373086	-0.0155967	-0.06541743	0.1167166	-0.176079	

2.126e+10	-0.03745054	-0.1604267	-0.06228382	0.0009458129	-0.07561294	-0.03186243	-0.006175521	0.007212743	
-0.06228382	0.0009458129	0.1124132	-0.2372009	-0.004139453	0.007772084	0.06682455	-0.08448715	
-0.07561294	-0.03186243	-0.004139453	0.007772084	-0.00532509	-0.232509	-0.05158798	-0.04505065	
-0.006175521	0.007212743	0.06682455	-0.08448715	-0.05158798	-0.04505065	0.1208108	-0.1785845	

2.128e+10	-0.0155021	-0.1289515	-0.05031076	0.0378156	-0.05980642	-0.004161094	-0.001752492	0.01045007	
-0.05031076	0.0378156	0.1114036	-0.2421642	0.0007841758	0.01000632	0.0679979	-0.08823971	
-0.05980642	-0.004161094	0.0007841758	0.01000632	-0.01187168	-0.2052069	-0.06910305	-0.006678213	
-0.001752492	0.01045007	0.0679979	-0.08823971	-0.06910305	-0.006678213	0.1216494	-0.1839666	

2.13e+10	0.01526634	-0.1057841	-0.01847864	0.06055429	-0.03697398	0.01824157	0.004706469	0.0108066	
-0.01847864	0.06055429	0.1075799	-0.2449576	0.007062156	0.008690291	0.06562023	-0.09161344	
-0.03697398	0.01824157	0.007062156	0.008690291	-0.01071445	-0.1770561	-0.06066484	0.03523694	
0.004706469	0.0108066	0.06562023	-0.09161344	-0.06066484	0.03523694	0.1186401	-0.1878878	

2.132e+10	0.04985563	-0.09353233	0.02083576	0.05990282	-0.009857599	0.03283627	0.01108672	0.006853449	
0.02083576	0.05990282	0.1038098	-0.244288	0.01185463	0.003211725	0.06169045	-0.09185701	
-0.009857599	0.03283627	0.01185463	0.003211725	-0.001794167	-0.1513894	-0.02883639	0.06455522	
0.01108672	0.006853449	0.06169045	-0.09185701	-0.02883639	0.06455522	0.1150267	-0.1880379	

2.134e+10	0.08355075	-0.09044484	0.05201326	0.03592711	0.01785981	0.0396843	0.01417929	-0.001126916	
0.05201326	0.03592711	0.1029418	-0.2414839	0.01236442	-0.004861999	0.05953712	-0.08908677	
0.01785981	0.0396843	0.01236442	-0.004861999	0.01236917	-0.130706	0.01447837	0.06950402	
0.01417929	-0.001126916	0.05953712	-0.08908677	0.01447837	0.06950402	0.1140653	-0.1858826	

2.136e+10	0.1155477	-0.09356534	0.06260461	-0.001598139	0.04442091	0.04074136	0.01130234	-0.01014706	
0.06260461	-0.001598139	0.1057556	-0.2398934	0.007321725	-0.01213066	0.0609939	-0.0861671	
0.04442091	0.04074136	0.007321725	-0.01213066	0.02904063	-0.1148349	0.0524277	0.04785462	
0.01130234	-0.01014706	0.0609939	-0.0861671	0.0524277	0.04785462	0.1162694	-0.1846184	

2.138e+10	0.1467129	-0.1028631	0.04908171	-0.03739972	0.06996704	0.03692534	0.002833899	-0.01556614	
0.04908171	-0.03739972	0.1096865	-0.242387	-0.001779264	-0.01471381	0.06455047	-0.08638694	
0.06996704	0.03692534	-0.001779264	-0.01471381	0.04745638	-0.1024748	0.07022983	0.008217925	
0.002833899	-0.01556614	0.06455047	-0.08638694	0.07022983	0.008217925	0.1194923	-0.1862786	

2.14e+10	0.175377	-0.1199079	0.01797374	-0.05795275	0.09392892	0.02757176	-0.007378475	-0.01435696	
0.01797374	-0.05795275	0.1104882	-0.2482421	-0.01073388	-0.01073388	0.06643217	-0.09014592	
0.09392892	0.02757176	-0.01073388	-0.01073388	0.06832549	-0.09380421	0.06155882	-0.03394585	
-0.007378475	-0.01435696	0.06643217	-0.09014592	0.06155882	-0.03394585	0.1209968	-0.1903959	

2.142e+10	0.1977709	-0.1437259	-0.01835116	-0.05688416	0.1140291	0.01284281	-0.01465032	-0.007104337	
-0.01835116	-0.05688416	0.1065084	-0.2531138	-0.01515745	-0.001947092	0.06426611	-0.09429188	
0.1140291	0.01284281	-0.01515745	-0.001947092	0.09098982	-0.09041043	0.03035285	-0.06295044	
-0.01465032	-0.007104337	0.06426611	-0.09429188	0.03035285	-0.06295044	0.1195509	-0.1946011	

2.144e+10	0.2120913	-0.1704892	-0.04710866	-0.03564092	0.1284721	-0.005015346	-0.01611326	0.003015514	
-0.04710866	-0.03564092	0.1008008	-0.2530954	-0.01325049	0.007567143	0.05960034	-0.09502583	
0.1284721	-0.005015346	-0.01325049	0.007567143	0.1131466	-0.09301243	-0.01157256	-0.06855206	
-0.01611326	0.003015514	0.05960034	-0.09502583	-0.01157256	-0.06855206	0.1162348	-0.1964719	

2.146e+10	0.2198988	-0.1966606	-0.05842685	-0.002111782	0.1376612	-0.02324534	-0.01125334	0.01208886	
-0.05842685	-0.002111782	0.09863882	-0.248854	-0.006111927	0.01394981	0.0567325	-0.0917109	
0.1376612	-0.02324534	-0.006111927	0.01394981	0.1325954	-0.1002375	-0.04881376	-0.04900155	
-0.01125334	0.01208886	0.0567325	-0.0917109	-0.04881376	-0.04900155	0.1137421	-0.195303	

2.148e+10	0.2238653	-0.2218195	-0.0485006	0.03140047	0.1433771	-0.0407663	-0.001796802	0.01646223	
-0.0485006	0.03140047	0.1022086	-0.2457097	0.003409468	0.01482705	0.05848025	-0.08797653	
0.1433771	-0.0407663	0.003409468	0.01482705	0.1491298	-0.1100846	-0.06773088	-0.0117235	
-0.001796802	0.01646223	0.05848025	-0.08797653	-0.06773088	-0.0117235	0.114448	-0.193044	

2.15e+10	0.2244847	-0.2474593	-0.021614	0.05275283	0.1465914	-0.05816696	0.008340471	0.01412659	
-0.021614	0.05275283	0.1076254	-0.2483744	0.01153365	0.009752214	0.06284062	-0.08826539	
0.1465914	-0.05816696	0.01153365	0.009752214	0.163681	-0.1218397	-0.06164175	0.02923011	
0.008340471	0.01412659	0.06284062	-0.08826539	-0.06164175	0.02923011	0.1179642	-0.1930518	

2.152e+10	0.2200352	-0.2736491	0.01189798	0.05509084	0.146675	-0.07579217	0.0147428	0.006296247	
0.01189798	0.05509084	0.1087491	-0.2554774	0.01478752	0.0009019048	0.0648438	-0.09277531	
0.146675	-0.07579217	0.01478752	0.0009019048	0.1764699	-0.1362046	-0.03341981	0.05887735	
0.0147428	0.006296247	0.0648438	-0.09277531	-0.03341981	0.05887735	0.121012	-0.1968253	

2.154e+10	0.209498	-0.2980965	0.04064195	0.0385853	0.1429379	-0.09252374	0.01522394	-0.00330711	
0.04064195	0.0385853	0.1038656	-0.2610026	0.01210054	-0.007745167	0.06202108	-0.09723371	
0.1429379	-0.09252374	0.01210054	-0.007745167	0.1860978	-0.1535382	0.006239283	0.06700313	
0.01522394	-0.00330711	0.06202108	-0.09723371	0.006239283	0.06700313	0.1204431	-0.2022538	

2.156e+10	0.1943505	-0.3182722	0.05534385	0.008906956	0.1360667	-0.1068242	0.01042169	-0.01110729	
0.05534385	0.008906956	0.09737135	-0.2605285	0.005251925	-0.01287395	0.05690174	-0.0974889	
0.1360667	-0.1068242	0.005251925	-0.01287395	0.1910706	-0.1726516	0.04327729	0.05121176	
0.01042169	-0.01110729	0.05690174	-0.0974889	0.04327729	0.05121176	0.1164248	-0.2053868	

2.158e+10	0.1771816	-0.3338343	0.05075638	-0.02415738	0.1277059	-0.1181535	0.002316915	-0.01487362	
0.05075638	-0.02415738	0.09536865	-0.2556189	-0.00288784	-0.01324483	0.05435251	-0.09363866	
0.1277059	-0.1181535	-0.00288784	-0.01324483	0.1913058	-0.191239	0.06467336	0.0171865	
0.002316915	-0.01487362	0.05435251	-0.09363866	0.06467336	0.0171865	0.1126274	-0.2041421	

2.16e+10	0.1593541	-0.3463493	0.02798645	-0.04886512	0.1190963	-0.1274027	-0.006490435	-0.01346207	
0.02798645	-0.04886512	0.09945372	-0.2525426	-0.009710672	-0.009150874	0.05665392	-0.09012179	
0.1190963	-0.1274027	-0.009710672	-0.009150874	0.1882975	-0.2080934	0.06271769	-0.02295638	
-0.006490435	-0.01346207	0.05665392	-0.09012179	0.06271769	-0.02295638	0.1129122	-0.2008702	

2.162e+10	0.1398293	-0.3569491	-0.00479356	-0.05614474	0.1099748	-0.1356767	-0.01283354	-0.007272701	
-0.00479356	-0.05614474	0.1047538	-0.2556831	-0.01299212	-0.001985753	0.06090326	-0.0910243	
0.1099748	-0.1356767	-0.01299212	-0.001985753	0.1832836	-0.2236658	0.03815106	-0.05460698	
-0.01283354	-0.007272701	0.06090326	-0.0910243	0.03815106	-0.05460698	0.1170357	-0.2002585	

2.164e+10	0.1172595	-0.3643247	-0.03587878	-0.043664	0.09933617	-0.142809	-0.01439766	0.001168525	
-0.03587878	-0.043664	0.1053054	-0.2627104	-0.01158193	0.005591444	0.06222212	-0.0956053	
0.09933617	-0.142809	-0.01158193	0.005591444	0.1757566	-0.2387305	7.656332e-05	-0.06646596	
-0.01439766	0.001168525	0.06222212	-0.0956053	7.656332e-05	-0.06646596	0.1206901	-0.204328	

2.166e+10	0.09246301	-0.3660011	-0.054758	-0.01575333	0.08709571	-0.1475293	-0.01120689	0.008699225	
-0.054758	-0.01575333	0.1003765	-0.267572	-0.006366991	0.01079177	0.05908786	-0.09939276	
0.08709571	-0.1475293	-0.006366991	0.01079177	0.1645754	-0.2524774	-0.03787587	-0.0546182	
-0.01120689	0.008699225	0.05908786	-0.09939276	-0.03787587	-0.0546182	0.1200561	-0.210293	

2.168e+10	0.06837472	-0.3609306	-0.0546576	0.01853248	0.07450336	-0.1489681	-0.00479196	0.01333939	
-0.0546576	0.01853248	0.09466838	-0.2668024	0.0004602415	0.01229939	0.0545334	-0.09907298	
0.07450336	-0.1489681	0.0004602415	0.01229939	0.14983	-0.2627759	-0.06247298	-0.02325832	
-0.00479196	0.01333939	0.0545334	-0.09907298	-0.06247298	-0.02325832	0.1156594	-0.213471	

2.17e+10	0.04758014	-0.3507576	-0.03452396	0.04724017	0.06302679	-0.1476072	0.003211196	0.01409996	
-0.03452396	0.04724017	0.0933285	-0.2627788	0.006959607	0.01019743	0.05280378	-0.09563022	
0.06302679	-0.1476072	0.006959607	0.01019743	0.1334992	-0.2681681	-0.06482986	0.01685067	
0.003211196	0.01409996	0.05280378	-0.09563022	-0.06482986	0.01685067	0.1118698	-0.2120274	

2.172e+10	0.03002261	-0.3377282	-0.0008004892	0.05917659	0.05297171	-0.144752	0.01075694	0.01033754	
-0.0008004892	0.05917659	0.09669101	-0.2609418	0.01160521	0.004958182	0.05500044	-0.09318989	
0.05297171	-0.144752	0.01160521	0.004958182	0.1178104	-0.2692217	-0.04351935	0.05133441	
0.01075694	0.01033754	0.05500044	-0.09318989	-0.04351935	0.05133441	0.1123884	-0.2089638	

2.174e+10	0.01436316	-0.3218797	0.03397854	0.04910053	0.04341484	-0.1407462	0.01515962	0.002676051	
0.03397854	0.04910053	0.1002616	-0.2638849	0.01280844	-0.002275534	0.05804293	-0.09445082	
0.04341484	-0.1407462	0.01280844	-0.002275534	0.1031708	-0.267429	-0.005956133	0.06728088	
0.01515962	0.002676051	0.05804293	-0.09445082	-0.005956133	0.06728088	0.1162001	-0.2088734	

2.176e+10	0.001256486	-0.3012174	0.05665816	0.02040936	0.03409196	-0.1344243	0.01453111	-0.006432019	
0.05665816	0.02040936	0.1001644	-0.2690177	0.009720998	-0.009273695	0.05843609	-0.09796524	
0.03409196	-0.1344243	0.009720998	-0.009273695	0.0888027	-0.2628547	0.03407692	0.05857353	
0.01453111	-0.006432019	0.05843609	-0.09796524	0.03407692	0.05857353	0.1189711	-0.2128126	

2.178e+10	-0.005628793	-0.2753725	0.05846848	-0.01658791	0.02666266	-0.1247526	0.008824609	-0.01399157	
0.05846848	-0.01658791	0.09688483	-0.2723399	0.003054577	-0.01360737	0.05595428	-0.1003321	
0.02666266	-0.1247526	0.003054577	-0.01360737	0.07509699	-0.2540115	0.06189944	0.02823269	
0.008824609	-0.01399157	0.05595428	-0.1003321	0.06189944	0.02823269	0.1180439	-0.2176725	

2.18e+10	-0.002989537	-0.247872	0.0379478	-0.04810891	0.02352091	-0.1128243	-0.0006516644	-0.01740681	
0.0379478	-0.04810891	0.09354009	-0.2725871	-0.005330286	-0.01362228	0.05314977	-0.1000486	
0.02352091	-0.1128243	-0.005330286	-0.01362228	0.06460406	-0.2401832	0.06709635	-0.01294137	
-0.0006516644	-0.01740681	0.05314977	-0.1000486	0.06709635	-0.01294137	0.1147949	-0.2200125	

2.182e+10	0.008466797	-0.2238599	0.002276632	-0.06150088	0.02528265	-0.1015088	-0.01122094	-0.01463928	
0.002276632	-0.06150088	0.09219003	-0.2715052	-0.01284469	-0.008602016	0.05213988	-0.09843355	
0.02528265	-0.1015088	-0.01284469	-0.008602016	0.06010657	-0.2233227	0.04716989	-0.04973623	
-0.01122094	-0.01463928	0.05213988	-0.09843355	0.04716989	-0.04973623	0.1124866	-0.2195062	

2.184e+10	0.02494961	-0.2054808	-0.03449857	-0.05087762	0.03022105	-0.0927244	-0.01867394	-0.005446493	
-0.03449857	-0.05087762	0.09252353	-0.2709797	-0.01633044	0.0005588571	0.0527304	-0.09753912	
0.03022105	-0.0927244	-0.01633044	0.0005588571	0.06188973	-0.2067349	0.009243683	-0.06793904	
-0.01867394	-0.005446493	0.0527304	-0.09753912	0.009243683	-0.06793904	0.1126576	-0.2185414	

2.186e+10	0.04451241	-0.1913715	-0.05751147	-0.0204676	0.03678451	-0.08610263	-0.01902072	0.007172159	
-0.05751147	-0.0204676	0.09352332	-0.2715037	-0.01342709	0.01069187	0.05354567	-0.09783559	
0.03678451	-0.08610263	-0.01342709	0.01069187	0.0681671	-0.1922527	-0.03211951	-0.06033178	
-0.01902072	0.007172159	0.05354567	-0.09783559	-0.03211951	-0.06033178	0.1141292	-0.2190627	

2.188e+10	0.06825448	-0.1815111	-0.05778027	0.01721407	0.04539839	-0.08120422	-0.01116089	0.01783345	
-0.05778027	0.01721407	0.09469135	-0.2732055	-0.004403634	0.01730138	0.05397602	-0.0987856	
0.04539839	-0.08120422	-0.004403634	0.01730138	0.07788179	-0.1796988	-0.06091635	-0.0300274	
-0.01116089	0.01783345	0.05397602	-0.0987856	-0.06091635	-0.0300274	0.1152344	-0.2209676	

2.19e+10	0.09612628	-0.1792747	-0.03601409	0.04705339	0.05661952	-0.07962724	0.002070247	0.02144932	
-0.03601409	0.04705339	0.09512016	-0.27639	0.00725838	0.01686106	0.05398346	-0.1002037	
0.05661952	-0.07962724	0.00725838	0.01686106	0.09166681	-0.1694211	-0.06638364	0.01102545	
0.002070247	0.02144932	0.05398346	-0.1002037	-0.06638364	0.01102545	0.1155641	-0.2233655	

2.192e+10	0.1237993	-0.1873884	-0.001782274	0.05803564	0.06847912	-0.08357878	0.01493032	0.01594372	
-0.001782274	0.05803564	0.09332595	-0.2800911	0.01629537	0.009036017	0.05303429	-0.101917	
0.06847912	-0.08357878	0.01629537	0.009036017	0.1096143	-0.1635916	-0.0470499	0.04703348	
0.01493032	0.01594372	0.05303429	-0.101917	-0.0470499	0.04703348	0.115203	-0.2259231	

2.194e+10	0.1458845	-0.2039197	0.03151328	0.04735237	0.07740149	-0.09271903	0.02165626	0.003585055	
0.03151328	0.04735237	0.08940815	-0.2817649	0.01848681	-0.002782238	0.0508437	-0.1027931	
0.07740149	-0.09271903	0.01848681	-0.002782238	0.1295159	-0.1644908	-0.01097259	0.06475697	
0.02165626	0.003585055	0.0508437	-0.1027931	-0.01097259	0.06475697	0.1138743	-0.2283067	

2.196e+10	0.1607452	-0.2240883	0.05200631	0.02009886	0.08158176	-0.1042285	0.01937631	-0.01027265	
0.05200631	0.02009886	0.08630044	-0.2800022	0.01296327	-0.01336352	0.04873116	-0.1017417	
0.08158176	-0.1042285	0.01296327	-0.01336352	0.1479912	-0.1720739	0.02805667	0.05842003	
0.01937631	-0.01027265	0.04873116	-0.1017417	0.02805667	0.05842003	0.111761	-0.2294488	

2.198e+10	0.1702881	-0.2450033	0.05301632	-0.01316736	0.08184922	-0.1156212	0.00914107	-0.01978762	
0.05301632	-0.01316736	0.08707269	-0.2771541	0.002250727	-0.0183122	0.0487145	-0.09962785	
0.08184922	-0.1156212	0.002250727	-0.0183122	0.162871	-0.1842411	0.05580962	0.03118838	
0.00914107	-0.01978762	0.0487145	-0.09962785	0.05580962	0.03118838	0.1104075	-0.2288269	

2.2e+10	0.1761937	-0.2670292	0.03521332	-0.04023094	0.07956576	-0.1264266	-0.004621764	-0.02100351	
0.03521332	-0.04023094	0.09095139	-0.2774951	-0.009091236	-0.01572746	0.05089835	-0.09905874	
0.07956576	-0.1264266	-0.009091236	-0.01572746	0.1741602	-0.1989627	0.0627377	-0.006387266	
-0.004621764	-0.02100351	0.05089835	-0.09905874	0.0627377	-0.006387266	0.111379	-0.227866	

2.202e+10	0.1774165	-0.2908489	0.006102949	-0.0520303	0.07477167	-0.1371182	-0.01594729	-0.01368781	
0.006102949	-0.0520303	0.09341228	-0.28237	-0.01629654	-0.006971245	0.05271308	-0.1014078	
0.07477167	-0.1371182	-0.01629654	-0.006971245	0.1824053	-0.2156794	0.04719797	-0.04056227	
-0.01594729	-0.01368781	0.05271308	-0.1014078	0.04719797	-0.04056227	0.1140353	-0.2290197	

2.204e+10	0.1722897	-0.3148762	-0.02383098	-0.04575939	0.06673248	-0.1469473	-0.02033713	-0.001522017	
-0.02383098	-0.04575939	0.09102309	-0.2883023	-0.01670398	0.003890212	0.05163293	-0.1048904	
0.06673248	-0.1469473	-0.01670398	0.003890212	0.1872988	-0.2345916	0.01551927	-0.05952828	
-0.02033713	-0.001522017	0.05163293	-0.1048904	0.01551927	-0.05952828	0.1156474	-0.2330315	

2.206e+10	0.1610812	-0.3362477	-0.04502932	-0.0242965	0.05562852	-0.1543198	-0.01688436	0.01029413	
-0.04502932	-0.0242965	0.08518541	-0.2904456	-0.01093828	0.01240268	0.048046	-0.1063507	
0.05562852	-0.1543198	-0.01093828	0.01240268	0.1875605	-0.2550247	-0.02085639	-0.05730246	
-0.01688436	0.01029413	0.048046	-0.1063507	-0.02085639	-0.05730246	0.113993	-0.2376663	

2.208e+10	0.1460829	-0.3531807	-0.05073022	0.005287206	0.0429677	-0.1581365	-0.007691072	0.01768825	
-0.05073022	0.005287206	0.08091056	-0.2875017	-0.001868204	0.01590566	0.04495744	-0.1045105	
0.0429677	-0.1581365	-0.001868204	0.01590566	0.1825902	-0.2751953	-0.04942856	-0.03510109	
-0.007691072	0.01768825	0.04495744	-0.1045105	-0.04942856	-0.03510109	0.1098947	-0.2396219	

2.21e+10	0.1295661	-0.3662897	-0.03872425	0.03303858	0.03048316	-0.1587294	0.003784278	0.01856218	
-0.03872425	0.03303858	0.08201928	-0.2833271	0.007259859	0.01387326	0.04508477	-0.1014097	
0.03048316	-0.1587294	0.007259859	0.01387326	0.1731802	-0.293182	-0.06037162	-0.0007270768	
0.003784278	0.01856218	0.04508477	-0.1014097	-0.06037162	-0.0007270768	0.1069497	-0.2378073	

2.212e+10	0.1117342	-0.3770633	-0.01311511	0.04901469	0.01873208	-0.1573489	0.01355977	0.01278702	
-0.01311511	0.04901469	0.08694477	-0.2833926	0.01360709	0.007249952	0.04796947	-0.100543	
0.01873208	-0.1573489	0.01360709	0.007249952	0.1609831	-0.3083909	-0.04982548	0.03369635	
0.01355977	0.01278702	0.04796947	-0.100543	-0.04982548	0.03369635	0.1081478	-0.2350761	

2.214e+10	0.0912461	-0.3854572	0.01685	0.04770991	0.00703702	-0.1546099	0.01807158	0.002609435	
0.01685	0.04770991	0.08998861	-0.2889202	0.01508664	-0.001681013	0.05022517	-0.1032191	
0.00703702	-0.1546099	0.01508664	-0.001681013	0.1467095	-0.3215527	-0.02166457	0.05585459	
0.01807158	0.002609435	0.05022517	-0.1032191	-0.02166457	0.05585459	0.1123029	-0.2356701	

2.216e+10	0.06773408	-0.3893826	0.04086812	0.02994053	-0.005140134	-0.1497418	0.01595116	-0.00792864	
0.04086812	0.02994053	0.08738937	-0.2954571	0.01134281	-0.009675694	0.04912846	-0.1070885	
-0.005140134	-0.1497418	0.01134281	-0.009675694	0.1296916	-0.3328134	0.01391017	0.05807844	
0.01595116	-0.00792864	0.04912846	-0.1070885	0.01391017	0.05807844	0.1149853	-0.2406393	

2.218e+10	0.04319913	-0.3868354	0.0509913	0.001619036	-0.01703345	-0.1416898	0.008620812	-0.01514766	
0.0509913	0.001619036	0.08111415	-0.2977075	0.004067256	-0.01410427	0.04536108	-0.1087162	
-0.01703345	-0.1416898	0.004067256	-0.01410427	0.1094055	-0.3407785	0.04440953	0.03987298	
0.008620812	-0.01514766	0.04536108	-0.1087162	0.04440953	0.03987298	0.1130243	-0.2465367	

2.22e+10	0.02064851	-0.3780866	0.04329185	-0.02800997	-0.02705273	-0.1304035	-0.001133536	-0.01722073	
0.04329185	-0.02800997	0.07662413	-0.2946705	-0.004225224	-0.01400345	0.04210692	-0.1069603	
-0.02705273	-0.1304035	-0.004225224	-0.01400345	0.0868279	-0.3436196	0.0593554	0.00752896	
-0.001133536	-0.01722073	0.04210692	-0.1069603	0.0593554	0.00752896	0.1078538	-0.2488422	

2.222e+10	0.001638546	-0.3652963	0.01955035	-0.04829171	-0.03406015	-0.1171595	-0.01048254	-0.01381024	
0.01955035	-0.04829171	0.07758353	-0.290519	-0.01129544	-0.00960638	0.04198023	-0.1038995	
-0.03406015	-0.1171595	-0.01129544	-0.00960638	0.06433456	-0.3407092	0.05324408	-0.02786965	
-0.01048254	-0.01381024	0.04198023	-0.1038995	0.05324408	-0.02786965	0.1041992	-0.2464581	

2.224e+10	-0.01468185	-0.3501523	-0.01198751	-0.051109	-0.03849871	-0.1032991	-0.01661401	-0.00570121	
-0.01198751	-0.051109	0.08212498	-0.2904944	-0.01511287	-0.001869016	0.04450156	-0.1028666	
-0.03849871	-0.1032991	-0.01511287	-0.001869016	0.04365466	-0.3332529	0.02771455	-0.05361557	
-0.01661401	-0.00570121	0.04450156	-0.1028666	0.02771455	-0.05361557	0.1054365	-0.2430672	

2.226e+10	-0.02938887	-0.3317809	-0.03951045	-0.03502972	-0.04132744	-0.08874828	-0.01719333	0.004684216	
-0.03951045	-0.03502972	0.08490865	-0.2954304	-0.01402362	0.007089985	0.04662004	-0.1050061	
-0.04132744	-0.08874828	-0.01402362	0.007089985	0.024727	-0.3225335	-0.008219361	-0.05997944	
-0.01719333	0.004684216	0.04662004	-0.1050061	-0.008219361	-0.05997944	0.109945	-0.2434444	

2.228e+10	-0.04096878	-0.3083603	-0.05284199	-0.005815141	-0.04228141	-0.07238497	-0.01177901	0.01374281	
-0.05284199	-0.005815141	0.0828337	-0.3012803	-0.007874332	0.01419983	0.04600607	-0.1083362	
-0.04228141	-0.07238497	-0.007874332	0.01419983	0.006943837	-0.3081218	-0.0413611	-0.04440094	
-0.01177901	0.01374281	0.04600607	-0.1083362	-0.0413611	-0.04440094	0.1128494	-0.2484522	

2.23e+10	-0.04595734	-0.280338	-0.04680279	0.02614648	-0.03952386	-0.05396298	-0.002111668	0.01839117	
-0.04680279	0.02614648	0.07764625	-0.3037323	0.001564322	0.01678325	0.04310168	-0.1101579	
-0.03952386	-0.05396298	0.001564322	0.01678325	-0.008600496	-0.2885919	-0.05955973	-0.01246438	
-0.002111668	0.01839117	0.04310168	-0.1101579	-0.05955973	-0.01246438	0.1110885	-0.2543925	

2.232e+10	-0.04207384	-0.2512617	-0.0228597	0.04895585	-0.03140369	-0.03523435	0.00891694	0.01694616	
-0.0228597	0.04895585	0.07356154	-0.3020823	0.01134165	0.01351453	0.04014027	-0.1094516	
-0.03140369	-0.03523435	0.01134165	0.01351453	-0.01910436	-0.2639997	-0.05596643	0.02436975	
0.00891694	0.01694616	0.04014027	-0.1094516	-0.05596643	0.02436975	0.1061937	-0.256983	

2.234e+10	-0.03046828	-0.2248753	0.01041942	0.05321147	-0.01816439	-0.0186919	0.01777095	0.009149503	
0.01041942	0.05321147	0.07318968	-0.2991468	0.01797689	0.004683634	0.03904119	-0.1073406	
-0.01816439	-0.0186919	0.01797689	0.004683634	-0.02230965	-0.2367612	-0.03145602	0.05245525	
0.01777095	0.009149503	0.03904119	-0.1073406	-0.03145602	0.05245525	0.1024537	-0.2552993	

2.236e+10	-0.01347935	-0.2021411	0.03974164	0.03661863	-0.001307121	-0.005366094	0.02064077	-0.003158297	
0.03974164	0.03661863	0.07573995	-0.2983359	0.01817546	-0.007220036	0.04005709	-0.1057902	
-0.001307121	-0.005366094	0.01817546	-0.007220036	-0.01828369	-0.2097848	0.005035047	0.06087814	
0.02064077	-0.003158297	0.04005709	-0.1057902	0.005035047	0.06087814	0.1027911	-0.2523476	

2.238e+10	0.008724986	-0.1826417	0.05313371	0.005996431	0.01862124	0.004856023	0.01520243	-0.01542158	
0.05313371	0.005996431	0.07837298	-0.3009216	0.01062469	-0.01747454	0.04194182	-0.106144	
0.01862124	0.004856023	0.01062469	-0.01747454	-0.008245074	-0.1845559	0.03940201	0.04623505	
0.01520243	-0.01542158	0.04194182	-0.106144	0.03940201	0.04623505	0.1062743	-0.2520405	

2.24e+10	0.03728897	-0.1683805	0.04575898	-0.0259662	0.04216961	0.01096157	0.002893228	-0.02202377	
0.04575898	-0.0259662	0.07850895	-0.3056171	-0.002299094	-0.02104378	0.04293626	-0.1084391	
0.04216961	0.01096157	-0.002299094	-0.02104378	0.007470009	-0.1615774	0.05841335	0.01450779	
0.002893228	-0.02202377	0.04293626	-0.1084391	0.05841335	0.01450779	0.109313	-0.25565	

2.242e+10	0.07049585	-0.1633363	0.02153134	-0.04690519	0.06839855	0.01040867	-0.01117323	-0.0196126	
0.02153134	-0.04690519	0.07538338	-0.3097284	-0.01505666	-0.01558619	0.04175125	-0.1113606	
0.06839855	0.01040867	-0.01505666	-0.01558619	0.02919225	-0.1423271	0.05536563	-0.02183032	
-0.01117323	-0.0196126	0.04175125	-0.1113606	0.05536563	-0.02183032	0.1090067	-0.261088	

2.244e+10	0.1031752	-0.1691343	-0.009562935	-0.04965962	0.09391731	0.001823146	-0.02096091	-0.009014188	
-0.009562935	-0.04965962	0.07054983	-0.3107522	-0.02175726	-0.003135269	0.03849087	-0.1128144	
0.09391731	0.001823146	-0.02175726	-0.003135269	0.05598748	-0.1292989	0.03214455	-0.04925137	
-0.02096091	-0.009014188	0.03849087	-0.1128144	0.03214455	-0.04925137	0.1053131	-0.2648823	

2.246e+10	0.1308961	-0.1830429	-0.03582105	-0.03417158	0.1152548	-0.01321599	-0.02236037	0.005492233	
-0.03582105	-0.03417158	0.06733047	-0.3082625	-0.01927424	0.01092261	0.03519591	-0.111329	
0.1152548	-0.01321599	-0.01927424	0.01092261	0.08501747	-0.1241138	-0.002185633	-0.05805587	
-0.02236037	0.005492233	0.03519591	-0.111329	-0.002185633	-0.05805587	0.1009475	-0.2649935	

2.248e+10	0.1529533	-0.2011657	-0.04782309	-0.007002209	0.1313355	-0.03179768	-0.01455114	0.01804631	
-0.04782309	-0.007002209	0.06833875	-0.3050796	-0.008583532	0.02049949	0.0347007	-0.1080023	
0.1313355	-0.03179768	-0.008583532	0.02049949	0.1132623	-0.1262506	-0.03481539	-0.04553664	
-0.01455114	0.01804631	0.0347007	-0.1080023	-0.03481539	-0.04553664	0.09929018	-0.2623068	

2.25e+10	0.1708208	-0.2219195	-0.0419862	0.0211536	0.1429033	-0.05214535	-0.0005124124	0.02316833	
-0.0419862	0.0211536	0.07245784	-0.3054228	0.005784877	0.02139368	0.03758736	-0.1063321	
0.1429033	-0.05214535	0.005784877	0.02139368	0.1390749	-0.133933	-0.05384811	-0.01694725	
-0.0005124124	0.02316833	0.03758736	-0.1063321	-0.05384811	-0.01694725	0.1016414	-0.2603208	

2.252e+10	0.1846481	-0.2457763	-0.02189416	0.04009011	0.1503418	-0.07405232	0.01358741	0.01843221	
-0.02189416	0.04009011	0.07497921	-0.3105672	0.01750373	0.01317995	0.04069047	-0.1087679	
0.1503418	-0.07405232	0.01750373	0.01317995	0.1623403	-0.1457824	-0.05297336	0.01668211	
0.01358741	0.01843221	0.04069047	-0.1087679	-0.05297336	0.01668211	0.1056271	-0.2622794	

2.254e+10	0.1928925	-0.2722404	0.004282883	0.04435772	0.1528792	-0.09689661	0.02148195	0.006279727	
0.004282883	0.04435772	0.07234279	-0.3168052	0.02145836	-0.0002651767	0.04014208	-0.1134899	
0.1528792	-0.09689661	0.02145836	-0.0002651767	0.1830514	-0.1614383	-0.03351112	0.04321785	
0.02148195	0.006279727	0.04014208	-0.1134899	-0.03351112	0.04321785	0.1071201	-0.2678329	

2.256e+10	0.1946564	-0.2990356	0.02784942	0.03380088	0.1502087	-0.1189772	0.02041215	-0.00759973	
0.02784942	0.03380088	0.06600179	-0.3190752	0.0164432	-0.01285054	0.03563084	-0.1161371	
0.1502087	-0.1189772	0.0164432	-0.01285054	0.2005171	-0.1809461	-0.002996035	0.05389178	
0.02041215	-0.00759973	0.03563084	-0.1161371	-0.002996035	0.05389178	0.1041338	-0.2732287	

2.258e+10	0.1910476	-0.3237656	0.04151642	0.01226069	0.1433713	-0.1385246	0.01167716	-0.01776124	
0.04151642	0.01226069	0.06117818	-0.3159413	0.005291367	-0.0195361	0.03088435	-0.1141456	
0.1433713	-0.1385246	0.005291367	-0.0195361	0.2134698	-0.2034907	0.02781684	0.0455874	
0.01167716	-0.01776124	0.03088435	-0.1141456	0.02781684	0.0455874	0.09872081	-0.2746889	

2.26e+10	0.1841844	-0.3457742	0.04079581	-0.01307219	0.1341403	-0.155047	-0.001048271	-0.02082263	
0.04079581	-0.01307219	0.06199425	-0.311297	-0.007158511	-0.01830397	0.03021114	-0.1095091	
0.1341403	-0.155047	-0.007158511	-0.01830397	0.2213643	-0.22734	0.04833268	0.02152718	
-0.001048271	-0.02082263	0.03021114	-0.1095091	0.04833268	0.02152718	0.09542147	-0.2717964	

2.262e+10	0.175304	-0.3659367	0.0260794	-0.03333572	0.1236787	-0.1692086	-0.01296708	-0.0158145	
0.0260794	-0.03333572	0.06707379	-0.3109379	-0.01617168	-0.01017991	0.03399185	-0.1072208	
0.1236787	-0.1692086	-0.01617168	-0.01017991	0.2248934	-0.2510089	0.05152581	-0.009640931	
-0.01296708	-0.0158145	0.03399185	-0.1072208	0.05152581	-0.009640931	0.09717496	-0.2684429	

2.264e+10	0.1639898	-0.3850645	0.002995107	-0.04172263	0.1120193	-0.1816937	-0.01932273	-0.004824862	
0.002995107	-0.04172263	0.0704402	-0.3165063	-0.01848382	0.001389806	0.03782697	-0.1100822	
0.1120193	-0.1816937	-0.01848382	0.001389806	0.2251437	-0.2740847	0.03662503	-0.03679932	
-0.01932273	-0.004824862	0.03782697	-0.1100822	0.03662503	-0.03679932	0.1019793	-0.2692976	

2.266e+10	0.1494415	-0.4025457	-0.02051797	-0.03613283	0.09886207	-0.19234	-0.01776784	0.00730524	
-0.02051797	-0.03613283	0.06782923	-0.3234954	-0.01354228	0.01165642	0.03722288	-0.1154371	
0.09886207	-0.19234	-0.01354228	0.01165642	0.2223973	-0.2970144	0.009335653	-0.0506122	
-0.01776784	0.00730524	0.03722288	-0.1154371	0.009335653	-0.0506122	0.1046737	-0.2750348	

2.268e+10	0.1318909	-0.4170099	-0.03715232	-0.01867755	0.08453183	-0.2005639	-0.009752421	0.01566183	
-0.03715232	-0.01867755	0.06098584	-0.3261268	-0.003907997	0.01666183	0.03230393	-0.1182779	
0.08453183	-0.2005639	-0.003907997	0.01666183	0.2159934	-0.3196935	-0.02068549	-0.04676757	
-0.009752421	0.01566183	0.03230393	-0.1182779	-0.02068549	-0.04676757	0.1020578	-0.2815324	

2.27e+10	0.1127022	-0.4276485	-0.0414928	0.005300629	0.06992915	-0.2063003	0.001004478	0.01776062	
-0.0414928	0.005300629	0.05568908	-0.3228421	0.006216694	0.01511877	0.02730791	-0.1161634	
0.06992915	-0.2063003	0.006216694	0.01511877	0.2054919	-0.3410111	-0.04330751	-0.0268832	
0.001004478	0.01776062	0.02730791	-0.1161634	-0.04330751	-0.0268832	0.09593852	-0.2838133	

2.272e+10	0.09325091	-0.4349767	-0.03150144	0.02791917	0.05564105	-0.2101177	0.01070197	0.01359002	
-0.03150144	0.02791917	0.05634736	-0.3178745	0.01318657	0.008435759	0.02654171	-0.1114018	
0.05564105	-0.2101177	0.01318657	0.008435759	0.1915405	-0.359599	-0.05087518	0.002274639	
0.01070197	0.01359002	0.02654171	-0.1114018	-0.05087518	0.002274639	0.09166028	-0.2807668	

2.274e+10	0.07371774	-0.4400481	-0.01027201	0.04098539	0.04154734	-0.2127511	0.0161958	0.004799566	
-0.01027201	0.04098539	0.06146474	-0.3173322	0.01504859	-0.00058621	0.03020604	-0.1090229	
0.04154734	-0.2127511	0.01504859	-0.00058621	0.1755285	-0.3750029	-0.0406246	0.03066845	
0.0161958	0.004799566	0.03020604	-0.1090229	-0.0406246	0.03066845	0.09306732	-0.2766238	

2.276e+10	0.05326134	-0.4431105	0.01462367	0.0397781	0.02707574	-0.2143265	0.01550906	-0.005365642	
0.01462367	0.0397781	0.06484967	-0.3228106	0.01156921	-0.008754169	0.03397563	-0.1116238	
0.02707574	-0.2143265	0.01156921	-0.008754169	0.1582731	-0.3879138	-0.01608412	0.04823818	
0.01550906	-0.005365642	0.03397563	-0.1116238	-0.01608412	0.04823818	0.09827654	-0.2769712	

2.278e+10	0.0315166	-0.4430404	0.03464299	0.02489627	0.01192113	-0.2142987	0.009156686	-0.01284668	
0.03464299	0.02489627	0.06227407	-0.3296393	0.004309277	-0.01322567	0.03356304	-0.1167099	
0.01192113	-0.2142987	0.004309277	-0.01322567	0.1394449	-0.398772	0.01399711	0.04885233	
0.009156686	-0.01284668	0.03356304	-0.1167099	0.01399711	0.04885233	0.1014515	-0.2828141	

2.28e+10	0.009510251	-0.4386569	0.04317777	0.001146863	-0.003532228	-0.2121206	0.0001942898	-0.01506275	
0.04317777	0.001146863	0.05566175	-0.3321585	-0.003726586	-0.01271098	0.02905321	-0.119571	
-0.003532228	-0.2121206	-0.003726586	-0.01271098	0.1184876	-0.4069619	0.03919542	0.03248292	
0.0001942898	-0.01506275	0.02905321	-0.119571	0.03919542	0.03248292	0.09889878	-0.2896513	

2.282e+10	-0.01099734	-0.4300094	0.03683144	-0.02390125	-0.01867842	-0.2077721	-0.007894625	-0.01208726	
0.03683144	-0.02390125	0.05070304	-0.3291173	-0.009626536	-0.008106296	0.02427372	-0.1178971	
-0.01867842	-0.2077721	-0.009626536	-0.008106296	0.09586442	-0.4111725	0.05095884	0.004676809	
-0.007894625	-0.01208726	0.02427372	-0.1178971	0.05095884	0.004676809	0.09258591	-0.2920977	

2.284e+10	-0.02901143	-0.4183453	0.01682454	-0.04132002	-0.03322163	-0.2015707	-0.01285591	-0.005563248	
0.01682454	-0.04132002	0.05130372	-0.3247627	-0.01195081	-0.001558502	0.02317625	-0.1136408	
-0.03322163	-0.2015707	-0.01195081	-0.001558502	0.07313576	-0.410831	0.04495413	-0.02526424	
-0.01285591	-0.005563248	0.02317625	-0.1136408	0.04495413	-0.02526424	0.08820419	-0.2890622	

2.286e+10	-0.04503921	-0.4047216	-0.01007942	-0.04404439	-0.04736789	-0.193723	-0.01350665	0.002449703	
-0.01007942	-0.04404439	0.05563989	-0.3245857	-0.01063456	0.004911606	0.02613637	-0.1112408	
-0.04736789	-0.193723	-0.01063456	0.004911606	0.05168684	-0.4066887	0.02269063	-0.04674819	
-0.01350665	0.002449703	0.02613637	-0.1112408	0.02269063	-0.04674819	0.08956933	-0.2850488	

2.288e+10	-0.05979	-0.3885972	-0.03388485	-0.03059583	-0.06132058	-0.1838008	-0.009611133	0.009388941	
-0.03388485	-0.03059583	0.05814174	-0.3294692	-0.006256826	0.009671581	0.02948401	-0.1131828	
-0.06132058	-0.1838008	-0.006256826	0.009671581	0.03158239	-0.3998647	-0.008146694	-0.05164034	
-0.009611133	0.009388941	0.02948401	-0.1131828	-0.008146694	-0.05164034	0.09444634	-0.2855459	

2.29e+10	-0.07233435	-0.3686913	-0.04582489	-0.005715914	-0.07466328	-0.1709788	-0.002662377	0.01276634	
-0.04582489	-0.005715914	0.05566572	-0.3350878	-9.923816e-05	0.01137157	0.02944628	-0.117517	
-0.07466328	-0.1709788	-9.923816e-05	0.01137157	0.01213585	-0.3902914	-0.0363822	-0.03792576	
-0.002662377	0.01276634	0.02944628	-0.117517	-0.0363822	-0.03792576	0.09713311	-0.2911444	

2.292e+10	-0.08043209	-0.3450906	-0.04136817	0.02198658	-0.08619536	-0.1549261	0.004578579	0.011758	
-0.04136817	0.02198658	0.05029697	-0.337068	0.0058957	0.009582574	0.02579567	-0.1202953	
-0.08619536	-0.1549261	0.0058957	0.009582574	-0.006315562	-0.3768971	-0.05186195	-0.01043837	
0.004578579	0.011758	0.02579567	-0.1202953	-0.05186195	-0.01043837	0.09453704	-0.2972803	

2.294e+10	-0.08244139	-0.3199287	-0.0213399	0.04254059	-0.09475653	-0.136286	0.009905321	0.007364391	
-0.0213399	0.04254059	0.04647445	-0.3350522	0.01002645	0.005075713	0.02154644	-0.1193913	
-0.09475653	-0.136286	0.01002645	0.005075713	-0.02208927	-0.3592014	-0.04894987	0.02129417	
0.009905321	0.007364391	0.02154644	-0.1193913	-0.04894987	0.02129417	0.0889607	-0.2993093	

2.296e+10	-0.078791	-0.2957029	0.007586444	0.047662	-0.0999904	-0.1160036	0.01228874	0.001043903	
0.007586444	0.047662	0.04655265	-0.3323757	0.01140581	-0.0008837573	0.01998042	-0.1160729	
-0.0999904	-0.1160036	0.01140581	-0.0008837573	-0.03347248	-0.3383383	-0.0281162	0.0460256	
0.01228874	0.001043903	0.01998042	-0.1160729	-0.0281162	0.0460256	0.08539898	-0.2969022	

2.298e+10	-0.07113623	-0.2729009	0.03442225	0.03450646	-0.1019938	-0.09434818	0.01113514	-0.005775856	
0.03442225	0.03450646	0.04897661	-0.332472	0.009606388	-0.007006383	0.02178819	-0.1137216	
-0.1019938	-0.09434818	0.009606388	-0.007006383	-0.04023457	-0.3160493	0.003676749	0.05432372	
0.01113514	-0.005775856	0.02178819	-0.1137216	0.003676749	0.05432372	0.086493	-0.2941054	

2.3e+10	-0.05927001	-0.2507298	0.048404	0.007778369	-0.1001268	-0.07107752	0.006344118	-0.01115633	
0.048404	0.007778369	0.05031594	-0.3356698	0.004566322	-0.01167046	0.02450729	-0.114609	
-0.1001268	-0.07107752	0.004566322	-0.01167046	-0.04303829	-0.2929049	0.03473035	0.04245638	
0.006344118	-0.01115633	0.02450729	-0.114609	0.03473035	0.04245638	0.08999532	-0.2949874	

2.302e+10	-0.04130265	-0.2300111	0.04388188	-0.0222048	-0.09266826	-0.04681011	-0.0008251302	-0.01311507	
0.04388188	-0.0222048	0.04885655	-0.3395026	-0.002777563	-0.01298935	0.02509455	-0.1178785	
-0.09266826	-0.04681011	-0.002777563	-0.01298935	-0.04145715	-0.2684477	0.05322656	0.01451422	
-0.0008251302	-0.01311507	0.02509455	-0.1178785	0.05322656	0.01451422	0.09158526	-0.2994684	

2.304e+10	-0.01665469	-0.2143439	0.02245017	-0.04381866	-0.07831079	-0.02406163	-0.008114057	-0.01083445	
0.02245017	-0.04381866	0.04554571	-0.3416677	-0.01019354	-0.009754779	0.02267244	-0.1207296	
-0.07831079	-0.02406163	-0.01019354	-0.009754779	-0.03354241	-0.2433492	0.05201701	-0.01922207	
-0.008114057	-0.01083445	0.02267244	-0.1207296	0.05201701	-0.01922207	0.08951466	-0.3040468	

2.306e+10	0.01170454	-0.2072097	-0.007694749	-0.04853887	-0.05807723	-0.006083667	-0.01329323	-0.004751814	
-0.007694749	-0.04853887	0.04238882	-0.3416303	-0.01482101	-0.002310309	0.01891952	-0.1209694	
-0.05807723	-0.006083667	-0.01482101	-0.002310309	-0.01806135	-0.2207223	0.03117627	-0.04614077	
-0.01329323	-0.004751814	0.01891952	-0.1209694	0.03117627	-0.04614077	0.08564129	-0.3058874	

2.308e+10	0.03910539	-0.2085351	-0.03466635	-0.03438914	-0.03482022	0.005608465	-0.01440068	0.003777948	
-0.03466635	-0.03438914	0.04086098	-0.3403963	-0.01423819	0.007179755	0.01651557	-0.1186258	
-0.03482022	0.005608465	-0.01423819	0.007179755	0.003289556	-0.2041835	-0.001739885	-0.05573585	
-0.01440068	0.003777948	0.01651557	-0.1186258	-0.001739885	-0.05573585	0.0829976	-0.305061	

2.31e+10	0.06329074	-0.2153626	-0.04768582	-0.007177754	-0.01093977	0.01165374	-0.0100399	0.01208453	
-0.04768582	-0.007177754	0.04134183	-0.3395928	-0.007615773	0.01507667	0.01702955	-0.1159259	
-0.01093977	0.01165374	-0.007615773	0.01507667	0.02681568	-0.1950251	-0.03399818	-0.04397264	
-0.0100399	0.01208453	0.01702955	-0.1159259	-0.03399818	-0.04397264	0.08295568	-0.303839	

2.312e+10	0.084955	-0.2258396	-0.0419886	0.02182064	0.01292973	0.0129899	-0.0008968162	0.01638447	
-0.0419886	0.02182064	0.04276866	-0.3407968	0.003193453	0.01745122	0.01953459	-0.11552	
0.01292973	0.0129899	0.003193453	0.01745122	0.04981033	-0.1918699	-0.05287499	-0.01559204	
-0.0008968162	0.01638447	0.01953459	-0.11552	-0.05287499	-0.01559204	0.08452418	-0.3043717	

2.314e+10	0.1043384	-0.2405241	-0.02088908	0.04124596	0.03629629	0.009353072	0.009415126	0.01400432	
-0.02088908	0.04124596	0.04297768	-0.3440662	0.01368176	0.01229276	0.02114001	-0.1181537	
0.03629629	0.009353072	0.01368176	0.01229276	0.07165861	-0.1932414	-0.05142045	0.01796689	
0.009415126	0.01400432	0.02114001	-0.1181537	-0.05142045	0.01796689	0.08560565	-0.3070187	

2.316e+10	0.1194961	-0.2595645	0.006624436	0.04465027	0.05749254	0.0007163786	0.01619131	0.005598833	
0.006624436	0.04465027	0.04059429	-0.3474466	0.01876228	0.001352929	0.01957371	-0.1216453	
0.05749254	0.0007163786	0.01876228	0.001352929	0.09218566	-0.198906	-0.03100713	0.04387407	
0.01619131	0.005598833	0.01957371	-0.1216453	-0.03100713	0.04387407	0.08487043	-0.3104895	

2.318e+10	0.1286107	-0.2806772	0.03037847	0.03204805	0.07488525	-0.01138001	0.0164553	-0.005258203	
0.03037847	0.03204805	0.03667353	-0.3485158	0.01587058	-0.01051885	0.01552802	-0.1227618	
0.07488525	-0.01138001	0.01587058	-0.01051885	0.1101795	-0.208815	8.04194e-05	0.05296194	
0.0164553	-0.005258203	0.01552802	-0.1227618	8.04194e-05	0.05296194	0.08244669	-0.3130657	

2.32e+10	0.1323606	-0.3008836	0.042381	0.008711134	0.08856871	-0.02476549	0.01010822	-0.01414925	
0.042381	0.008711134	0.03406076	-0.3469421	0.006250047	-0.01812781	0.01230745	-0.1204328	
0.08856871	-0.02476549	0.006250047	-0.01812781	0.124203	-0.2216534	0.03016747	0.04258656	
0.01010822	-0.01414925	0.01230745	-0.1204328	0.03016747	0.04258656	0.07968776	-0.3137483	

2.322e+10	0.1331302	-0.3191024	0.03894076	-0.01669325	0.09999026	-0.03848281	-0.0004249652	-0.01745083	
0.03894076	-0.01669325	0.03453627	-0.3452771	-0.006074913	-0.01828317	0.01263228	-0.1171006	
0.09999026	-0.03848281	-0.006074913	-0.01828317	0.1341357	-0.2352221	0.04841063	0.01722873	
-0.0004249652	-0.01745083	0.01263228	-0.1171006	0.04841063	0.01722873	0.07833352	-0.3130379	

2.324e+10	0.1323837	-0.3365061	0.02209686	-0.03505122	0.1100696	-0.05326425	-0.01083941	-0.01358315	
0.02209686	-0.03505122	0.03654841	-0.3463972	-0.01597269	-0.01081026	0.01551095	-0.1164818	
0.1100696	-0.05326425	-0.01597269	-0.01081026	0.1414182	-0.2480834	0.04876063	-0.01337599	
-0.01083941	-0.01358315	0.01551095	-0.1164818	0.04876063	-0.01337599	0.07897352	-0.3127429	

2.326e+10	0.1293448	-0.3541597	-0.001406659	-0.04056562	0.1182489	-0.06999073	-0.01656315	-0.004218816	
-0.001406659	-0.04056562	0.03675543	-0.350116	-0.0191338	0.001193739	0.01722266	-0.1193841	
0.1182489	-0.06999073	-0.0191338	0.001193739	0.147634	-0.2606768	0.03193887	-0.03817408	
-0.01656315	-0.004218816	0.01722266	-0.1193841	0.03193887	-0.03817408	0.0803213	-0.3144022	

2.328e+10	0.1226898	-0.3712838	-0.02345447	-0.03237728	0.123263	-0.08825415	-0.01538887	0.006330269	
-0.02345447	-0.03237728	0.03389815	-0.3534683	-0.01421821	0.01243834	0.01536596	-0.1228931	
0.123263	-0.08825415	-0.01421821	0.01243834	0.1528374	-0.2741329	0.004595425	-0.04886941	
-0.01538887	0.006330269	0.01536596	-0.1228931	0.004595425	-0.04886941	0.0803915	-0.3177274	

2.33e+10	0.1124593	-0.3858556	-0.03720519	-0.01368147	0.1247225	-0.1067832	-0.008472274	0.01374459	
-0.03720519	-0.01368147	0.02991078	-0.3540488	-0.003667324	0.01810634	0.01128031	-0.1236867	
0.1247225	-0.1067832	-0.003667324	0.01810634	0.1559036	-0.2887953	-0.02356326	-0.04243935	
-0.008472274	0.01374459	0.01128031	-0.1236867	-0.02356326	-0.04243935	0.07833471	-0.320928	

2.332e+10	0.1005388	-0.3964814	-0.03834845	0.009426379	0.123207	-0.1245736	0.001049978	0.01567988	
-0.03834845	0.009426379	0.0277574	-0.3522982	0.007766294	0.01620733	0.008390749	-0.12124	
0.123207	-0.1245736	0.007766294	0.01620733	0.1559469	-0.303544	-0.04306068	-0.02156318	
0.001049978	0.01567988	0.008390749	-0.12124	-0.04306068	-0.02156318	0.07513478	-0.3221338	

2.334e+10	0.08910765	-0.403672	-0.02640821	0.02925733	0.119467	-0.1414502	0.009702651	0.01192167	
-0.02640821	0.02925733	0.02856304	-0.3510198	0.01544751	0.00808847	0.008923803	-0.1182137	
0.119467	-0.1414502	0.01544751	0.00808847	0.1534946	-0.3169258	-0.04747211	0.006477549	
0.009702651	0.01192167	0.008923803	-0.1182137	-0.04747211	0.006477549	0.0731709	-0.3211806	

2.336e+10	0.07907882	-0.4091888	-0.005441987	0.03900823	0.1137061	-0.1576284	0.01450807	0.004024807	
-0.005441987	0.03900823	0.03030889	-0.35267	0.01667186	-0.002616974	0.01161709	-0.1179292	
0.1137061	-0.1576284	0.01667186	-0.002616974	0.1499561	-0.328623	-0.03539647	0.03207305	
0.01450807	0.004024807	0.01161709	-0.1179292	-0.03539647	0.03207305	0.07387773	-0.3203312	

2.338e+10	0.06969958	-0.4144196	0.01740849	0.0354224	0.1057116	-0.1730339	0.01384224	-0.004983512	
0.01740849	0.0354224	0.02984325	-0.3565131	0.01145228	-0.011568	0.01289634	-0.1208337	
0.1057116	-0.1730339	0.01145228	-0.011568	0.1460929	-0.3395011	-0.0110199	0.04640036	
0.01384224	-0.004983512	0.01289634	-0.1208337	-0.0110199	0.04640036	0.07576683	-0.3220473	

2.34e+10	0.05980364	-0.4192057	0.03451531	0.01963612	0.09536015	-0.1871225	0.008263268	-0.01172348	
0.03451531	0.01963612	0.02640361	-0.3592911	0.002346499	-0.01545893	0.01071453	-0.1239879	
0.09536015	-0.1871225	0.002346499	-0.01545893	0.1413844	-0.3503258	0.01719115	0.0444687	
0.008263268	-0.01172348	0.01071453	-0.1239879	0.01719115	0.0444687	0.07579412	-0.3260667	

2.342e+10	0.04943728	-0.4225579	0.03992459	-0.003351299	0.08305943	-0.1992727	0.0001331122	-0.01401937	
0.03992459	-0.003351299	0.02258261	-0.3589403	-0.006806003	-0.01333451	0.006718732	-0.1242184	
0.08305943	-0.1992727	-0.006806003	-0.01333451	0.1350264	-0.360588	0.03942439	0.02690661	
0.0001331122	-0.01401937	0.006718732	-0.1242184	0.03942439	0.02690661	0.07281613	-0.3293772	

2.344e+10	0.03967112	-0.42442	0.03117853	-0.02570891	0.06948918	-0.2093801	-0.007708135	-0.01146227	
0.03117853	-0.02570891	0.02146985	-0.3568547	-0.01268718	-0.00667505	0.004447026	-0.1215087	
0.06948918	-0.2093801	-0.01268718	-0.00667505	0.1273409	-0.3692596	0.0478493	-0.0002595185	
-0.007708135	-0.01146227	0.004447026	-0.1215087	0.0478493	-0.0002595185	0.06914633	-0.3296051	

2.346e+10	0.0308258	-0.4259761	0.01095078	-0.03913162	0.05495458	-0.2177216	-0.01276237	-0.004978406	
0.01095078	-0.03913162	0.02311146	-0.3565217	-0.01367235	0.001702981	0.005569786	-0.1189897	
0.05495458	-0.2177216	-0.01367235	0.001702981	0.11956	-0.3761037	0.03928086	-0.02755689	
-0.01276237	-0.004978406	0.005569786	-0.1189897	0.03928086	-0.02755689	0.0680881	-0.327834	

2.348e+10	0.02179604	-0.4278952	-0.01337887	-0.03848374	0.03929562	-0.2243445	-0.01316047	0.003271516	
-0.01337887	-0.03848374	0.02424935	-0.3594931	-0.009901132	0.008868193	0.008003454	-0.1195825	
0.03929562	-0.2243445	-0.009901132	0.008868193	0.1124345	-0.3821429	0.01654271	-0.04513917	
-0.01316047	0.003271516	0.008003454	-0.1195825	0.01654271	-0.04513917	0.06995459	-0.327676	

2.35e+10	0.01154889	-0.4292947	-0.03298664	-0.02411606	0.02244132	-0.228792	-0.008647028	0.01009223	
-0.03298664	-0.02411606	0.02215947	-0.3633449	-0.002963784	0.01246962	0.008259838	-0.1226422	
0.02244132	-0.228792	-0.002963784	0.01246962	0.1054034	-0.3884849	-0.01220169	-0.04654319	
-0.008647028	0.01009223	0.008259838	-0.1226422	-0.01220169	-0.04654319	0.07154556	-0.3308834	

2.352e+10	0.000546368	-0.4288297	-0.04108396	-0.001111699	0.004852202	-0.2304889	-0.001242783	0.01284803	
-0.04108396	-0.001111699	0.01793394	-0.3645992	0.00446324	0.01146595	0.005400113	-0.1248833	
0.004852202	-0.2304889	0.00446324	0.01146595	0.09723747	-0.3949871	-0.03660463	-0.03130753	
-0.001242783	0.01284803	0.005400113	-0.1248833	-0.03660463	-0.03130753	0.06991089	-0.3352584	

2.354e+10	-0.009751481	-0.4264285	-0.03467133	0.02268828	-0.01253781	-0.2294277	0.006052164	0.010968	
-0.03467133	0.02268828	0.01515648	-0.3628336	0.009688542	0.006681431	0.001923445	-0.1240951	
-0.01253781	-0.2294277	0.009688542	0.006681431	0.08764792	-0.4005117	-0.04803952	-0.004862735	
0.006052164	0.010968	0.001923445	-0.1240951	-0.04803952	-0.004862735	0.06586449	-0.3371466	

2.356e+10	-0.0187732	-0.423364	-0.01556921	0.03874916	-0.02924839	-0.226096	0.01090202	0.005562289	
-0.01556921	0.03874916	0.01576123	-0.3611362	0.01128202	0.0002111893	0.0008030968	-0.1214073	
-0.02924839	-0.226096	0.01128202	0.0002111893	0.07755141	-0.404391	-0.04234948	0.02355206	
0.01090202	0.005562289	0.0008030968	-0.1214073	-0.04234948	0.02355206	0.06306198	-0.3357694	

2.358e+10	-0.02756676	-0.4205876	0.009483805	0.04092243	-0.04540376	-0.2209941	0.01192197	-0.001500303	
0.009483805	0.04092243	0.01771348	-0.3625676	0.009238539	-0.005782525	0.002374295	-0.1199465	
-0.04540376	-0.2209941	0.009238539	-0.005782525	0.06781954	-0.407282	-0.02128634	0.04370153	
0.01192197	-0.001500303	0.002374295	-0.1199465	-0.02128634	0.04370153	0.06381878	-0.3342012	

2.36e+10	-0.03749794	-0.4173589	0.03134625	0.02831755	-0.06131126	-0.2139587	0.0087935	-0.007791878	
0.03134625	0.02831755	0.01734969	-0.3665396	0.004457914	-0.009597173	0.004033384	-0.121393	
-0.06131126	-0.2139587	0.004457914	-0.009597173	0.05792434	-0.4102307	0.007625814	0.04809317	
0.0087935	-0.007791878	0.004033384	-0.121393	0.007625814	0.04809317	0.06621095	-0.3358354	

2.362e+10	-0.048375	-0.4118588	0.04224492	0.005410649	-0.07680703	-0.2043418	0.002837855	-0.01102874	
0.04224492	0.005410649	0.01371594	-0.3694755	-0.001429015	-0.01017312	0.003201956	-0.1240987	
-0.07680703	-0.2043418	-0.001429015	-0.01017312	0.04653665	-0.4129964	0.03381355	0.03512398	
0.002837855	-0.01102874	0.003201956	-0.1240987	0.03381355	0.03512398	0.06632381	-0.3402868	

2.364e+10	-0.0584284	-0.4033703	0.03818834	-0.01997287	-0.09101741	-0.191855	-0.003525547	-0.01043977	
0.03818834	-0.01997287	0.009618396	-0.3690347	-0.00644746	-0.007597206	0.0001705507	-0.1252799	
-0.09101741	-0.191855	-0.00644746	-0.007597206	0.03317896	-0.4140026	0.04795142	0.009533781	
-0.003525547	-0.01043977	0.0001705507	-0.1252799	0.04795142	0.009533781	0.06292404	-0.3438601	

2.366e+10	-0.06621855	-0.393051	0.01997729	-0.03883492	-0.1029933	-0.1769603	-0.008367599	-0.006812297	
0.01997729	-0.03883492	0.008334742	-0.3667153	-0.00925518	-0.003046529	-0.002516527	-0.1238544	
-0.1029933	-0.1769603	-0.00925518	-0.003046529	0.0190236	-0.411951	0.04500577	-0.01971869	
-0.008367599	-0.006812297	-0.002516527	-0.1238544	0.04500577	-0.01971869	0.05881859	-0.3438861	

2.368e+10	-0.07218728	-0.3824062	-0.006286845	-0.0437304	-0.1125223	-0.1605195	-0.01069191	-0.001335538	
-0.006286845	-0.0437304	0.009964317	-0.3661144	-0.009482593	0.002128301	-0.002775754	-0.1215683	
-0.1125223	-0.1605195	-0.009482593	0.002128301	0.005599299	-0.4071015	0.02565416	-0.04224682	
-0.01069191	-0.001335538	-0.002775754	-0.1215683	0.02565416	-0.04224682	0.05762838	-0.341735	

2.37e+10	-0.0778729	-0.3711383	-0.03077852	-0.03224166	-0.1200801	-0.1427513	-0.009833708	0.004669388	
-0.03077852	-0.03224166	0.01125062	-0.3688685	-0.007153686	0.00684099	-0.00125483	-0.1210335	
-0.1200801	-0.1427513	-0.007153686	0.00684099	-0.006873792	-0.400611	-0.003395114	-0.04953378	
-0.009833708	0.004669388	-0.00125483	-0.1210335	-0.003395114	-0.04953378	0.05964836	-0.3413476	

2.372e+10	-0.08302909	-0.3573613	-0.04413024	-0.008466197	-0.1255684	-0.1231375	-0.00579367	0.009358816	
-0.04413024	-0.008466197	0.009459817	-0.37269	-0.00258747	0.009883931	-0.0004627178	-0.1227391	
-0.1255684	-0.1231375	-0.00258747	0.009883931	-0.0193648	-0.3924325	-0.03142158	-0.0386229	
-0.00579367	0.009358816	-0.0004627178	-0.1227391	-0.03142158	-0.0386229	0.06138863	-0.3445641	

2.374e+10	-0.08518859	-0.3401549	-0.04121712	0.01893162	-0.1278931	-0.1011852	0.0001647351	0.01114278	
-0.04121712	0.01893162	0.005468608	-0.3743201	0.00316884	0.01015088	-0.001858656	-0.1248362	
-0.1278931	-0.1011852	0.00316884	0.01015088	-0.03189946	-0.3809969	-0.04806099	-0.01351839	
0.0001647351	0.01114278	-0.001858656	-0.1248362	-0.04806099	-0.01351839	0.05983875	-0.3490074	

2.376e+10	-0.08192463	-0.3214031	-0.02262299	0.03983986	-0.1253881	-0.07777421	0.006235437	0.009566237	
-0.02262299	0.03983986	0.002390527	-0.3732023	0.008526791	0.007241741	-0.004544453	-0.1253076	
-0.1253881	-0.07777421	0.008526791	0.007241741	-0.04252147	-0.3651022	-0.0472614	0.01671758	
0.006235437	0.009566237	-0.004544453	-0.1253076	-0.0472614	0.01671758	0.0558593	-0.3511346	

2.378e+10	-0.07330351	-0.3041615	0.005171423	0.04589456	-0.1175481	-0.05481359	0.01086604	0.004922424	
0.005171423	0.04589456	0.001933077	-0.371665	0.01182516	0.001539871	-0.00656401	-0.1240064	
-0.1175481	-0.05481359	0.01182516	0.001539871	-0.04866607	-0.3456205	-0.02900242	0.04118982	
0.01086604	0.004922424	-0.00656401	-0.1240064	-0.02900242	0.04118982	0.05280962	-0.3502208	

2.38e+10	-0.06135422	-0.2896431	0.03139525	0.0340883	-0.1050983	-0.03370291	0.01247185	-0.002005102	
0.03139525	0.0340883	0.002915786	-0.3720686	0.01147991	-0.005726676	-0.006833961	-0.1223493	
-0.1050983	-0.03370291	0.01147991	-0.005726676	-0.04936747	-0.3249311	0.0003290496	0.05054393	
0.01247185	-0.002005102	-0.006833961	-0.1223493	0.0003290496	0.05054393	0.05270288	-0.348811	

2.382e+10	-0.04682332	-0.2767773	0.04539492	0.008888851	-0.08858945	-0.01471355	0.009672443	-0.009262262	
0.04539492	0.008888851	0.003031738	-0.3743577	0.006574245	-0.01215273	-0.005969647	-0.1218839	
-0.08858945	-0.01471355	0.006574245	-0.01215273	-0.04529734	-0.3045093	0.02970599	0.0409018	
0.009672443	-0.009262262	-0.005969647	-0.1218839	0.02970599	0.0409018	0.05424843	-0.3496163	

2.384e+10	-0.02789499	-0.26576	0.04159189	-0.01955127	-0.06733675	0.001610397	0.002656582	-0.01385664	
0.04159189	-0.01955127	0.001414261	-0.3768873	-0.001970964	-0.01466817	-0.005349766	-0.1229236	
-0.06733675	0.001610397	-0.001970964	-0.01466817	-0.03664115	-0.2845708	0.04783402	0.01591782	
0.002656582	-0.01385664	-0.005349766	-0.1229236	0.04783402	0.01591782	0.05470838	-0.3526618	

2.386e+10	-0.003873993	-0.2598911	0.02180971	-0.03991063	-0.04110912	0.01293799	-0.006229122	-0.01338889	
0.02180971	-0.03991063	-0.001234974	-0.378388	-0.01100305	-0.01122026	-0.006079534	-0.1246618	
-0.04110912	0.01293799	-0.01100305	-0.01122026	-0.02229648	-0.2659671	0.0479529	-0.01480723	
-0.006229122	-0.01338889	-0.006079534	-0.1246618	0.0479529	-0.01480723	0.05297686	-0.3558785	

2.388e+10	0.02215367	-0.262557	-0.005796406	-0.04447184	-0.01195744	0.01653678	-0.01347262	-0.007461851	
-0.005796406	-0.04447184	-0.003859713	-0.3786603	-0.01634055	-0.002366355	-0.008267984	-0.1258086	
-0.01195744	0.01653678	-0.01634055	-0.002366355	-0.001838527	-0.2514033	0.03023891	-0.0396928	
-0.01347262	-0.007461851	-0.008267984	-0.1258086	0.03023891	-0.0396928	0.05012988	-0.3575529	

2.39e+10	0.04534458	-0.2732532	-0.03028416	-0.03201341	0.01640709	0.01193358	-0.0158927	0.002078206	
-0.03028416	-0.03201341	-0.005694347	-0.3780271	-0.014957	0.008427836	-0.0109017	-0.1252364	
0.01640709	0.01193358	-0.014957	0.008427836	0.02270335	-0.2438554	0.001521985	-0.04950361	
-0.0158927	0.002078206	-0.0109017	-0.1252364	0.001521985	-0.04950361	0.04777106	-0.3576941	

2.392e+10	0.06350687	-0.2885337	-0.04239512	-0.008041299	0.04136551	0.001016514	-0.01188825	0.01162153	
-0.04239512	-0.008041299	-0.006144792	-0.37732	-0.006843624	0.01632019	-0.01222634	-0.1231445	
0.04136551	0.001016514	-0.006843624	0.01632019	0.04777715	-0.2441084	-0.02725662	-0.0407616	
-0.01188825	0.01162153	-0.01222634	-0.1231445	-0.02725662	-0.0407616	0.04672591	-0.3573279	

2.394e+10	0.07773646	-0.3060209	-0.03815316	0.0177263	0.06243609	-0.01419774	-0.00243932	0.01694028	
-0.03815316	0.0177263	-0.005434155	-0.3778309	0.004769991	0.0174529	-0.01123612	-0.1214212	
0.06243609	-0.01419774	0.004769991	0.0174529	0.07056061	-0.2506579	-0.04525678	-0.01719144	
-0.00243932	0.01694028	-0.01123612	-0.1214212	-0.04525678	-0.01719144	0.04686676	-0.3575313	

2.396e+10	0.08877845	-0.3260392	-0.02030563	0.03546999	0.0795199	-0.03301467	0.008593038	0.01512894	
-0.02030563	0.03546999	-0.005197947	-0.3803345	0.01472865	0.01089783	-0.00937813	-0.1221305	
0.0795199	-0.03301467	0.01472865	0.01089783	0.09026668	-0.2615305	-0.04618621	0.01190157	
0.008593038	0.01512894	-0.00937813	-0.1221305	-0.04618621	0.01190157	0.04740166	-0.3590344	

2.398e+10	0.09519042	-0.3488665	0.003474675	0.03955668	0.09163354	-0.0549176	0.01609468	0.006719353	
0.003474675	0.03955668	-0.007244027	-0.3835516	0.0183373	-0.0005649643	-0.009419648	-0.1249855	
0.09163354	-0.0549176	0.0183373	-0.0005649643	0.1069902	-0.2757944	-0.03051119	0.03569878	
0.01609468	0.006719353	-0.009419648	-0.1249855	-0.03051119	0.03569878	0.04710976	-0.3617857	

2.4e+10	0.0953467	-0.3725113	0.02462397	0.02991379	0.09778176	-0.07809448	0.01674702	-0.004386627	
0.02462397	0.02991379	-0.01124453	-0.3849858	0.01395163	-0.01163892	-0.01242752	-0.127134	
0.09778176	-0.07809448	0.01395163	-0.01163892	0.1203532	-0.2931889	-0.004573703	0.04605847	
0.01674702	-0.004386627	-0.01242752	-0.127134	-0.004573703	0.04605847	0.04518948	-0.3646708	

2.402e+10	0.08987827	-0.3940088	0.03649846	0.01062313	0.09843052	-0.1002721	0.01065078	-0.01342398	
0.03649846	0.01062313	-0.01462881	-0.3835912	0.00385549	-0.01743274	-0.01627968	-0.1261741	
0.09843052	-0.1002721	0.00385549	-0.01743274	0.1293336	-0.3129803	0.02220037	0.03994195	
0.01065078	-0.01342398	-0.01627968	-0.1261741	0.02220037	0.03994195	0.04204925	-0.3661635	

2.404e+10	0.08117045	-0.4120919	0.03554978	-0.01163388	0.09515912	-0.1201772	0.0005065199	-0.01698645	
0.03554978	-0.01163388	-0.01505904	-0.3812427	-0.007346287	-0.01586245	-0.01772312	-0.122838	
0.09515912	-0.1201772	-0.007346287	-0.01586245	0.1333557	-0.3335818	0.0405249	0.01998994	
0.0005065199	-0.01698645	-0.01772312	-0.122838	0.0405249	0.01998994	0.03941261	-0.365652	

2.406e+10	0.07106559	-0.4276049	0.02242291	-0.02916832	0.08944113	-0.1379169	-0.009708176	-0.01376732	
0.02242291	-0.02916832	-0.01303791	-0.3811771	-0.0150928	-0.008038502	-0.01576467	-0.1205738	
0.08944113	-0.1379169	-0.0150928	-0.008038502	0.1331021	-0.3531389	0.04424702	-0.00651442	
-0.009708176	-0.01376732	-0.01576467	-0.1205738	0.04424702	-0.00651442	0.0389956	-0.3644095	

2.408e+10	0.05958793	-0.4417088	0.002187729	-0.03612081	0.08169042	-0.1540392	-0.01579989	-0.005042388	
0.002187729	-0.03612081	-0.01188239	-0.3845164	-0.01648756	0.002617272	-0.01313864	-0.1219342	
0.08169042	-0.1540392	-0.01648756	0.002617272	0.1300459	-0.3711036	0.03241698	-0.03017119	
-0.01579989	-0.005042388	-0.01313864	-0.1219342	0.03241698	-0.03017119	0.04048725	-0.3648605	

2.41e+10	0.04578943	-0.454258	-0.01803417	-0.03084943	0.07168702	-0.1683854	-0.01524237	0.005334817	
-0.01803417	-0.03084943	-0.01427622	-0.388778	-0.01124967	0.01168197	-0.01347926	-0.1255686	
0.07168702	-0.1683854	-0.01124967	0.01168197	0.1249923	-0.3880253	0.00955537	-0.04282902	
-0.01524237	0.005334817	-0.01347926	-0.1255686	0.00955537	-0.04282902	0.04146013	-0.3680019	

2.412e+10	0.02975325	-0.463997	-0.03194669	-0.01559525	0.0597782	-0.1802986	-0.00877638	0.01288984	
-0.03194669	-0.01559525	-0.01923552	-0.3903664	-0.001914313	0.0155214	-0.0171977	-0.1277173	
0.0597782	-0.1802986	-0.001914313	0.0155214	0.1176075	-0.404281	-0.01616452	-0.04045513	
-0.00877638	0.01288984	-0.0171977	-0.1277173	-0.01616452	-0.04045513	0.03970875	-0.3721173	

2.414e+10	0.01274563	-0.4701173	-0.03527558	0.004832153	0.04691535	-0.1895194	0.0004042843	0.01504757	
-0.03527558	0.004832153	-0.02320752	-0.3883372	0.00737456	0.01304937	-0.02129852	-0.126246	
0.04691535	-0.1895194	0.00737456	0.01304937	0.1073012	-0.4192775	-0.03599085	-0.02420309	
0.0004042843	0.01504757	-0.02129852	-0.126246	-0.03599085	-0.02420309	0.03556301	-0.3743345	

2.416e+10	-0.003781896	-0.4731049	-0.02660646	0.02388099	0.03385753	-0.1964639	0.008790646	0.01167448	
-0.02660646	0.02388099	-0.02343636	-0.3852778	0.01304042	0.005945887	-0.0224981	-0.1225825	
0.03385753	-0.1964639	0.01304042	0.005945887	0.0943834	-0.431795	-0.04329972	0.0003325245	
0.008790646	0.01167448	-0.0224981	-0.1225825	-0.04329972	0.0003325245	0.03184764	-0.373324	

2.418e+10	-0.01943595	-0.4742119	-0.008565727	0.03482092	0.02086614	-0.2018142	0.01360597	0.004285769	
-0.008565727	0.03482092	-0.02085387	-0.3850557	0.0134721	-0.002653866	-0.02027509	-0.1203846	
0.02086614	-0.2018142	0.0134721	-0.002653866	0.08020104	-0.4412303	-0.03553418	0.02474292	
0.01360597	0.004285769	-0.02027509	-0.1203846	-0.03553418	0.02474292	0.03132161	-0.3709801	

2.42e+10	-0.03507322	-0.4740944	0.01250878	0.03368547	0.007538557	-0.205882	0.01317523	-0.004376177	
0.01250878	0.03368547	-0.0194214	-0.3887552	0.009033696	-0.009594374	-0.01772285	-0.121858	
0.007538557	-0.205882	0.009033696	-0.009594374	0.06578741	-0.4482177	-0.01528672	0.04051928	
0.01317523	-0.004376177	-0.01772285	-0.121858	-0.01528672	0.04051928	0.03361188	-0.3709102	

2.422e+10	-0.05139192	-0.47192	0.0293636	0.02100833	-0.006393661	-0.208432	0.007810519	-0.01085509	
0.0293636	0.02100833	-0.0219829	-0.3933162	0.00167443	-0.01249934	-0.01812656	-0.1253865	
-0.006393661	-0.208432	0.00167443	-0.01249934	0.05105296	-0.4536463	0.01031348	0.04206821	
0.007810519	-0.01085509	-0.01812656	-0.1253865	0.01031348	0.04206821	0.03529333	-0.3744805	

2.424e+10	-0.06777989	-0.4665522	0.03647822	0.000965728	-0.02073177	-0.2090344	8.500563e-05	-0.01274972	
0.03647822	0.000965728	-0.02723954	-0.3948916	-0.00560013	-0.01056788	-0.02169669	-0.1274666	
-0.02073177	-0.2090344	-0.00560013	-0.01056788	0.03516369	-0.4574104	0.03231343	0.02895147	
8.500563e-05	-0.01274972	-0.02169669	-0.1274666	0.03231343	0.02895147	0.03343475	-0.3793394	

2.426e+10	-0.08270477	-0.4578197	0.03116163	-0.0200746	-0.03500897	-0.2075582	-0.006800622	-0.0100407	
0.03116163	-0.0200746	-0.03130253	-0.3926543	-0.01000333	-0.005110154	-0.02570867	-0.1261367	
-0.03500897	-0.2075582	-0.01000333	-0.005110154	0.01810605	-0.4583825	0.04322482	0.005715064	
-0.006800622	-0.0100407	-0.02570867	-0.1261367	0.04322482	0.005715064	0.0286249	-0.3817684	

2.428e+10	-0.09506453	-0.4468599	0.01445832	-0.0348195	-0.04884764	-0.2042501	-0.01076517	-0.004369095	
0.01445832	-0.0348195	-0.03145812	-0.3895418	-0.01041709	0.001284595	-0.02702433	-0.1227094	
-0.04884764	-0.2042501	-0.01041709	0.001284595	0.001010134	-0.4557189	0.03921328	-0.01989833	
-0.01076517	-0.004369095	-0.02702433	-0.1227094	0.03921328	-0.01989833	0.02446972	-0.3803537	

2.43e+10	-0.1052049	-0.4348651	-0.008184231	-0.03737952	-0.06233538	-0.199278	-0.01100788	0.002257591	
-0.008184231	-0.03737952	-0.02895296	-0.3894252	-0.007522363	0.006350141	-0.02519245	-0.1204844	
-0.06233538	-0.199278	-0.007522363	0.006350141	-0.0147092	-0.4497996	0.02118449	-0.03905435	
-0.01100788	0.002257591	-0.02519245	-0.1204844	0.02118449	-0.03905435	0.02407312	-0.3775834	

2.432e+10	-0.1142482	-0.4216666	-0.02848162	-0.02628208	-0.07566542	-0.1924818	-0.007628552	0.007754745	
-0.02848162	-0.02628208	-0.0278346	-0.3930256	-0.002766266	0.008886919	-0.02283228	-0.1215339	
-0.07566542	-0.1924818	-0.002766266	0.008886919	-0.02867899	-0.4418102	-0.004921992	-0.04460426	
-0.007628552	0.007754745	-0.02283228	-0.1215339	-0.004921992	-0.04460426	0.02663136	-0.3775319	

2.434e+10	-0.121815	-0.4060305	-0.03892549	-0.005332129	-0.08867852	-0.1831955	-0.001950998	0.01024692	
-0.03892549	-0.005332129	-0.03048558	-0.3971015	0.002268783	0.008535105	-0.02296602	-0.1246418	
-0.08867852	-0.1831955	0.002268783	0.008535105	-0.04166971	-0.4320452	-0.02979697	-0.03412082	
-0.001950998	0.01024692	-0.02296602	-0.1246418	-0.02979697	-0.03412082	0.02819415	-0.381289	

2.436e+10	-0.1259735	-0.3874765	-0.03555086	0.01827066	-0.1004698	-0.1708365	0.003706418	0.009207929	
-0.03555086	0.01827066	-0.03521767	-0.398296	0.006050494	0.005779553	-0.02604761	-0.1266696	
-0.1004698	-0.1708365	0.006050494	0.005779553	-0.05385435	-0.4195275	-0.04441434	-0.01112315	
0.003706418	0.009207929	-0.02604761	-0.1266696	-0.04441434	-0.01112315	0.02607662	-0.3859801	

2.438e+10	-0.1247732	-0.3675699	-0.01882056	0.03616938	-0.1097222	-0.1554835	0.007610584	0.005721877	
-0.01882056	0.03616938	-0.03858249	-0.3964872	0.007748086	0.001899385	-0.02971427	-0.1257983	
-0.1097222	-0.1554835	0.007748086	0.001899385	-0.06379948	-0.4031328	-0.04338504	0.01650643	
0.007610584	0.005721877	-0.02971427	-0.1257983	-0.04338504	0.01650643	0.02144168	-0.388008	

2.44e+10	-0.1182067	-0.3488258	0.005949486	0.04112387	-0.1153502	-0.1381041	0.009333826	0.00112517	
0.005949486	0.04112387	-0.03891007	-0.3944254	0.007588011	-0.001962958	-0.03127732	-0.1229748	
-0.1153502	-0.1381041	0.007588011	-0.001962958	-0.06913493	-0.3834677	-0.02639693	0.03910561	
0.009333826	0.00112517	-0.03127732	-0.1229748	-0.02639693	0.03910561	0.01783136	-0.3867191	

2.442e+10	-0.1078279	-0.3326503	0.02942497	0.0302003	-0.117124	-0.1197703	0.008815929	-0.00382084	
0.02942497	0.0302003	-0.03773133	-0.3946705	0.005966138	-0.005471366	-0.03023925	-0.1208337	
-0.117124	-0.1197703	0.005966138	-0.005471366	-0.06860957	-0.3627588	0.001234038	0.04792511	
0.008815929	-0.00382084	-0.03023925	-0.1208337	0.001234038	0.04792511	0.01747155	-0.3847535	

2.444e+10	-0.09448821	-0.3183746	0.0419697	0.007075891	-0.1149957	-0.1011329	0.005767553	-0.008191194	
0.0419697	0.007075891	-0.03767402	-0.3969964	0.00268237	-0.008289934	-0.02847428	-0.1212104	
-0.1149957	-0.1011329	0.00268237	-0.008289934	-0.06284712	-0.3431015	0.02938054	0.03865837	
0.005767553	-0.008191194	-0.02847428	-0.1212104	0.02938054	0.03865837	0.01904633	-0.3851594	

2.446e+10	-0.07683634	-0.3061244	0.03822391	-0.01919538	-0.1082446	-0.08254989	0.0005104044	-0.01050361	
0.03822391	-0.01919538	-0.03956225	-0.3993954	-0.002265621	-0.009265833	-0.02830794	-0.1233022	
-0.1082446	-0.08254989	-0.002265621	-0.009265833	-0.0526868	-0.3247235	0.04687905	0.01422239	
0.0005104044	-0.01050361	-0.02830794	-0.1233022	0.04687905	0.01422239	0.01957085	-0.3880768	

2.448e+10	-0.05387077	-0.2988027	0.0194609	-0.03813656	-0.09579659	-0.06596233	-0.005584857	-0.009588044	
0.0194609	-0.03813656	-0.04228689	-0.4005842	-0.007669955	-0.007097485	-0.03021443	-0.1250825	
-0.09579659	-0.06596233	-0.007669955	-0.007097485	-0.03715419	-0.3080173	0.04655912	-0.01611162	
-0.005584857	-0.009588044	-0.03021443	-0.1250825	0.04655912	-0.01611162	0.01779373	-0.3912456	

2.45e+10	-0.02826755	-0.3001016	-0.006885112	-0.04210478	-0.07850235	-0.05439815	-0.01059317	-0.005175793	
-0.006885112	-0.04210478	-0.04480963	-0.400813	-0.01126964	-0.001573817	-0.03304162	-0.1252345	
-0.07850235	-0.05439815	-0.01126964	-0.001573817	-0.01520666	-0.2955891	0.02821958	-0.04054524	
-0.01059317	-0.005175793	-0.03304162	-0.1252345	0.02821958	-0.04054524	0.01488301	-0.3929583	

2.452e+10	-0.005117658	-0.3102578	-0.03021989	-0.02960383	-0.05953681	-0.04970992	-0.01242833	0.001901802	
-0.03021989	-0.02960383	-0.04685876	-0.4004578	-0.01083714	0.005747662	-0.03529078	-0.1237253	
-0.05953681	-0.04970992	-0.01083714	0.005747662	0.01116031	-0.2913063	-0.00111228	-0.04931746	
-0.01242833	0.001901802	-0.03529078	-0.1237253	-0.00111228	-0.04931746	0.01234017	-0.3933265	

2.454e+10	0.01260628	-0.3259263	-0.04130737	-0.005945124	-0.04204331	-0.05085777	-0.009520557	0.009365629	
-0.04130737	-0.005945124	-0.04807171	-0.3996996	-0.005607552	0.0118148	-0.03588721	-0.1215426	
-0.04204331	-0.05085777	-0.005607552	0.0118148	0.03741052	-0.2965093	-0.02980074	-0.03892141	
-0.009520557	0.009365629	-0.03588721	-0.1215426	-0.02980074	-0.03892141	0.01066648	-0.3931753	

2.456e+10	0.02540603	-0.3440733	-0.03620426	0.01912874	-0.02703985	-0.05583511	-0.002124338	0.01387128	
-0.03620426	0.01912874	-0.04802652	-0.3993827	0.002852017	0.0134755	-0.03477166	-0.1202329	
-0.02703985	-0.05583511	0.002852017	0.0134755	0.05987153	-0.3091356	-0.04646584	-0.01377263	
-0.002124338	0.01387128	-0.03477166	-0.1202329	-0.04646584	-0.01377263	0.009880651	-0.3930558	

2.458e+10	0.03428691	-0.3645512	-0.01778634	0.03579898	-0.01445424	-0.06382681	0.006949717	0.01273399	
-0.01778634	0.03579898	-0.04755701	-0.4007883	0.0109177	0.009226172	-0.03332741	-0.1210769	
-0.01445424	-0.06382681	0.0109177	0.009226172	0.07746982	-0.3263716	-0.04501206	0.01579829	
0.006949717	0.01273399	-0.03332741	-0.1210769	-0.04501206	0.01579829	0.009919683	-0.393515	

2.46e+10	0.03799878	-0.3875415	0.005985168	0.03847526	-0.00504564	-0.07464567	0.01346277	0.005979656	
0.005985168	0.03847526	-0.04861753	-0.4037031	0.01456092	0.0005417629	-0.03365696	-0.1235372	
-0.00504564	-0.07464567	0.01456092	0.0005417629	0.09051875	-0.3470598	-0.02690283	0.0383215	
0.01346277	0.005979656	-0.03365696	-0.1235372	-0.02690283	0.0383215	0.01015133	-0.3953097	

2.462e+10	0.03479732	-0.4109494	0.02624392	0.02751649	-1.820762e-05	-0.086935	0.01436599	-0.00333937	
0.02624392	0.02751649	-0.05204879	-0.405967	0.0118473	-0.008523816	-0.03651209	-0.1252673	
-1.820762e-05	-0.086935	0.0118473	-0.008523816	0.09829601	-0.3706991	0.0001570849	0.04591973	
0.01436599	-0.00333937	-0.03651209	-0.1252673	0.0001570849	0.04591973	0.009198289	-0.3982838	

2.464e+10	0.02534196	-0.4313863	0.03655874	0.007637519	0.000766546	-0.09847302	0.00952311	-0.01117459	
0.03655874	0.007637519	-0.05614925	-0.4055818	0.004214921	-0.01381743	-0.04011908	-0.1242852	
0.000766546	-0.09847302	0.004214921	-0.01381743	0.09960054	-0.3958829	0.02600259	0.036831	
0.00952311	-0.01117459	-0.04011908	-0.1242852	0.02600259	0.036831	0.006276545	-0.4008809	

2.466e+10	0.01243109	-0.4472773	0.03398729	-0.01425066	-0.001048737	-0.1078749	0.001108803	-0.01458993	
0.03398729	-0.01425066	-0.05813926	-0.4031595	-0.004800553	-0.01340005	-0.04165486	-0.1211806	
-0.001048737	-0.1078749	-0.004800553	-0.01340005	0.09418141	-0.4198973	0.04170551	0.01513836	
0.001108803	-0.01458993	-0.04165486	-0.1211806	0.04170551	0.01513836	0.002507418	-0.4012922	

2.468e+10	-0.001627978	-0.4594871	0.01963105	-0.03065023	-0.003854267	-0.1154557	-0.007698824	-0.01241693	
0.01963105	-0.03065023	-0.05711594	-0.401619	-0.01164023	-0.007848478	-0.04018734	-0.1187967	
-0.003854267	-0.1154557	-0.01164023	-0.007848478	0.08362504	-0.4406756	0.0422993	-0.0111728	
-0.007698824	-0.01241693	-0.04018734	-0.1187967	0.0422993	-0.0111728	0.0003696675	-0.3996298	

2.47e+10	-0.01659175	-0.4694869	-0.001160167	-0.03589926	-0.007266199	-0.122124	-0.01348343	-0.005401178	
-0.001160167	-0.03589926	-0.05541012	-0.4033518	-0.01383004	0.0005506366	-0.03784856	-0.1195309	
-0.007266199	-0.122124	-0.01383004	0.0005506366	0.07005494	-0.4578111	0.0280654	-0.03282322	
-0.01348343	-0.005401178	-0.03784856	-0.1195309	0.0280654	-0.03282322	0.001084809	-0.3984285	

2.472e+10	-0.03348188	-0.477257	-0.02090498	-0.02869944	-0.01174394	-0.1281028	-0.01384417	0.003577767	
-0.02090498	-0.02869944	-0.05632141	-0.4072439	-0.01062026	0.008456821	-0.03785745	-0.1225247	
-0.01174394	-0.1281028	-0.01062026	0.008456821	0.05454189	-0.471969	0.004445104	-0.04243482	
-0.01384417	0.003577767	-0.03785745	-0.1225247	0.004445104	-0.04243482	0.00285612	-0.4000998	

2.474e+10	-0.05228273	-0.4813489	-0.03319665	-0.01202357	-0.01742213	-0.1327819	-0.00891145	0.01073389	
-0.03319665	-0.01202357	-0.06041503	-0.4099219	-0.003523907	0.01272404	-0.0409596	-0.1245793	
-0.01742213	-0.1327819	-0.003523907	0.01272404	0.03684816	-0.483518	-0.02008942	-0.0371546	
-0.00891145	0.01073389	-0.0409596	-0.1245793	-0.02008942	-0.0371546	0.002560874	-0.4042019	

2.476e+10	-0.07128123	-0.4806835	-0.03429091	0.008657833	-0.02362427	-0.1356685	-0.001099379	0.01355449	
-0.03429091	0.008657833	-0.0650376	-0.4092443	0.004341538	0.01201039	-0.04476787	-0.1236025	
-0.02362427	-0.1356685	0.004341538	0.01201039	0.01675038	-0.4917248	-0.03728657	-0.01925328	
-0.001099379	0.01355449	-0.04476787	-0.1236025	-0.03728657	-0.01925328	-0.001010578	-0.4077587	

2.478e+10	-0.08847492	-0.4759769	-0.02356471	0.02666318	-0.02950814	-0.1370595	0.006654273	0.01157915	
-0.02356471	0.02666318	-0.06704699	-0.4064066	0.01007011	0.007180552	-0.04641252	-0.1204686	
-0.02950814	-0.1370595	0.01007011	0.007180552	-0.004798074	-0.4953168	-0.04157128	0.00506749	
0.006654273	0.01157915	-0.04641252	-0.1204686	-0.04157128	0.00506749	-0.005783996	-0.408099	

2.48e+10	-0.1034476	-0.4689455	-0.004252603	0.03555257	-0.03489153	-0.1376878	0.01193485	0.005718223	
-0.004252603	0.03555257	-0.06585149	-0.4047886	0.01206161	0.0002859327	-0.04511586	-0.1180849	
-0.03489153	-0.1376878	0.01206161	0.0002859327	-0.02607377	-0.4940525	-0.03148793	0.0277018	
0.01193485	0.005718223	-0.04511586	-0.1180849	-0.03148793	0.0277018	-0.008313918	-0.4056948	

2.482e+10	-0.1168572	-0.4604632	0.01683426	0.03177963	-0.04026799	-0.1379739	0.01297634	-0.002105195	
0.01683426	0.03177963	-0.06419217	-0.4065332	0.009982494	-0.006402007	-0.04301486	-0.1185685	
-0.04026799	-0.1379739	0.009982494	-0.006402007	-0.04582018	-0.489008	-0.01027468	0.04078468	
0.01297634	-0.002105195	-0.04301486	-0.1185685	-0.01027468	0.04078468	-0.007290473	-0.4039342	

2.484e+10	-0.129618	-0.4496611	0.03206632	0.01664717	-0.04617395	-0.1374411	0.009314512	-0.009042797	
0.03206632	0.01664717	-0.06523437	-0.4102053	0.004612729	-0.01073384	-0.04295091	-0.1210881	
-0.04617395	-0.1374411	0.004612729	-0.01073384	-0.06403902	-0.4811672	0.01474559	0.03952928	
0.009314512	-0.009042797	-0.04295091	-0.1210881	0.01474559	0.03952928	-0.005104493	-0.4056179	

2.486e+10	-0.1404637	-0.4354035	0.03614264	-0.004558699	-0.052332	-0.13527	0.002505229	-0.01249431	
0.03614264	-0.004558699	-0.06910422	-0.4125524	-0.002115204	-0.01129159	-0.04553027	-0.1228865	
-0.052332	-0.13527	-0.002115204	-0.01129159	-0.08130387	-0.4704055	0.03471819	0.02428015	
0.002505229	-0.01249431	-0.04553027	-0.1228865	0.03471819	0.02428015	-0.005344877	-0.4099352	

2.488e+10	-0.1472337	-0.4180929	0.02741363	-0.02468681	-0.05771889	-0.1312383	-0.004787705	-0.0115814	
0.02741363	-0.02468681	-0.07316125	-0.4119742	-0.007845184	-0.008149505	-0.04878018	-0.1222685	
-0.05771889	-0.1312383	-0.007845184	-0.008149505	-0.09710466	-0.4556682	0.04266318	0.0002640208	
-0.004787705	-0.0115814	-0.04878018	-0.1222685	0.04266318	0.0002640208	-0.008993551	-0.4134922	

2.49e+10	-0.148802	-0.3999029	0.008302889	-0.03648929	-0.06155641	-0.1258746	-0.01030515	-0.007027062	
0.008302889	-0.03648929	-0.07507385	-0.409851	-0.01094567	-0.002607627	-0.05046305	-0.1198711	
-0.06155641	-0.1258746	-0.01094567	-0.002607627	-0.1095036	-0.436597	0.03557582	-0.02434286	
-0.01030515	-0.007027062	-0.05046305	-0.1198711	0.03557582	-0.02434286	-0.01366191	-0.4137945	

2.492e+10	-0.1459453	-0.382995	-0.01461318	-0.03495106	-0.06373366	-0.1200171	-0.01260027	-0.0002089395	
-0.01461318	-0.03495106	-0.07466341	-0.4088179	-0.01076332	0.003722928	-0.04998417	-0.1178697	
-0.06373366	-0.1200171	-0.01076332	0.003722928	-0.1166761	-0.4145329	0.01535226	-0.04084402	
-0.01260027	-0.0002089395	-0.04998417	-0.1178697	0.01535226	-0.04084402	-0.01610397	-0.4117052	

2.494e+10	-0.1401376	-0.3675614	-0.03253162	-0.02002142	-0.06455732	-0.1139654	-0.01078567	0.006972225	
-0.03253162	-0.02002142	-0.0741384	-0.4099907	-0.007212854	0.009228711	-0.04873955	-0.1177839	
-0.06455732	-0.1139654	-0.007212854	0.009228711	-0.1181004	-0.3916615	-0.01117675	-0.04269429	
-0.01078567	0.006972225	-0.04873955	-0.1177839	-0.01117675	-0.04269429	-0.01552572	-0.4103064	

2.496e+10	-0.1311166	-0.3527502	-0.03828239	0.002791131	-0.0639167	-0.1073064	-0.005082221	0.01207832	
-0.03828239	0.002791131	-0.07520771	-0.4122053	-0.0009407326	0.01212356	-0.04861677	-0.1191318	
-0.0639167	-0.1073064	-0.0009407326	0.01212356	-0.1144874	-0.3691647	-0.03418601	-0.02853329	
-0.005082221	0.01207832	-0.04861677	-0.1191318	-0.03418601	-0.02853329	-0.01412467	-0.4116878	

2.498e+10	-0.1173127	-0.3395454	-0.02947203	0.02472997	-0.06060689	-0.1004296	0.002699261	0.01309061	
-0.02947203	0.02472997	-0.07759349	-0.4138182	0.006298692	0.01099458	-0.05005856	-0.1203764	
-0.06060689	-0.1004296	0.006298692	0.01099458	-0.1059112	-0.3470698	-0.04469442	-0.003352746	
0.002699261	0.01309061	-0.05005856	-0.1203764	-0.04469442	-0.003352746	-0.01453547	-0.4149955	

2.5e+10	-0.09858975	-0.3311349	-0.009362923	0.03730291	-0.05409869	-0.09507631	0.009865122	0.00945866	
-0.009362923	0.03730291	-0.08023978	-0.4143421	0.01194304	0.005661524	-0.05221656	-0.1204922	
-0.05409869	-0.09507631	0.01194304	0.005661524	-0.09112617	-0.3263773	-0.03845518	0.02343631	
0.009865122	0.00945866	-0.05221656	-0.1204922	-0.03845518	0.02343631	-0.01721904	-0.4178053	

2.502e+10	-0.07806746	-0.3299913	0.01426248	0.03556151	-0.04556366	-0.09325405	0.01386968	0.002199496	
0.01426248	0.03556151	-0.08259567	-0.4141032	0.01356837	-0.00240004	-0.05407415	-0.1195384	
-0.04556366	-0.09325405	0.01356837	-0.00240004	-0.06958341	-0.3100272	-0.01756181	0.04161516	
0.01386968	0.002199496	-0.05407415	-0.1195384	-0.01756181	0.04161516	-0.02066446	-0.4187705	

2.504e+10	-0.05953509	-0.3352447	0.03218088	0.02025754	-0.03739138	-0.09526469	0.01299075	-0.006402946	
0.03218088	0.02025754	-0.08433379	-0.4134057	0.009961899	-0.01029677	-0.05508354	-0.1180732	
-0.03739138	-0.09526469	0.009961899	-0.01029677	-0.04342248	-0.3012567	0.01014779	0.04402151	
0.01299075	-0.006402946	-0.05508354	-0.1180732	0.01014779	0.04402151	-0.0232466	-0.4182845	

2.506e+10	-0.04410158	-0.3442667	0.03749639	-0.002460009	-0.03095932	-0.09976679	0.006991534	-0.01319858	
0.03749639	-0.002460009	-0.0850803	-0.4126504	0.00197036	-0.01470256	-0.05507333	-0.1167194	
-0.03095932	-0.09976679	0.00197036	-0.01470256	-0.01656034	-0.3009147	0.03392008	0.02957682	
0.006991534	-0.01319858	-0.05507333	-0.1167194	0.03392008	0.02957682	-0.02442479	-0.4175162	

2.508e+10	-0.03094744	-0.3558769	0.02848597	-0.02352464	-0.02612633	-0.1057299	-0.002278157	-0.01514764	
0.02848597	-0.02352464	-0.08490854	-0.4129103	-0.007462105	-0.01331909	-0.05432172	-0.1163872	
-0.02612633	-0.1057299	-0.007462105	-0.01331909	0.008342043	-0.3072968	0.04444697	0.004026767	
-0.002278157	-0.01514764	-0.05432172	-0.1163872	0.04444697	0.004026767	-0.02445713	-0.4174442	

2.51e+10	-0.0200277	-0.3708796	0.00931772	-0.03493268	-0.02280374	-0.1131959	-0.01107392	-0.01090513	
0.00931772	-0.03493268	-0.08509414	-0.414914	-0.01427778	-0.006190385	-0.0539687	-0.1174984	
-0.02280374	-0.1131959	-0.01427778	-0.006190385	0.03058715	-0.3188261	0.03793001	-0.02243442	
-0.01107392	-0.01090513	-0.0539687	-0.1174984	0.03793001	-0.02243442	-0.02415312	-0.418764	

2.512e+10	-0.01340278	-0.3892593	-0.01216741	-0.03317723	-0.02193358	-0.1221463	-0.01543205	-0.002075526	
-0.01216741	-0.03317723	-0.08737148	-0.4174956	-0.015198	0.00380056	-0.05534885	-0.11913	
-0.02193358	-0.1221463	-0.015198	0.00380056	0.04998726	-0.3351528	0.01752559	-0.03968331	
-0.01543205	-0.002075526	-0.05534885	-0.11913	0.01752559	-0.03968331	-0.02474257	-0.4214343	

2.514e+10	-0.0126466	-0.4087844	-0.02833252	-0.01994199	-0.02440082	-0.1312714	-0.0135325	0.007473424	
-0.02833252	-0.01994199	-0.09138271	-0.4184172	-0.009733414	0.01216668	-0.05824637	-0.1194228	
-0.02440082	-0.1312714	-0.009733414	0.01216668	0.06505419	-0.3561677	-0.008505235	-0.04180457	
-0.0135325	0.007473424	-0.05824637	-0.1194228	-0.008505235	-0.04180457	-0.02724082	-0.4242363	

2.516e+10	-0.0170751	-0.4266184	-0.03412943	-0.000327629	-0.02973322	-0.1388113	-0.00645533	0.01388143	
-0.03412943	-0.000327629	-0.09475813	-0.4167428	-0.0004706025	0.0153678	-0.06073629	-0.1175234	
-0.02973322	-0.1388113	-0.0004706025	0.0153678	0.07404843	-0.3803082	-0.03051519	-0.02881645	
-0.00645533	0.01388143	-0.06073629	-0.1175234	-0.03051519	-0.02881645	-0.03113812	-0.4253418	

2.518e+10	-0.02446799	-0.4416527	-0.02791884	0.01888116	-0.03642263	-0.1440465	0.002908538	0.01490894	
-0.02791884	0.01888116	-0.0953375	-0.4142714	0.008629803	0.0124324	-0.06092771	-0.1147816	
-0.03642263	-0.1440465	0.008629803	0.0124324	0.07655339	-0.4048763	-0.04089374	-0.006016785	
0.002908538	0.01490894	-0.06092771	-0.1147816	-0.04089374	-0.006016785	-0.03428346	-0.4240664	

2.52e+10	-0.03337281	-0.4547771	-0.01209037	0.03097824	-0.04332995	-0.1475076	0.01105352	0.01024033	
-0.01209037	0.03097824	-0.09368827	-0.4140426	0.0140914	0.004820167	-0.05911216	-0.1137472	
-0.04332995	-0.1475076	0.0140914	0.004820167	0.07392841	-0.4279108	-0.03642586	0.01820097	
0.01105352	0.01024033	-0.05911216	-0.1137472	-0.03642586	0.01820097	-0.03471979	-0.4221246	

2.522e+10	-0.04415904	-0.466806	0.00739732	0.03193957	-0.05040065	-0.1499356	0.01474863	0.001679925	
0.00739732	0.03193957	-0.09311585	-0.4169181	0.01394109	-0.00439347	-0.05791987	-0.1154116	
-0.05040065	-0.1499356	0.01394109	-0.00439347	0.06779541	-0.4490714	-0.0192324	0.035187	
0.01474863	0.001679925	-0.05791987	-0.1154116	-0.0192324	0.035187	-0.03306384	-0.4223779	

2.524e+10	-0.05769373	-0.4771044	0.02376084	0.02207684	-0.05802921	-0.1512502	0.0125852	-0.007147063	
0.02376084	0.02207684	-0.09574742	-0.4204148	0.008416755	-0.01149625	-0.05944062	-0.1178257	
-0.05802921	-0.1512502	0.008416755	-0.01149625	0.05862338	-0.4687887	0.00409507	0.03928514	
0.0125852	-0.007147063	-0.05944062	-0.1178257	0.00409507	0.03928514	-0.03233092	-0.4257141	

2.526e+10	-0.07354951	-0.4840946	0.03192458	0.005052987	-0.06595582	-0.1508951	0.005911199	-0.0127096	
0.03192458	0.005052987	-0.1006069	-0.4213247	6.665385e-05	-0.01378684	-0.0629176	-0.1182312	
-0.06595582	-0.1508951	6.665385e-05	-0.01378684	0.04596513	-0.4868952	0.02524894	0.02971045	
0.005911199	-0.0127096	-0.0629176	-0.1182312	0.02524894	0.02971045	-0.03487838	-0.4298372	

2.528e+10	-0.09009125	-0.4870376	0.02938114	-0.01374437	-0.07338012	-0.1488002	-0.002308552	-0.01340974	
0.02938114	-0.01374437	-0.104318	-0.4190198	-0.007636525	-0.01088182	-0.06566085	-0.1159607	
-0.07338012	-0.1488002	-0.007636525	-0.01088182	0.02984745	-0.5020936	0.03725455	0.01025042	
-0.002308552	-0.01340974	-0.06566085	-0.1159607	0.03725455	0.01025042	-0.03985575	-0.431433	

2.53e+10	-0.1055901	-0.4867284	0.0166079	-0.02810817	-0.0797281	-0.145566	-0.009275682	-0.009565078	
0.0166079	-0.02810817	-0.1045328	-0.4161624	-0.01206024	-0.004432527	-0.06573002	-0.1129808	
-0.0797281	-0.145566	-0.01206024	-0.004432527	0.01143268	-0.5132727	0.03637698	-0.01245462	
-0.009275682	-0.009565078	-0.06573002	-0.1129808	0.03637698	-0.01245462	-0.04383893	-0.4294985	

2.532e+10	-0.120079	-0.4844912	-0.002279971	-0.03274472	-0.08509534	-0.1419589	-0.01287933	-0.002599268	
-0.002279971	-0.03274472	-0.1026473	-0.4160238	-0.01210516	0.003076567	-0.06385471	-0.1119492	
-0.08509534	-0.1419589	-0.01210516	0.003076567	-0.007594467	-0.5204546	0.02293902	-0.0307381	
-0.01287933	-0.002599268	-0.06385471	-0.1119492	0.02293902	-0.0307381	-0.04415449	-0.4266915	

2.534e+10	-0.1343776	-0.4806387	-0.02052182	-0.02579946	-0.0900686	-0.1381649	-0.01188197	0.005119642	
-0.02052182	-0.02579946	-0.1021672	-0.4191069	-0.008043058	0.009151999	-0.06273586	-0.1135521	
-0.0900686	-0.1381649	-0.008043058	0.009151999	-0.0264681	-0.5246628	0.00154013	-0.038246	
-0.01188197	0.005119642	-0.06273586	-0.1135521	0.00154013	-0.038246	-0.04186943	-0.4267108	

2.536e+10	-0.1486582	-0.4740788	-0.03172638	-0.009754249	-0.09494348	-0.1337962	-0.006724062	0.01071492	
-0.03172638	-0.009754249	-0.1050898	-0.4224345	-0.001436693	0.01177568	-0.06418961	-0.1157535	
-0.09494348	-0.1337962	-0.001436693	0.01177568	-0.04550528	-0.5264771	-0.02029151	-0.03238509	
-0.006724062	0.01071492	-0.06418961	-0.1157535	-0.02029151	-0.03238509	-0.04083046	-0.4304177	

2.538e+10	-0.1616815	-0.4637646	-0.03207712	0.01002777	-0.09941378	-0.1283021	0.0003928152	0.01231474	
-0.03207712	0.01002777	-0.1097877	-0.4229946	0.005229368	0.01025348	-0.06737374	-0.116039	
-0.09941378	-0.1283021	0.005229368	0.01025348	-0.06511918	-0.5253495	-0.03503919	-0.0153301	
0.0003928152	0.01231474	-0.06737374	-0.116039	-0.03503919	-0.0153301	-0.04359246	-0.4348203	

2.54e+10	-0.1713512	-0.4503748	-0.0209889	0.02699057	-0.1027797	-0.1218388	0.006921602	0.009901615	
-0.0209889	0.02699057	-0.1129748	-0.4207465	0.009712558	0.005530962	-0.06983393	-0.114048	
-0.1027797	-0.1218388	0.009712558	0.005530962	-0.08459602	-0.5202976	-0.03777811	0.007097282	
0.006921602	0.009901615	-0.06983393	-0.114048	-0.03777811	0.007097282	-0.04882065	-0.4362769	

2.542e+10	-0.1769073	-0.4358885	-0.001642432	0.03476322	-0.1047404	-0.1149469	0.01112989	0.004557892	
-0.001642432	0.03476322	-0.1132156	-0.4184341	0.01094449	-0.0005637508	-0.0700436	-0.1115293	
-0.1047404	-0.1149469	0.01094449	-0.0005637508	-0.102335	-0.5112078	-0.02738838	0.02747456	
0.01112989	0.004557892	-0.0700436	-0.1115293	-0.02738838	0.02747456	-0.0527337	-0.4341793	

2.544e+10	-0.1792232	-0.421814	0.0191154	0.02969429	-0.1055543	-0.10809	0.01192729	-0.00227331	
0.0191154	0.02969429	-0.1119685	-0.4187489	0.008900907	-0.00630196	-0.06875007	-0.1105806	
-0.1055543	-0.10809	0.008900907	-0.00630196	-0.1170066	-0.4992522	-0.006952	0.03859894	
0.01192729	-0.00227331	-0.06875007	-0.1105806	-0.006952	0.03859894	-0.05292245	-0.4315168	

2.546e+10	-0.1794357	-0.4077987	0.03318923	0.01318144	-0.1055928	-0.1011891	0.008803272	-0.008604563	
0.03318923	0.01318144	-0.1123253	-0.4212619	0.004145565	-0.01017921	-0.06806357	-0.1116374	
-0.1055928	-0.1011891	0.004145565	-0.01017921	-0.1288753	-0.4857134	0.01654353	0.03600298	
0.008803272	-0.008604563	-0.06806357	-0.1116374	0.01654353	0.03600298	-0.05092439	-0.4318075	

2.548e+10	-0.1765672	-0.3930634	0.03500522	-0.008707668	-0.1045742	-0.09369739	0.002577573	-0.01219559	
0.03500522	-0.008707668	-0.1150989	-0.4233423	-0.002063273	-0.01096151	-0.06924791	-0.1130466	
-0.1045742	-0.09369739	-0.002063273	-0.01096151	-0.1384628	-0.4707595	0.03450494	0.02020024	
0.002577573	-0.01219559	-0.06924791	-0.1130466	0.03450494	0.02020024	-0.05043798	-0.4352573	

2.55e+10	-0.1687978	-0.3787701	0.02355786	-0.02779716	-0.1014941	-0.0858603	-0.004659197	-0.01176179	
0.02355786	-0.02779716	-0.1184631	-0.423431	-0.007851887	-0.008251059	-0.07152468	-0.1131846	
-0.1014941	-0.0858603	-0.007851887	-0.008251059	-0.145481	-0.4536643	0.04023274	-0.003289566	
-0.004659197	-0.01176179	-0.07152468	-0.1131846	0.04023274	-0.003289566	-0.05324797	-0.4388615	

2.552e+10	-0.1560663	-0.3680263	0.002737603	-0.03663987	-0.09579388	-0.07891023	-0.01063443	-0.007421444	
0.002737603	-0.03663987	-0.1206177	-0.4223127	-0.01141887	-0.00270983	-0.0733726	-0.1119118	
-0.09579388	-0.07891023	-0.01141887	-0.00270983	-0.1482249	-0.4346617	0.03135766	-0.026129	
-0.01063443	-0.007421444	-0.0733726	-0.1119118	0.03135766	-0.026129	-0.05766098	-0.4398769	

2.554e+10	-0.1410827	-0.3631689	-0.0195133	-0.03130071	-0.08814819	-0.07438557	-0.01344587	-0.0002393935	
-0.0195133	-0.03130071	-0.1214677	-0.4216632	-0.01146537	0.004216162	-0.07399507	-0.1104074	
-0.08814819	-0.07438557	-0.01146537	0.004216162	-0.145364	-0.4157922	0.01057313	-0.03991332	
-0.01344587	-0.0002393935	-0.07399507	-0.1104074	0.01057313	-0.03991332	-0.0607223	-0.4384451	

2.556e+10	-0.1270545	-0.3634205	-0.03418657	-0.01365289	-0.08010632	-0.07258504	-0.01166172	0.00777152	
-0.03418657	-0.01365289	-0.1222523	-0.4218945	-0.007439835	0.01040719	-0.07394677	-0.1095481	
-0.08010632	-0.07258504	-0.007439835	0.01040719	-0.1377278	-0.3995376	-0.01477507	-0.0389776	
-0.01166172	0.00777152	-0.07394677	-0.1095481	-0.01477507	-0.0389776	-0.06126939	-0.4370058	

2.558e+10	-0.1146667	-0.3665743	-0.03538699	0.009118759	-0.07248595	-0.07273942	-0.005183896	0.01360377	
-0.03538699	0.009118759	-0.1234365	-0.4223935	-0.0001272161	0.0133984	-0.07394482	-0.1093805	
-0.07248595	-0.07273942	-0.0001272161	0.0133984	-0.1273241	-0.3868032	-0.0349654	-0.02312555	
-0.005183896	0.01360377	-0.07394482	-0.1093805	-0.0349654	-0.02312555	-0.06076759	-0.4374797	

2.56e+10	-0.1028523	-0.3723873	-0.02294023	0.02788817	-0.06498431	-0.07451917	0.003905121	0.01449414	
-0.02294023	0.02788817	-0.1247086	-0.4229059	0.00803794	0.01142962	-0.07429722	-0.1096129	
-0.06498431	-0.07451917	0.00803794	0.01142962	-0.1152529	-0.3769753	-0.04196446	0.001678131	
0.003905121	0.01449414	-0.07429722	-0.1096129	-0.04196446	0.001678131	-0.0612009	-0.4395296	

2.562e+10	-0.09226949	-0.382272	-0.002189043	0.03547553	-0.05780772	-0.07869567	0.01196796	0.009623172	
-0.002189043	0.03547553	-0.1260184	-0.4238008	0.01370592	0.004646131	-0.07514975	-0.1100004	
-0.05780772	-0.07869567	0.01370592	0.004646131	-0.1013376	-0.3699206	-0.03306414	0.02583254	
0.01196796	0.009623172	-0.07514975	-0.1100004	-0.03306414	0.02583254	-0.06311323	-0.4416331	

2.564e+10	-0.08585947	-0.3961115	0.01854995	0.02956314	-0.0524738	-0.08559592	0.01559072	0.0007127421	
0.01854995	0.02956314	-0.1282492	-0.4247818	0.01415347	-0.004527566	-0.07665316	-0.1101663	
-0.0524738	-0.08559592	0.01415347	-0.004527566	-0.0855235	-0.3669351	-0.01175767	0.04015607	
0.01559072	0.0007127421	-0.07665316	-0.1101663	-0.01175767	0.04015607	-0.06574147	-0.4428469	

2.566e+10	-0.08525125	-0.4109403	0.0316628	0.01313718	-0.05049082	-0.0938501	0.01316584	-0.008716923	
0.0316628	0.01313718	-0.13111	-0.42486	0.008831537	-0.01227636	-0.07847675	-0.1094537	
-0.05049082	-0.0938501	0.008831537	-0.01227636	-0.06981938	-0.3691554	0.01377434	0.03932014	
0.01316584	-0.008716923	-0.07847675	-0.1094537	0.01377434	0.03932014	-0.06828326	-0.4431805	

2.568e+10	-0.0892104	-0.4237002	0.03290216	-0.007399738	-0.05166412	-0.1013965	0.005555975	-0.01493717	
0.03290216	-0.007399738	-0.1332567	-0.4236674	-0.0001900497	-0.01529282	-0.07960529	-0.1078163	
-0.05166412	-0.1013965	-0.0001900497	-0.01529282	-0.05669616	-0.3758174	0.03389145	0.02381843	
0.005555975	-0.01493717	-0.07960529	-0.1078163	0.03389145	0.02381843	-0.07031235	-0.442934	

2.57e+10	-0.09514112	-0.4338096	0.02229635	-0.02459634	-0.05459462	-0.1073331	-0.004357957	-0.01544183	
0.02229635	-0.02459634	-0.1336912	-0.4224713	-0.009289263	-0.01230045	-0.07938571	-0.1063104	
-0.05459462	-0.1073331	-0.009289263	-0.01230045	-0.04712426	-0.3846844	0.04112377	-0.0003186709	
-0.004357957	-0.01544183	-0.07938571	-0.1063104	0.04112377	-0.0003186709	-0.07152798	-0.4425569	

2.572e+10	-0.1021068	-0.4426254	0.00408365	-0.03239362	-0.05829596	-0.1121766	-0.01266979	-0.009895163	
0.00408365	-0.03239362	-0.13336	-0.4229639	-0.0148429	-0.004416399	-0.07853237	-0.1062467	
-0.05829596	-0.1121766	-0.0148429	-0.004416399	-0.04023316	-0.394172	0.03302922	-0.023896	
-0.01266979	-0.009895163	-0.07853237	-0.1062467	0.03302922	-0.023896	-0.07194041	-0.4427535	

2.574e+10	-0.1111062	-0.4506455	-0.01487021	-0.02846828	-0.06313643	-0.1163313	-0.01597911	-0.0005021638	
-0.01487021	-0.02846828	-0.1342	-0.4251107	-0.0145555	0.005248914	-0.07880384	-0.1074749	
-0.06313643	-0.1163313	-0.0145555	0.005248914	-0.03512418	-0.4043975	0.01298988	-0.03822092	
-0.01597911	-0.0005021638	-0.07880384	-0.1074749	0.01298988	-0.03822092	-0.07229833	-0.4441238	

2.576e+10	-0.1228037	-0.4563972	-0.02801909	-0.01485413	-0.06946603	-0.1190676	-0.01309559	0.008836415	
-0.02801909	-0.01485413	-0.1372075	-0.4268393	-0.008575853	0.01273819	-0.08080088	-0.1083238	
-0.06946603	-0.1190676	-0.008575853	0.01273819	-0.03222868	-0.4158129	-0.01129999	-0.03834463	
-0.01309559	0.008836415	-0.08080088	-0.1083238	-0.01129999	-0.03834463	-0.07378124	-0.4463532	

2.578e+10	-0.136048	-0.4581155	-0.03130608	0.003561343	-0.07658525	-0.1193396	-0.005510601	0.01459108	
-0.03130608	0.003561343	-0.1409521	-0.4264496	0.0004948586	0.01516493	-0.08329407	-0.1073821	
-0.07658525	-0.1193396	0.0004948586	0.01516493	-0.03263838	-0.4276864	-0.03102259	-0.02465881	
-0.005510601	0.01459108	-0.08329407	-0.1073821	-0.03102259	-0.02465881	-0.0767667	-0.4480207	

2.58e+10	-0.1483567	-0.4557828	-0.02370845	0.02067492	-0.08298966	-0.1170805	0.003800877	0.0149989	
-0.02370845	0.02067492	-0.143026	-0.424503	0.009082873	0.01194242	-0.08443039	-0.1051605	
-0.08298966	-0.1170805	0.009082873	0.01194242	-0.03639031	-0.4382217	-0.03928051	-0.002354333	
0.003800877	0.0149989	-0.08443039	-0.1051605	-0.03928051	-0.002354333	-0.08011161	-0.4479325	

2.582e+10	-0.1585369	-0.4509435	-0.00766023	0.03049666	-0.08775522	-0.1133374	0.01166367	0.01011694	
-0.00766023	0.03049666	-0.1429867	-0.4231653	0.01420246	0.004505559	-0.08378305	-0.1035373	
-0.08775522	-0.1133374	0.01420246	0.004505559	-0.04193137	-0.4461639	-0.03330797	0.02051525	
0.01166367	0.01011694	-0.08378305	-0.1035373	-0.03330797	0.02051525	-0.08195569	-0.4465414	

2.584e+10	-0.1668986	-0.4449696	0.0111576	0.02934328	-0.09111151	-0.1089681	0.01535414	0.001597287	
0.0111576	0.02934328	-0.1424581	-0.4240399	0.01416158	-0.00447899	-0.08282626	-0.1037547	
-0.09111151	-0.1089681	0.01416158	-0.00447899	-0.0476723	-0.4519024	-0.01535585	0.03572452	
0.01535414	0.001597287	-0.08282626	-0.1037547	-0.01535585	0.03572452	-0.08182933	-0.4458529	

2.586e+10	-0.1744599	-0.437509	0.02588922	0.01766904	-0.09348802	-0.1041575	0.01346677	-0.007478586	
0.02588922	0.01766904	-0.1436879	-0.4262216	0.008962128	-0.01179178	-0.0833817	-0.1050508	
-0.09348802	-0.1041575	0.008962128	-0.01179178	-0.05316106	-0.4565957	0.007911357	0.03781018	
0.01346677	-0.007478586	-0.0833817	-0.1050508	0.007911357	0.03781018	-0.08137945	-0.4473583	

2.588e+10	-0.1802784	-0.4276113	0.03138055	-0.000301345	-0.09463942	-0.09844803	0.006795314	-0.01377287	
0.03138055	-0.000301345	-0.1467968	-0.4275405	0.0005413399	-0.01474206	-0.08547383	-0.1055137	
-0.09463942	-0.09844803	0.0005413399	-0.01474206	-0.05909469	-0.4606046	0.02799551	0.02625553	
0.006795314	-0.01377287	-0.08547383	-0.1055137	0.02799551	0.02625553	-0.08278798	-0.4501911	

2.59e+10	-0.1825005	-0.4155508	0.02563327	-0.01834418	-0.09360852	-0.09221391	-0.002165591	-0.01524293	
0.02563327	-0.01834418	-0.1500794	-0.4268869	-0.007975543	-0.0123614	-0.08754124	-0.1043276	
-0.09360852	-0.09221391	-0.007975543	-0.0123614	-0.06562119	-0.4631645	0.03779669	0.005438842	
-0.002165591	-0.01524293	-0.08754124	-0.1043276	0.03779669	0.005438842	-0.08623101	-0.4520388	

2.592e+10	-0.1797532	-0.4037323	0.01034092	-0.02994051	-0.08994928	-0.08674173	-0.0105097	-0.01151766	
0.01034092	-0.02994051	-0.1517227	-0.425382	-0.01363173	-0.005607462	-0.08824346	-0.1024839	
-0.08994928	-0.08674173	-0.01363173	-0.005607462	-0.07172691	-0.463756	0.0339584	-0.01716478	
-0.0105097	-0.01151766	-0.08824346	-0.1024839	0.0339584	-0.01716478	-0.08982544	-0.451583	

2.594e+10	-0.1732234	-0.394614	-0.009048399	-0.0304104	-0.08439427	-0.08342767	-0.01552156	-0.003566318	
-0.009048399	-0.0304104	-0.1519963	-0.4247427	-0.01449098	0.003236462	-0.08785044	-0.1014889	
-0.08439427	-0.08342767	-0.01449098	0.003236462	-0.07609129	-0.4631916	0.0178476	-0.03346635	
-0.01552156	-0.003566318	-0.08785044	-0.1014889	0.0178476	-0.03346635	-0.09139467	-0.4500232	

2.596e+10	-0.1650526	-0.3888397	-0.02501986	-0.01934452	-0.078418	-0.08260646	-0.01509156	0.00618027	
-0.02501986	-0.01934452	-0.1525021	-0.4254538	-0.01005477	0.01111223	-0.08775439	-0.1016644	
-0.078418	-0.08260646	-0.01005477	0.01111223	-0.07891792	-0.4630024	-0.004670532	-0.03745996	
-0.01509156	0.00618027	-0.08775439	-0.1016644	-0.004670532	-0.03745996	-0.09122863	-0.4496079	

2.598e+10	-0.1562808	-0.3852589	-0.03138049	-0.001106798	-0.07283142	-0.08360598	-0.008846049	0.01411275	
-0.03138049	-0.001106798	-0.1540644	-0.4265283	-0.001733929	0.01499508	-0.08865044	-0.1020526	
-0.07283142	-0.08360598	-0.001733929	0.01499508	-0.08143843	-0.4638959	-0.02522062	-0.027756	
-0.008846049	0.01411275	-0.08865044	-0.1020526	-0.02522062	-0.027756	-0.09123179	-0.4512397	

2.6e+10	-0.1461454	-0.3837214	-0.02589335	0.01721002	-0.0674897	-0.08594916	0.001119672	0.01691999	
-0.02589335	0.01721002	-0.1563263	-0.4269507	0.007361072	0.01324264	-0.08999705	-0.1017232	
-0.0674897	-0.08594916	0.007361072	0.01324264	-0.08460456	-0.4650874	-0.03631427	-0.008183775	
0.001119672	0.01691999	-0.08999705	-0.1017232	-0.03631427	-0.008183775	-0.09309908	-0.4535433	

2.602e+10	-0.1345656	-0.3859858	-0.01092182	0.02869153	-0.0623686	-0.09017254	0.01102877	0.01321696	
-0.01092182	0.02869153	-0.1582405	-0.4268636	0.01370622	0.006461643	-0.09096515	-0.1008853	
-0.0623686	-0.09017254	0.01370622	0.006461643	-0.08806125	-0.4656055	-0.03422582	0.01398821	
0.01102877	0.01321696	-0.09096515	-0.1008853	-0.03422582	0.01398821	-0.09607356	-0.4547216	

2.604e+10	-0.1239484	-0.3933536	0.007603945	0.02926527	-0.05851749	-0.09673814	0.01690849	0.00419038	
0.007603945	0.02926527	-0.1599015	-0.4267675	0.01485905	-0.002725806	-0.09155404	-0.1002293	
-0.05851749	-0.09673814	0.01485905	-0.002725806	-0.09099205	-0.4655104	-0.0199742	0.03088722	
0.01690849	0.00419038	-0.09155404	-0.1002293	-0.0199742	0.03088722	-0.09882761	-0.4544073	

2.606e+10	-0.1171813	-0.4043944	0.02271043	0.0192156	-0.05735971	-0.1048565	0.01621196	-0.006700302	
0.02271043	0.0192156	-0.1615956	-0.4267491	0.01045052	-0.0107841	-0.09224518	-0.09982522	
-0.05735971	-0.1048565	0.01045052	-0.0107841	-0.09314198	-0.4657071	0.001274057	0.03663085	
0.01621196	-0.006700302	-0.09224518	-0.09982522	0.001274057	0.03663085	-0.1002649	-0.4537646	

2.608e+10	-0.1149364	-0.4161391	0.02917845	0.002655087	-0.05923126	-0.1127711	0.009101949	-0.0150368	
0.02917845	0.002655087	-0.1634147	-0.4263771	0.002293052	-0.01473565	-0.09317008	-0.09925076	
-0.05923126	-0.1127711	0.002293052	-0.01473565	-0.09550504	-0.4665042	0.02196484	0.02923635	
0.009101949	-0.0150368	-0.09317008	-0.09925076	0.02196484	0.02923635	-0.1009765	-0.4539756	

2.61e+10	-0.1154212	-0.4268813	0.02507287	-0.01435414	-0.06295469	-0.1192528	-0.001552211	-0.01748524	
0.02507287	-0.01435414	-0.1645579	-0.4257979	-0.006553154	-0.01332364	-0.0938223	-0.09831676	
-0.06295469	-0.1192528	-0.006553154	-0.01332364	-0.09828499	-0.4672039	0.03470317	0.01134006	
-0.001552211	-0.01748524	-0.0938223	-0.09831676	0.03470317	0.01134006	-0.1019585	-0.4550167	

2.612e+10	-0.1171337	-0.4371491	0.01213275	-0.02575423	-0.06733888	-0.1245406	-0.01154314	-0.01315317	
0.01213275	-0.02575423	-0.1650941	-0.4258584	-0.01301127	-0.007147092	-0.09391434	-0.09759144	
-0.06733888	-0.1245406	-0.01301127	-0.007147092	-0.1012049	-0.4669075	0.03487066	-0.01063375	
-0.01154314	-0.01315317	-0.09391434	-0.09759144	0.03487066	-0.01063375	-0.1037619	-0.4559729	

2.614e+10	-0.1205849	-0.4478398	-0.004687058	-0.02760898	-0.07223172	-0.1295087	-0.01699468	-0.003780079	
-0.004687058	-0.02760898	-0.1660163	-0.4271309	-0.01479124	0.001659104	-0.09400823	-0.09772314	
-0.07223172	-0.1295087	-0.01479124	0.001659104	-0.1029662	-0.4659897	0.02236425	-0.0287054	
-0.01699468	-0.003780079	-0.09400823	-0.09772314	0.02236425	-0.0287054	-0.1055759	-0.4565725	

2.616e+10	-0.1269439	-0.4583663	-0.01922687	-0.01973005	-0.0784371	-0.1341752	-0.01581676	0.006916747	
-0.01922687	-0.01973005	-0.1686133	-0.4284883	-0.01111406	0.009940606	-0.09510396	-0.09820825	
-0.0784371	-0.1341752	-0.01111406	0.009940606	-0.1032037	-0.4659065	0.001747549	-0.0362499	
-0.01581676	0.006916747	-0.09510396	-0.09820825	0.001747549	-0.0362499	-0.1072267	-0.4571634	

2.618e+10	-0.1359794	-0.4671309	-0.02665713	-0.005336297	-0.08617904	-0.1376479	-0.008625188	0.01472482	
-0.02665713	-0.005336297	-0.1720554	-0.4282172	-0.003271194	0.01452726	-0.09704738	-0.09782967	
-0.08617904	-0.1376479	-0.003271194	0.01452726	-0.1031633	-0.4676564	-0.01937868	-0.03052414	
-0.008625188	0.01472482	-0.09704738	-0.09782967	-0.01937868	-0.03052414	-0.1091752	-0.4579152	

2.62e+10	-0.1463256	-0.4732865	-0.02476527	0.01056839	-0.09462293	-0.1391811	0.001605026	0.01678242	
-0.02476527	0.01056839	-0.1742857	-0.4262233	0.005730831	0.01368121	-0.09849854	-0.0960536	
-0.09462293	-0.1391811	0.005730831	0.01368121	-0.104432	-0.4706736	-0.03326853	-0.01373948	
0.001605026	0.01678242	-0.09849854	-0.0960536	-0.03326853	-0.01373948	-0.1114624	-0.4582799	

2.622e+10	-0.1566275	-0.4775084	-0.01429442	0.02254179	-0.1027953	-0.139123	0.01098647	0.01253341	
-0.01429442	0.02254179	-0.1741438	-0.4246065	0.0125376	0.007811562	-0.0983242	-0.09419075	
-0.1027953	-0.139123	0.0125376	0.007811562	-0.1068422	-0.4737107	-0.03494307	0.007868353	
0.01098647	0.01253341	-0.0983242	-0.09419075	-0.03494307	0.007868353	-0.1132381	-0.4579164	

2.624e+10	-0.167148	-0.480794	0.0009621727	0.02640347	-0.1106643	-0.13828	0.01604412	0.003676657	
0.0009621727	0.02640347	-0.1734014	-0.4253314	0.01468711	-0.000889194	-0.0973111	-0.09387382	
-0.1106643	-0.13828	0.01468711	-0.000889194	-0.1099291	-0.4761552	-0.02392141	0.02639089	
0.01604412	0.003676657	-0.0973111	-0.09387382	-0.02392141	0.02639089	-0.1140879	-0.4575818	

2.626e+10	-0.1786465	-0.4832034	0.01549009	0.02108334	-0.118869	-0.1366949	0.01489251	-0.006314749	
0.01549009	0.02108334	-0.1745293	-0.4278845	0.01136722	-0.009190877	-0.09740805	-0.09502335	
-0.118869	-0.1366949	0.01136722	-0.009190877	-0.1129944	-0.4787462	-0.00438836	0.03512191	
0.01489251	-0.006314749	-0.09740805	-0.09502335	-0.00438836	0.03512191	-0.1144778	-0.4584636	

2.628e+10	-0.1913075	-0.4836807	0.02450291	0.00877862	-0.1275282	-0.1337307	0.008228521	-0.01349054	
0.02450291	0.00877862	-0.1781727	-0.4295108	0.003886785	-0.01391433	-0.09934786	-0.09583864	
-0.1275282	-0.1337307	0.003886785	-0.01391433	-0.1167099	-0.4820529	0.01643135	0.03109113	
0.008228521	-0.01349054	-0.09934786	-0.09583864	0.01643135	0.03109113	-0.1159095	-0.4604346	

2.63e+10	-0.2042605	-0.4814413	0.02527384	-0.006434236	-0.1359163	-0.1287995	-0.001020284	-0.01536516	
0.02527384	-0.006434236	-0.1822788	-0.4283821	-0.004750744	-0.01340082	-0.1018214	-0.09478397	
-0.1359163	-0.1287995	-0.004750744	-0.01340082	-0.1221207	-0.4854656	0.03108941	0.01601965	
-0.001020284	-0.01536516	-0.1018214	-0.09478397	0.03108941	0.01601965	-0.1189451	-0.4619216	

2.632e+10	-0.2161852	-0.4767988	0.01739076	-0.01967743	-0.1431754	-0.1222401	-0.009381798	-0.01176922	
0.01739076	-0.01967743	-0.1840792	-0.4255858	-0.01135574	-0.008177972	-0.1028912	-0.09238381	
-0.1431754	-0.1222401	-0.01135574	-0.008177972	-0.1291898	-0.4875853	0.03454518	-0.004606795	
-0.009381798	-0.01176922	-0.1028912	-0.09238381	0.03454518	-0.004606795	-0.1222899	-0.4615439	

2.634e+10	-0.2269198	-0.4706634	0.003197592	-0.02626205	-0.1491005	-0.1149058	-0.01415556	-0.004281904	
0.003197592	-0.02626205	-0.1832365	-0.4240436	-0.01382922	-0.0003234886	-0.1021127	-0.09062803	
-0.1491005	-0.1149058	-0.01382922	-0.0003234886	-0.1367349	-0.4877567	0.0256416	-0.02349949	
-0.01415556	-0.004281904	-0.1021127	-0.09062803	0.0256416	-0.02349949	-0.1240137	-0.4599342	

2.636e+10	-0.2368467	-0.463637	-0.01235525	-0.02356326	-0.1542141	-0.1071417	-0.01385643	0.004464825	
-0.01235525	-0.02356326	-0.1823242	-0.4253942	-0.01150926	0.007488485	-0.1010588	-0.09080231	
-0.1542141	-0.1071417	-0.01150926	0.007488485	-0.1438518	-0.4865709	0.007528706	-0.03388981	
-0.01385643	0.004464825	-0.1010588	-0.09080231	0.007528706	-0.03388981	-0.1237591	-0.4593089	

2.638e+10	-0.2467344	-0.4549962	-0.023682	-0.0124861	-0.1588789	-0.09850912	-0.008697222	0.01133854	
-0.023682	-0.0124861	-0.1840175	-0.4281062	-0.005230414	0.01259623	-0.1015656	-0.09206173	
-0.1588789	-0.09850912	-0.005230414	0.01259623	-0.1505749	-0.4849305	-0.01322631	-0.03201012	
-0.008697222	0.01133854	-0.1015656	-0.09206173	-0.01322631	-0.03201012	-0.1236044	-0.4609762	

2.64e+10	-0.2556403	-0.4438548	-0.02687078	0.003151837	-0.1626425	-0.08845474	-0.0007846383	0.01395997	
-0.02687078	0.003151837	-0.1879314	-0.4293406	0.002743424	0.01325099	-0.1037056	-0.09246331	
-0.1626425	-0.08845474	0.002743424	0.01325099	-0.1578333	-0.4826063	-0.02911225	-0.01864671	
-0.0007846383	0.01395997	-0.1037056	-0.09246331	-0.02911225	-0.01864671	-0.1255406	-0.4636651	

2.642e+10	-0.2622877	-0.4300337	-0.02061905	0.01817814	-0.164605	-0.07703655	0.006954665	0.01182555	
-0.02061905	0.01817814	-0.1917199	-0.4277938	0.009598252	0.00941211	-0.1058568	-0.09111554	
-0.164605	-0.07703655	0.009598252	0.00941211	-0.1656704	-0.4784276	-0.03455757	0.00135173	
0.006954665	0.01182555	-0.1058568	-0.09111554	-0.03455757	0.00135173	-0.1294508	-0.4648935	

2.644e+10	-0.2654733	-0.4147899	-0.006530785	0.02722361	-0.1642264	-0.06502184	0.01218873	0.006023783	
-0.006530785	0.02722361	-0.1931052	-0.4251063	0.01320664	0.002552282	-0.1065525	-0.08893384	
-0.1642264	-0.06502184	0.01320664	0.002552282	-0.1726512	-0.4717916	-0.02762557	0.02097655	
0.01218873	0.006023783	-0.1065525	-0.08893384	-0.02762557	0.02097655	-0.1328728	-0.4636878	

2.646e+10	-0.2653147	-0.399482	0.01066663	0.02638227	-0.1616755	-0.05312494	0.01353818	-0.001647027	
0.01066663	0.02638227	-0.1922839	-0.4240843	0.01256962	-0.005200597	-0.1058839	-0.0875948	
-0.1616755	-0.05312494	0.01256962	-0.005200597	-0.177488	-0.4633386	-0.01054222	0.03319309	
0.01353818	-0.001647027	-0.1058839	-0.0875948	-0.01054222	0.03319309	-0.1338916	-0.4617602	

2.648e+10	-0.2626123	-0.3843986	0.02436086	0.01538066	-0.1573021	-0.04144355	0.01048876	-0.008944955	
0.02436086	0.01538066	-0.1920371	-0.425513	0.007736336	-0.01152765	-0.1053317	-0.08775904	
-0.1573021	-0.04144355	0.007736336	-0.01152765	-0.1800039	-0.4544061	0.01062073	0.03327514	
0.01048876	-0.008944955	-0.1053317	-0.08775904	0.01062073	0.03327514	-0.1332441	-0.4616352	

2.65e+10	-0.257078	-0.3689241	0.02903896	-0.001788817	-0.1507895	-0.02966573	0.003809696	-0.01344258	
0.02903896	-0.001788817	-0.1940519	-0.4275868	-2.709219e-05	-0.01424097	-0.1060382	-0.0884732	
-0.1507895	-0.02966573	-2.709219e-05	-0.01424097	-0.1808773	-0.4454472	0.02796264	0.02099647	
0.003809696	-0.01344258	-0.1060382	-0.0884732	0.02796264	0.02099647	-0.1334384	-0.4638271	

2.652e+10	-0.2469402	-0.3535859	0.02267635	-0.01865707	-0.1410847	-0.01824859	-0.004362605	-0.0135311	
0.02267635	-0.01865707	-0.1975391	-0.4281024	-0.008267774	-0.01211102	-0.1077113	-0.0884121	
-0.1410847	-0.01824859	-0.008267774	-0.01211102	-0.1802151	-0.4359384	0.03497125	0.0009067148	
-0.004362605	-0.0135311	-0.1077113	-0.0884121	0.03497125	0.0009067148	-0.1360757	-0.4662487	

2.654e+10	-0.2313258	-0.3410254	0.007343958	-0.02867346	-0.1275847	-0.008832087	-0.0114388	-0.009063034	
0.007343958	-0.02867346	-0.2003868	-0.42681	-0.01414796	-0.005493315	-0.1091956	-0.08729462	
-0.1275847	-0.008832087	-0.01414796	-0.005493315	-0.1767604	-0.425896	0.02901675	-0.01957647	
-0.0114388	-0.009063034	-0.1091956	-0.08729462	0.02901675	-0.01957647	-0.1399235	-0.4666851	

2.656e+10	-0.2119791	-0.3341544	-0.01118638	-0.02750741	-0.1112293	-0.0033595	-0.01509676	-0.001116585	
-0.01118638	-0.02750741	-0.2016913	-0.4251439	-0.01534498	0.003735029	-0.1098652	-0.08586701	
-0.1112293	-0.0033595	-0.01534498	0.003735029	-0.1695957	-0.4168289	0.01216587	-0.03281115	
-0.01509676	-0.001116585	-0.1098652	-0.08586701	0.01216587	-0.03281115	-0.1426046	-0.4652767	

2.658e+10	-0.1919377	-0.3337899	-0.02529162	-0.01530509	-0.09400579	-0.0026094	-0.01357761	0.008058593	
-0.02529162	-0.01530509	-0.2020129	-0.4244818	-0.0107577	0.01246732	-0.1099898	-0.08482597	
-0.09400579	-0.0026094	-0.0107577	0.01246732	-0.1594614	-0.4109032	-0.009297541	-0.03361697	
-0.01357761	0.008058593	-0.1099898	-0.08482597	-0.009297541	-0.03361697	-0.1432778	-0.4640024	

2.66e+10	-0.1733117	-0.3383895	-0.02904314	0.002781189	-0.07736446	-0.005898544	-0.006580137	0.01506134	
-0.02904314	0.002781189	-0.2025975	-0.4249454	-0.001386515	0.01706878	-0.110055	-0.08426522	
-0.07736446	-0.005898544	-0.001386515	0.01706878	-0.1482283	-0.40903	-0.02700601	-0.0216359	
-0.006580137	0.01506134	-0.110055	-0.08426522	-0.02700601	-0.0216359	-0.1431527	-0.4644596	

2.662e+10	-0.1561019	-0.3471804	-0.02125722	0.01909311	-0.06162362	-0.01287384	0.003728254	0.01657999	
-0.02125722	0.01909311	-0.2039609	-0.4258899	0.009379862	0.01501617	-0.1102722	-0.08409622	
-0.06162362	-0.01287384	0.009379862	0.01501617	-0.1377194	-0.4104093	-0.03414339	-0.001765478	
0.003728254	0.01657999	-0.1102722	-0.08409622	-0.03414339	-0.001765478	-0.1441457	-0.4662357	

2.664e+10	-0.1410009	-0.3609041	-0.005755604	0.02721811	-0.0475461	-0.0239444	0.01320439	0.01137603	
-0.005755604	0.02721811	-0.2061337	-0.426598	0.01695581	0.00652231	-0.1109076	-0.08415293	
-0.0475461	-0.0239444	0.01695581	0.00652231	-0.1282101	-0.41418	-0.02838242	0.0181583	
0.01320439	0.01137603	-0.1109076	-0.08415293	-0.02838242	0.0181583	-0.1466625	-0.4677144	

2.666e+10	-0.1308469	-0.3791468	0.01089187	0.02470452	-0.03704051	-0.0388556	0.01770184	0.001251091	
0.01089187	0.02470452	-0.2088351	-0.4264738	0.01776052	-0.005127989	-0.1121865	-0.0840179	
-0.03704051	-0.0388556	0.01776052	-0.005127989	-0.1197174	-0.4202713	-0.01242258	0.03076242	
0.01770184	0.001251091	-0.1121865	-0.0840179	-0.01242258	0.03076242	-0.1496951	-0.4679287	

2.668e+10	-0.1272262	-0.3991334	0.02248375	0.01343121	-0.03164867	-0.05568911	0.01512146	-0.009703331	
0.02248375	0.01343121	-0.2111395	-0.4253377	0.01116363	-0.01495971	-0.1137652	-0.08311119	
-0.03164867	-0.05568911	0.01116363	-0.01495971	-0.1130376	-0.4287391	0.007507417	0.03178339	
0.01512146	-0.009703331	-0.1137652	-0.08311119	0.007507417	0.03178339	-0.1519862	-0.4672106	

2.67e+10	-0.1293938	-0.4174879	0.02535674	-0.001875476	-0.0309725	-0.0719519	0.006360643	-0.01696266	
0.02535674	-0.001875476	-0.2122602	-0.4238738	-0.0001111573	-0.01873167	-0.1146454	-0.08132375	
-0.0309725	-0.0719519	-0.0001111573	-0.01873167	-0.1091794	-0.4388735	0.02405318	0.02130516	
0.006360643	-0.01696266	-0.1146454	-0.08132375	0.02405318	0.02130516	-0.1532092	-0.4665373	

2.672e+10	-0.1349678	-0.4330655	0.01915768	-0.01556069	-0.03341417	-0.08654987	-0.005098672	-0.01745872	
0.01915768	-0.01556069	-0.2123902	-0.4233948	-0.01134549	-0.01488769	-0.1142185	-0.07982823	
-0.03341417	-0.08654987	-0.01134549	-0.01488769	-0.1084146	-0.4491611	0.03139962	0.003570762	
-0.005098672	-0.01745872	-0.1142185	-0.07982823	0.03139962	0.003570762	-0.1538762	-0.4666442	

2.674e+10	-0.1422908	-0.4466632	0.006758751	-0.02297759	-0.03791155	-0.09985535	-0.01452488	-0.01088182	
0.006758751	-0.02297759	-0.2128272	-0.4244509	-0.01792901	-0.005073398	-0.1134553	-0.07976728	
-0.03791155	-0.09985535	-0.01792901	-0.005073398	-0.1100485	-0.4583849	0.02734802	-0.01478763	
-0.01452488	-0.01088182	-0.1134553	-0.07976728	0.02734802	-0.01478763	-0.1549175	-0.4676059	

2.676e+10	-0.151853	-0.458624	-0.007089974	-0.02220244	-0.04456712	-0.1121061	-0.01798398	-2.511039e-05	
-0.007089974	-0.02220244	-0.2150078	-0.4258277	-0.01723719	0.00662364	-0.1139536	-0.08074338	
-0.04456712	-0.1121061	-0.01723719	0.00662364	-0.1127374	-0.4663569	0.01383845	-0.02732907	
-0.01798398	-2.511039e-05	-0.1139536	-0.08074338	0.01383845	-0.02732907	-0.1566959	-0.4688585	

2.678e+10	-0.1634646	-0.4683533	-0.01787647	-0.01421449	-0.0535453	-0.1226187	-0.01427547	0.01051325	
-0.01787647	-0.01421449	-0.2182468	-0.4259416	-0.009746649	0.01539387	-0.1160292	-0.08097317	
-0.0535453	-0.1226187	-0.009746649	0.01539387	-0.1161651	-0.4736531	-0.004107237	-0.02997189	
-0.01427547	0.01051325	-0.1160292	-0.08097317	-0.004107237	-0.02997189	-0.1592974	-0.4695442	

2.68e+10	-0.1763345	-0.4749101	-0.02248115	-0.001848287	-0.06408033	-0.1305734	-0.00526255	0.01665014	
-0.02248115	-0.001848287	-0.2208959	-0.4243371	0.001260683	0.01788061	-0.1181495	-0.07936324	
-0.06408033	-0.1305734	0.001260683	0.01788061	-0.1205459	-0.4806234	-0.0202079	-0.02209173	
-0.00526255	0.01665014	-0.1181495	-0.07936324	-0.0202079	-0.02209173	-0.161861	-0.4692802	

2.682e+10	-0.1891091	-0.4783668	-0.01952351	0.01094265	-0.07494473	-0.1360426	0.005434562	0.01635786	
-0.01952351	0.01094265	-0.2217715	-0.4224124	0.01136744	0.01347061	-0.1185444	-0.07689544	
-0.07494473	-0.1360426	0.01136744	0.01347061	-0.1261685	-0.4868058	-0.0289233	-0.006619006	
0.005434562	0.01635786	-0.1185444	-0.07689544	-0.0289233	-0.006619006	-0.163671	-0.468419	

2.684e+10	-0.2008359	-0.4798785	-0.009953005	0.01985838	-0.08549112	-0.1398373	0.01384351	0.009934021	
-0.009953005	0.01985838	-0.221415	-0.4220913	0.01684447	0.004157668	-0.1173359	-0.07555984	
-0.08549112	-0.1398373	0.01684447	0.004157668	-0.1326098	-0.4914738	-0.02732348	0.01092861	
0.01384351	0.009934021	-0.1173359	-0.07555984	-0.02732348	0.01092861	-0.1644319	-0.4679722	

2.686e+10	-0.2118572	-0.4803447	0.002839933	0.0218603	-0.09609278	-0.1426782	0.0168026	-0.0001162181	
0.002839933	0.0218603	-0.2219733	-0.4235149	0.01583269	-0.006423194	-0.1165145	-0.07627399	
-0.09609278	-0.1426782	0.01583269	-0.006423194	-0.1388754	-0.4947277	-0.01612931	0.02434102	
0.0168026	-0.0001162181	-0.1165145	-0.07627399	-0.01612931	0.02434102	-0.1649624	-0.4686973	

2.688e+10	-0.2227364	-0.4798444	0.01447383	0.01649785	-0.107231	-0.1443867	0.01327294	-0.00977672	
0.01447383	0.01649785	-0.2245163	-0.4249339	0.008897919	-0.01425016	-0.1177259	-0.07750809	
-0.107231	-0.1443867	0.008897919	-0.01425016	-0.1445034	-0.4973841	0.0005748643	0.0289903	
0.01327294	-0.00977672	-0.1177259	-0.07750809	0.0005748643	0.0289903	-0.1665129	-0.4702179	

2.69e+10	-0.2335516	-0.477793	0.0212488	0.005649499	-0.1187887	-0.1443073	0.004971103	-0.01533226	
0.0212488	0.005649499	-0.2280376	-0.4245763	-0.001107422	-0.01643874	-0.1202755	-0.07712657	
-0.1187887	-0.1443073	-0.001107422	-0.01643874	-0.1500683	-0.5002036	0.0168544	0.0233778	
0.004971103	-0.01533226	-0.1202755	-0.07712657	0.0168544	0.0233778	-0.1693932	-0.4712818	

2.692e+10	-0.243523	-0.4740481	0.02090755	-0.007280779	-0.130019	-0.142389	-0.004702794	-0.01506189	
0.02090755	-0.007280779	-0.2303111	-0.4225958	-0.01026185	-0.01244862	-0.1219907	-0.07484388	
-0.130019	-0.142389	-0.01026185	-0.01244862	-0.1562703	-0.5029626	0.02702588	0.009593199	
-0.004702794	-0.01506189	-0.1219907	-0.07484388	0.02702588	0.009593199	-0.1725166	-0.4709144	

2.694e+10	-0.2520759	-0.469136	0.01323942	-0.01795948	-0.1404836	-0.1391172	-0.01230735	-0.009440351	
0.01323942	-0.01795948	-0.2306652	-0.4207954	-0.0152583	-0.00410558	-0.1216323	-0.07242111	
-0.1404836	-0.1391172	-0.0152583	-0.00410558	-0.1630045	-0.504973	0.02756601	-0.007472991	
-0.01230735	-0.009440351	-0.1216323	-0.07242111	0.02756601	-0.007472991	-0.174333	-0.4695197	

2.696e+10	-0.2592925	-0.4639494	0.0007200279	-0.02242544	-0.1504018	-0.1349952	-0.01527263	-0.0005893849	
0.0007200279	-0.02242544	-0.2302739	-0.4209527	-0.01453259	0.005372885	-0.1202136	-0.07183241	
-0.1504018	-0.1349952	-0.01453259	0.005372885	-0.1698499	-0.5058669	0.01831324	-0.02176695	
-0.01527263	-0.0005893849	-0.1202136	-0.07183241	0.01831324	-0.02176695	-0.1745872	-0.4686996	

2.698e+10	-0.265861	-0.4588189	-0.01216107	-0.01897194	-0.1602041	-0.1299624	-0.01256055	0.008228787	
-0.01216107	-0.01897194	-0.2312979	-0.4226494	-0.008576414	0.01253962	-0.1200002	-0.07296126	
-0.1602041	-0.1299624	-0.008576414	0.01253962	-0.1762923	-0.5062424	0.002619195	-0.02819661	
-0.01256055	0.008228787	-0.1200002	-0.07296126	0.002619195	-0.02819661	-0.1746764	-0.4696908	

2.7e+10	-0.2723418	-0.4532529	-0.02089523	-0.008839386	-0.1698936	-0.1234349	-0.005369792	0.01365297	
-0.02089523	-0.008839386	-0.2343703	-0.4236868	0.00023837	0.01486009	-0.1218253	-0.07375097	
-0.1698936	-0.1234349	0.00023837	0.01486009	-0.1826415	-0.5067511	-0.01384139	-0.02455449	
-0.005369792	0.01365297	-0.1218253	-0.07375097	-0.01384139	-0.02455449	-0.1763101	-0.4718138	

2.702e+10	-0.2783404	-0.4466511	-0.02247779	0.004601763	-0.1788404	-0.1151223	0.003314314	0.01390342	
-0.02247779	0.004601763	-0.2377737	-0.42267	0.008523017	0.01172447	-0.1242	-0.07263479	
-0.1788404	-0.1151223	0.008523017	0.01172447	-0.1898853	-0.5070618	-0.0252589	-0.01227596	
0.003314314	0.01390342	-0.1242	-0.07263479	-0.0252589	-0.01227596	-0.1798492	-0.472959	

2.704e+10	-0.2831633	-0.4390468	-0.01605369	0.01683448	-0.186468	-0.1053697	0.01035359	0.009369972	
-0.01605369	0.01683448	-0.2394878	-0.4203781	0.01333313	0.004647786	-0.1252136	-0.07018041	
-0.186468	-0.1053697	0.01333313	0.004647786	-0.1979089	-0.5063042	-0.0277102	0.004255107	
0.01035359	0.009369972	-0.1252136	-0.07018041	-0.0277102	0.004255107	-0.1833594	-0.4719955	

2.706e+10	-0.2863292	-0.4312866	-0.003500502	0.02329445	-0.1926806	-0.09464357	0.01359886	0.001878556	
-0.003500502	0.02329445	-0.23922	-0.4190573	0.01329459	-0.003613805	-0.1244219	-0.06828845	
-0.1926806	-0.09464357	0.01329459	-0.003613805	-0.2061212	-0.5038272	-0.02034716	0.01928176	
0.01359886	0.001878556	-0.1244219	-0.06828845	-0.02034716	0.01928176	-0.1849081	-0.4698975	

2.708e+10	-0.288612	-0.4238835	0.01066773	0.02124736	-0.1976896	-0.08306047	0.01211793	-0.006049437	
0.01066773	0.02124736	-0.2390977	-0.4198637	0.008779966	-0.01023906	-0.1233428	-0.06825752	
-0.1976896	-0.08306047	0.008779966	-0.01023906	-0.2135755	-0.4999952	-0.00569513	0.02745248	
0.01211793	-0.006049437	-0.1233428	-0.06825752	-0.00569513	0.02745248	-0.1844148	-0.4691244	

2.71e+10	-0.29057	-0.4165223	0.02111772	0.01131705	-0.201428	-0.07038125	0.006465188	-0.01166063	
0.02111772	0.01131705	-0.2408891	-0.4216394	0.001517406	-0.01315477	-0.123732	-0.0692649	
-0.201428	-0.07038125	0.001517406	-0.01315477	-0.2202773	-0.4954489	0.01101459	0.02576974	
0.006465188	-0.01166063	-0.123732	-0.0692649	0.01101459	0.02576974	-0.1843101	-0.4707876	

2.712e+10	-0.2919407	-0.4083805	0.02401371	-0.002923415	-0.2033451	-0.05643081	-0.001181385	-0.01302152	
0.02401371	-0.002923415	-0.2443408	-0.4220191	-0.005963539	-0.01157396	-0.1256662	-0.06942872	
-0.2033451	-0.05643081	-0.005963539	-0.01157396	-0.2267088	-0.4901934	0.02374892	0.01485842	
-0.001181385	-0.01302152	-0.1256662	-0.06942872	0.02374892	0.01485842	-0.1864685	-0.4733779	

2.714e+10	-0.2917817	-0.3992537	0.01813645	-0.01646879	-0.2026984	-0.04153428	-0.008049085	-0.01000389	
0.01813645	-0.01646879	-0.2473493	-0.4202512	-0.01120329	-0.006269009	-0.1275589	-0.06799573	
-0.2026984	-0.04153428	-0.01120329	-0.006269009	-0.2329503	-0.483387	0.02802322	-0.001355759	
-0.008049085	-0.01000389	-0.1275589	-0.06799573	0.02802322	-0.001355759	-0.1906154	-0.4741707	

2.716e+10	-0.2891541	-0.3901994	0.005211001	-0.02426169	-0.1990605	-0.02652499	-0.01209987	-0.003936156	
0.005211001	-0.02426169	-0.2481902	-0.418	-0.01271434	0.0008690059	-0.1280989	-0.06577739	
-0.1990605	-0.02652499	-0.01271434	0.0008690059	-0.2378675	-0.4745967	0.02229789	-0.01721327	
-0.01209987	-0.003936156	-0.1280989	-0.06577739	0.02229789	-0.01721327	-0.1941371	-0.4724154	

2.718e+10	-0.284621	-0.3824052	-0.01011039	-0.02291249	-0.192513	-0.01221309	-0.01232599	0.003330424	
-0.01011039	-0.02291249	-0.2477243	-0.4173811	-0.01023199	0.007674018	-0.1273674	-0.06439371	
-0.192513	-0.01221309	-0.01023199	0.007674018	-0.2402516	-0.464484	0.008389495	-0.02704359	
-0.01232599	0.003330424	-0.1273674	-0.06439371	0.008389495	-0.02704359	-0.1950643	-0.4699985	

2.72e+10	-0.2791107	-0.376097	-0.02174063	-0.01262796	-0.1833475	0.000960014	-0.008546209	0.009686952	
-0.02174063	-0.01262796	-0.2481414	-0.4187498	-0.004450334	0.01220068	-0.1267508	-0.06441567	
-0.1833475	0.000960014	-0.004450334	0.01220068	-0.2396341	-0.4545066	-0.008816829	-0.02702303	
-0.008546209	0.009686952	-0.1267508	-0.06441567	-0.008816829	-0.02702303	-0.1941557	-0.4696605	

2.722e+10	-0.2729205	-0.3704511	-0.02502942	0.002560051	-0.1716412	0.0126949	-0.001746755	0.01297899	
-0.02502942	0.002560051	-0.2507114	-0.420072	0.00308135	0.01293916	-0.1273799	-0.06498735	
-0.1716412	0.0126949	0.00308135	0.01293916	-0.2368813	-0.4455089	-0.0228697	-0.01694123	
-0.001746755	0.01297899	-0.1273799	-0.06498735	-0.0228697	-0.01694123	-0.1942132	-0.4718976	

2.724e+10	-0.2649672	-0.3655003	-0.01874223	0.01678105	-0.1571128	0.02238845	0.00584906	0.01194258	
-0.01874223	0.01678105	-0.2540449	-0.4196433	0.01005495	0.009309682	-0.1289766	-0.06475569	
-0.1571128	0.02238845	0.01005495	0.009309682	-0.2324376	-0.4375199	-0.02844366	-0.0005511124	
0.00584906	0.01194258	-0.1289766	-0.06475569	-0.02844366	-0.0005511124	-0.197066	-0.4743539	

2.726e+10	-0.2548134	-0.362832	-0.00522807	0.02457505	-0.1399321	0.02877484	0.01174436	0.00683401	
-0.00522807	0.02457505	-0.2563473	-0.417666	0.01402903	0.002117959	-0.1303875	-0.06348157	
-0.1399321	0.02877484	0.01402903	0.002117959	-0.2261092	-0.430492	-0.023469	0.01603349	
0.01174436	0.00683401	-0.1303875	-0.06348157	-0.023469	0.01603349	-0.2013547	-0.4745922	

2.728e+10	-0.2439037	-0.3639266	0.01030161	0.02276679	-0.1213508	0.03068395	0.013992	-0.0009167408	
0.01030161	0.02276679	-0.2568252	-0.4159979	0.01324443	-0.006492108	-0.1309255	-0.06180433	
-0.1213508	0.03068395	0.01324443	-0.006492108	-0.2174503	-0.4254843	-0.009746693	0.0266485	
0.013992	-0.0009167408	-0.1309255	-0.06180433	-0.009746693	0.0266485	-0.2043852	-0.4725325	

2.73e+10	-0.2344406	-0.3685656	0.02153717	0.01205004	-0.1031555	0.0280074	0.01143685	-0.009036494	
0.02153717	0.01205004	-0.2568916	-0.4157806	0.00735291	-0.01348115	-0.1307413	-0.06052175	
-0.1031555	0.0280074	0.00735291	-0.01348115	-0.2074893	-0.4237256	0.007605263	0.02720599	
0.01143685	-0.009036494	-0.1307413	-0.06052175	0.007605263	0.02720599	-0.2049386	-0.4704281	

2.732e+10	-0.2271238	-0.3750259	0.02401514	-0.002977327	-0.08637574	0.02168006	0.004270539	-0.0145419	
0.02401514	-0.002977327	-0.2577879	-0.4167431	-0.002010442	-0.01582984	-0.1304436	-0.05999735	
-0.08637574	0.02168006	-0.002010442	-0.01582984	-0.1979382	-0.4254488	0.0218687	0.01747318	
0.004270539	-0.0145419	-0.1304436	-0.05999735	0.0218687	0.01747318	-0.2043343	-0.4703856	

2.734e+10	-0.2212839	-0.3825037	0.01723487	-0.01611908	-0.071153	0.01216241	-0.005238487	-0.01476845	
0.01723487	-0.01611908	-0.2600529	-0.4174675	-0.01137867	-0.01196131	-0.1305827	-0.0600061	
-0.071153	0.01216241	-0.01137867	-0.01196131	-0.1898897	-0.4297247	0.02756779	0.001432802	
-0.005238487	-0.01476845	-0.1305827	-0.0600061	0.02756779	0.001432802	-0.2048094	-0.4723815	

2.736e+10	-0.2166046	-0.3918934	0.004469871	-0.02250235	-0.05793163	-0.0007887049	-0.01328607	-0.009059744	
0.004469871	-0.02250235	-0.2628075	-0.4171697	-0.01673526	-0.002866623	-0.1314357	-0.06006499	
-0.05793163	-0.0007887049	-0.01673526	-0.002866623	-0.1833951	-0.4356411	0.02290564	-0.01456835	
-0.01328607	-0.009059744	-0.1314357	-0.06006499	0.02290564	-0.01456835	-0.2075331	-0.4743474	

2.738e+10	-0.2148488	-0.4032226	-0.00910511	-0.02033568	-0.04819328	-0.01701882	-0.0164004	0.0005612512	
-0.00910511	-0.02033568	-0.2651037	-0.4158091	-0.01541595	0.00794314	-0.1328932	-0.05958524	
-0.04819328	-0.01701882	-0.01541595	0.00794314	-0.1784957	-0.4429048	0.0101319	-0.0246759	
-0.0164004	0.0005612512	-0.1328932	-0.05958524	0.0101319	-0.0246759	-0.2112956	-0.4745777	

2.74e+10	-0.2170154	-0.4149358	-0.01859047	-0.01108214	-0.04318311	-0.03499396	-0.01312099	0.01033262	
-0.01859047	-0.01108214	-0.2662927	-0.4141573	-0.0076048	0.01585114	-0.1342767	-0.05810671	
-0.04318311	-0.03499396	-0.0076048	0.01585114	-0.1753467	-0.4516031	-0.005786025	-0.02557055	
-0.01312099	0.01033262	-0.1342767	-0.05810671	-0.005786025	-0.02557055	-0.2143518	-0.4729747	

2.742e+10	-0.2226973	-0.424716	-0.02097224	0.001488593	-0.04270614	-0.05277535	-0.004495859	0.01636673	
-0.02097224	0.001488593	-0.2665455	-0.4132808	0.003534854	0.01734956	-0.1345948	-0.05602642	
-0.04270614	-0.05277535	0.003534854	0.01734956	-0.1747991	-0.4611314	-0.01905586	-0.01733949	
-0.004495859	0.01636673	-0.1345948	-0.05602642	-0.01905586	-0.01733949	-0.2153951	-0.4711153	

2.744e+10	-0.2298066	-0.4320215	-0.0159405	0.01274792	-0.04569312	-0.06948182	0.006249572	0.01601693	
-0.0159405	0.01274792	-0.2668491	-0.4137514	0.01331093	0.01171659	-0.1336755	-0.05471534	
-0.04569312	-0.06948182	0.01331093	0.01171659	-0.1769177	-0.4704327	-0.02509107	-0.003298847	
0.006249572	0.01601693	-0.1336755	-0.05471534	-0.02509107	-0.003298847	-0.2151706	-0.4706242	

2.746e+10	-0.2375249	-0.4374664	-0.005854857	0.0189491	-0.05157664	-0.08502913	0.0146982	0.009112917	
-0.005854857	0.0189491	-0.2685038	-0.4148849	0.0176202	0.001312283	-0.1328542	-0.05500286	
-0.05157664	-0.08502913	0.0176202	0.001312283	-0.1813211	-0.4783368	-0.02213564	0.01133713	
0.0146982	0.009112917	-0.1328542	-0.05500286	-0.02213564	0.01133713	-0.2153817	-0.471957	

2.748e+10	-0.2458036	-0.441622	0.005531493	0.01857278	-0.06043222	-0.09923741	0.0171763	-0.001515148	
0.005531493	0.01857278	-0.2714178	-0.4152442	0.01472331	-0.009481255	-0.1336551	-0.05601883	
-0.06043222	-0.09923741	0.01472331	-0.009481255	-0.1867916	-0.4845853	-0.01167768	0.0215345	
0.0171763	-0.001515148	-0.1336551	-0.05601883	-0.01167768	0.0215345	-0.2174416	-0.4738407	

2.75e+10	-0.2548959	-0.4439945	0.01467391	0.01224364	-0.07215617	-0.1111532	0.01278037	-0.01133538	
0.01467391	0.01224364	-0.2744532	-0.4138684	0.005990409	-0.01619244	-0.1359299	-0.05585979	
-0.07215617	-0.1111532	0.005990409	-0.01619244	-0.1925783	-0.4896401	0.002462215	0.02408949	
0.01278037	-0.01133538	-0.1359299	-0.05585979	0.002462215	0.02408949	-0.220922	-0.4746337	

2.752e+10	-0.2638802	-0.4442482	0.01889608	0.002022444	-0.08584687	-0.1200424	0.003590612	-0.01651928	
0.01889608	0.002022444	-0.275899	-0.4116666	-0.004789385	-0.01625199	-0.1378717	-0.05375392	
-0.08584687	-0.1200424	-0.004789385	-0.01625199	-0.1987698	-0.4939571	0.01547889	0.01836356	
0.003590612	-0.01651928	-0.1378717	-0.05375392	0.01547889	0.01836356	-0.2243617	-0.4735708	

2.754e+10	-0.2719476	-0.4425635	0.01674817	-0.008878556	-0.1003882	-0.1258442	-0.006751383	-0.01535095	
0.01674817	-0.008878556	-0.2758757	-0.4102369	-0.01321836	-0.009996966	-0.1378317	-0.05095814	
-0.1003882	-0.1258442	-0.01321836	-0.009996966	-0.2057113	-0.4973675	0.02301241	0.006397047	
-0.006751383	-0.01535095	-0.1378317	-0.05095814	0.02301241	0.006397047	-0.2261368	-0.4715615	

2.756e+10	-0.2784891	-0.4400159	0.00883296	-0.01669876	-0.1151258	-0.1290783	-0.01440553	-0.00837076	
0.00883296	-0.01669876	-0.2755964	-0.4107498	-0.01618218	-0.00024291	-0.1362013	-0.04965398	
-0.1151258	-0.1290783	-0.01618218	-0.00024291	-0.213043	-0.4994723	0.02251857	-0.007697976	
-0.01440553	-0.00837076	-0.1362013	-0.04965398	0.02251857	-0.007697976	-0.2262446	-0.4703116	

2.758e+10	-0.2840947	-0.4373004	-0.002043216	-0.01870474	-0.1300708	-0.1301162	-0.01640696	0.001759191	
-0.002043216	-0.01870474	-0.2770208	-0.4122505	-0.01290036	0.009106946	-0.13518	-0.05051483	
-0.1300708	-0.1301162	-0.01290036	0.009106946	-0.2200379	-0.5003111	0.01416736	-0.01904301	
-0.01640696	0.001759191	-0.13518	-0.05051483	0.01416736	-0.01904301	-0.2259812	-0.4710261	

2.76e+10	-0.28917	-0.4347418	-0.01214228	-0.01436336	-0.145245	-0.1287281	-0.0119919	0.01094244	
-0.01214228	-0.01436336	-0.280197	-0.4129172	-0.004963464	0.01456341	-0.1363724	-0.051803	
-0.145245	-0.1287281	-0.004963464	0.01456341	-0.2264355	-0.500567	0.0008773335	-0.02366674	
-0.0119919	0.01094244	-0.1363724	-0.051803	0.0008773335	-0.02366674	-0.2272498	-0.473035	

2.762e+10	-0.2941769	-0.4317326	-0.01820484	-0.005134296	-0.1601329	-0.1245703	-0.003218156	0.01555356	
-0.01820484	-0.005134296	-0.2835929	-0.4115521	0.004373745	0.01429695	-0.1389764	-0.05140892	
-0.1601329	-0.1245703	0.004373745	0.01429695	-0.2326792	-0.5008067	-0.01267364	-0.01996277	
-0.003218156	0.01555356	-0.1389764	-0.05140892	-0.01267364	-0.01996277	-0.2304173	-0.4745257	

2.764e+10	-0.2987692	-0.4281163	-0.01810226	0.006095601	-0.1739546	-0.1177319	0.006269319	0.01420505	
-0.01810226	0.006095601	-0.2853834	-0.4089353	0.01150674	0.008795018	-0.1407858	-0.04897172	
-0.1739546	-0.1177319	0.01150674	0.008795018	-0.2394483	-0.5008885	-0.02175267	-0.00925587	
0.006269319	0.01420505	-0.1407858	-0.04897172	-0.02175267	-0.00925587	-0.2343655	-0.4739942	

2.766e+10	-0.3023982	-0.4242598	-0.01151622	0.01546145	-0.1862102	-0.1087689	0.01306319	0.007839538	
-0.01151622	0.01546145	-0.285079	-0.4071349	0.01399232	0.0005205093	-0.1404629	-0.04618184	
-0.1862102	-0.1087689	0.01399232	0.0005205093	-0.2469263	-0.5000567	-0.02319951	0.004741081	
0.01306319	0.007839538	-0.1404629	-0.04618184	-0.02319951	0.004741081	-0.2369575	-0.4717528	

2.768e+10	-0.3054838	-0.4204623	-0.0006099121	0.0193754	-0.1968416	-0.09818449	0.01496273	-0.001112054	
-0.0006099121	0.0193754	-0.2844587	-0.4074588	0.01138685	-0.007327919	-0.1388129	-0.04504949	
-0.1968416	-0.09818449	0.01138685	-0.007327919	-0.2544664	-0.4979136	-0.01641399	0.01715826	
0.01496273	-0.001112054	-0.1388129	-0.04504949	-0.01641399	0.01715826	-0.2372608	-0.4696965	

2.77e+10	-0.3084083	-0.416942	0.01058465	0.01630579	-0.2059648	-0.08603026	0.01137531	-0.009413154	
0.01058465	0.01630579	-0.2855351	-0.409305	0.005050123	-0.01211128	-0.1379586	-0.04591945	
-0.2059648	-0.08603026	0.005050123	-0.01211128	-0.2616715	-0.4946289	-0.00367513	0.02351454	
0.01137531	-0.009413154	-0.1379586	-0.04591945	-0.00367513	0.02351454	-0.2364103	-0.4698453	

2.772e+10	-0.3116255	-0.4130908	0.01805697	0.007430381	-0.2132928	-0.07219563	0.003759763	-0.01395851	
0.01805697	0.007430381	-0.28889	-0.4102874	-0.002596165	-0.01247063	-0.1391212	-0.0469817	
-0.2132928	-0.07219563	-0.002596165	-0.01247063	-0.2685602	-0.4905352	0.01044606	0.02141286	
0.003759763	-0.01395851	-0.1391212	-0.0469817	0.01044606	0.02141286	-0.2369139	-0.4720768	

2.774e+10	-0.3146072	-0.4083783	0.01925105	-0.004200575	-0.218267	-0.05681363	-0.004785678	-0.01324918	
0.01925105	-0.004200575	-0.2925894	-0.4089861	-0.00888479	-0.008603949	-0.1414318	-0.04650042	
-0.218267	-0.05681363	-0.00888479	-0.008603949	-0.275604	-0.485348	0.0208253	0.01161836	
-0.004785678	-0.01324918	-0.1414318	-0.04650042	0.0208253	0.01161836	-0.2400508	-0.4741911	

2.776e+10	-0.3168168	-0.4026023	0.01354001	-0.01465981	-0.2203931	-0.04037019	-0.01114195	-0.00802992	
0.01354001	-0.01465981	-0.2945732	-0.406041	-0.01181927	-0.002154319	-0.1430739	-0.04431612	
-0.2203931	-0.04037019	-0.01181927	-0.002154319	-0.2824335	-0.4783309	0.02379651	-0.002357507	
-0.01114195	-0.00802992	-0.1430739	-0.04431612	0.02379651	-0.002357507	-0.2444553	-0.4740294	

2.778e+10	-0.3175166	-0.3964672	0.002595378	-0.02003257	-0.2194322	-0.02352802	-0.01347459	-0.0004469981	
0.002595378	-0.02003257	-0.2941218	-0.4039337	-0.01079328	0.00455482	-0.1429653	-0.04183307	
-0.2194322	-0.02352802	-0.01079328	0.00455482	-0.2881563	-0.4689414	0.01826578	-0.01564185	
-0.01347459	-0.0004469981	-0.1429653	-0.04183307	0.01826578	-0.01564185	-0.2475563	-0.4715252	

2.78e+10	-0.3170432	-0.3904	-0.009627869	-0.01794086	-0.2153948	-0.006731425	-0.01135211	0.007044092	
-0.009627869	-0.01794086	-0.2932461	-0.4042117	-0.006521312	0.009513446	-0.1417234	-0.04058499	
-0.2153948	-0.006731425	-0.006521312	0.009513446	-0.2914797	-0.4575314	0.005970353	-0.02347054	
-0.01135211	0.007044092	-0.1417234	-0.04058499	0.005970353	-0.02347054	-0.2479539	-0.4688969	

2.782e+10	-0.31553	-0.384406	-0.01834514	-0.009007049	-0.2081355	0.009669796	-0.005493142	0.01214335	
-0.01834514	-0.009007049	-0.294231	-0.4061656	-0.0003977124	0.01150413	-0.1409302	-0.04091735	
-0.2081355	0.009669796	-0.0003977124	0.01150413	-0.2916911	-0.4450722	-0.008784304	-0.02271782	
-0.005493142	0.01214335	-0.1409302	-0.04091735	-0.008784304	-0.02271782	-0.2468043	-0.4687007	

2.784e+10	-0.3126542	-0.3780684	-0.02021252	0.003360661	-0.1972029	0.0252273	0.002216541	0.01314544	
-0.02021252	0.003360661	-0.2976588	-0.4071463	0.005920021	0.01003257	-0.1416308	-0.04165735	
-0.1972029	0.0252273	0.005920021	0.01003257	-0.2884781	-0.4323911	-0.02041376	-0.01340933	
0.002216541	0.01314544	-0.1416308	-0.04165735	-0.02041376	-0.01340933	-0.2469704	-0.4710083	

2.786e+10	-0.3072592	-0.371941	-0.01450466	0.01457572	-0.182022	0.03888924	0.009178064	0.009724892	
-0.01450466	0.01457572	-0.3013499	-0.405768	0.01066275	0.005357444	-0.1433771	-0.04138367	
-0.182022	0.03888924	0.01066275	0.005357444	-0.2816973	-0.4198427	-0.02441163	0.0009975427	
0.009178064	0.009724892	-0.1433771	-0.04138367	-0.02441163	0.0009975427	-0.2499826	-0.4733329	

2.788e+10	-0.2987678	-0.367896	-0.003167314	0.02037023	-0.162618	0.04875681	0.01317231	0.003059718	
-0.003167314	0.02037023	-0.3031497	-0.4030246	0.01229031	-0.001401825	-0.1449271	-0.03986515	
-0.162618	0.04875681	0.01229031	-0.001401825	-0.2703447	-0.4086012	-0.01920988	0.01504624	
0.01317231	0.003059718	-0.1449271	-0.03986515	-0.01920988	0.01504624	-0.2544162	-0.4732934	

2.79e+10	-0.2885433	-0.3677285	0.009494173	0.01821407	-0.1402132	0.05287033	0.01296417	-0.004879368	
0.009494173	0.01821407	-0.3030444	-0.4009874	0.009876922	-0.008394037	-0.1454216	-0.03774401	
-0.1402132	0.05287033	0.009876922	-0.008394037	-0.2539906	-0.4011531	-0.006704271	0.02336518	
0.01296417	-0.004879368	-0.1454216	-0.03774401	-0.006704271	0.02336518	-0.2576922	-0.4708795	

2.792e+10	-0.2786809	-0.3721141	0.01820278	0.008870224	-0.1171145	0.05009857	0.008241323	-0.01175236	
0.01820278	0.008870224	-0.3024558	-0.401081	0.003501195	-0.01321506	-0.144852	-0.03608882	
-0.1171145	0.05009857	0.003501195	-0.01321506	-0.2344343	-0.4002235	0.008269559	0.0226123	
0.008241323	-0.01175236	-0.144852	-0.03608882	0.008269559	0.0226123	-0.2583201	-0.4683324	

2.794e+10	-0.2711501	-0.3799981	0.01942521	-0.003516852	-0.09576085	0.04056919	-6.173605e-05	-0.01492487	
0.01942521	-0.003516852	-0.3034191	-0.4023585	-0.005164637	-0.01344732	-0.1439883	-0.03550018	
-0.09576085	0.04056919	-0.005164637	-0.01344732	-0.2149226	-0.4072922	0.01964647	0.01315862	
-6.173605e-05	-0.01492487	-0.1439883	-0.03550018	0.01964647	0.01315862	-0.2574246	-0.4678667	

2.796e+10	-0.266452	-0.3906041	0.01327617	-0.01372869	-0.07825685	0.02506527	-0.009141072	-0.01242587	
0.01327617	-0.01372869	-0.306042	-0.4031955	-0.01273497	-0.008035167	-0.143759	-0.03584315	
-0.07825685	0.02506527	-0.01273497	-0.008035167	-0.1991659	-0.4213386	0.02301601	-0.000802691	
-0.009141072	-0.01242587	-0.143759	-0.03584315	0.02301601	-0.000802691	-0.2575935	-0.469531	

2.798e+10	-0.2657005	-0.402956	0.002882906	-0.01821224	-0.06656845	0.005040361	-0.01507587	-0.004640823	
0.002882906	-0.01821224	-0.3092396	-0.4024269	-0.01549067	0.00137978	-0.1447306	-0.03632697	
-0.06656845	0.005040361	-0.01549067	0.00137978	-0.1893737	-0.4399321	0.01775723	-0.01353424	
-0.01507587	-0.004640823	-0.1447306	-0.03632697	0.01775723	-0.01353424	-0.2599959	-0.4715651	

2.8e+10	-0.2696927	-0.415449	-0.007686115	-0.01612151	-0.06212073	-0.01693605	-0.01505679	0.005325974	
-0.007686115	-0.01612151	-0.3115447	-0.400341	-0.01164799	0.01075222	-0.1466102	-0.03576683	
-0.06212073	-0.01693605	-0.01164799	0.01075222	-0.1862707	-0.460342	0.006647289	-0.02060007	
-0.01505679	0.005325974	-0.1466102	-0.03576683	0.006647289	-0.02060007	-0.2638925	-0.4719866	

2.802e+10	-0.2780645	-0.4257375	-0.01500889	-0.008795106	-0.06465582	-0.03772129	-0.009008102	0.01331993	
-0.01500889	-0.008795106	-0.312251	-0.3982285	-0.002677176	0.01573487	-0.1481524	-0.0337138	
-0.06465582	-0.03772129	-0.002677176	0.01573487	-0.1894357	-0.4801731	-0.005992897	-0.02017994	
-0.009008102	0.01331993	-0.1481524	-0.0337138	-0.005992897	-0.02017994	-0.2673096	-0.4703588	

2.804e+10	-0.288972	-0.4323138	-0.01699203	0.001075003	-0.07225201	-0.05524083	0.0006508246	0.01614789	
-0.01699203	0.001075003	-0.3120672	-0.3972795	0.007427137	0.01407908	-0.1480647	-0.03112117	
-0.07225201	-0.05524083	0.007427137	0.01407908	-0.1976667	-0.4977258	-0.01590319	-0.01301661	
0.0006508246	0.01614789	-0.1480647	-0.03112117	-0.01590319	-0.01301661	-0.2687689	-0.4679703	

2.806e+10	-0.3003042	-0.4353157	-0.01327136	0.01016509	-0.0828056	-0.06899102	0.01015785	0.01264285	
-0.01327136	0.01016509	-0.3122604	-0.3979542	0.01429417	0.006653943	-0.1465195	-0.02970322	
-0.0828056	-0.06899102	0.01429417	0.006653943	-0.2098241	-0.511604	-0.02005723	-0.001867715	
0.01015785	0.01264285	-0.1465195	-0.02970322	-0.02005723	-0.001867715	-0.2684872	-0.466725	

2.808e+10	-0.311137	-0.4355545	-0.005353062	0.01559061	-0.09510104	-0.07943224	0.01567721	0.004086238	
-0.005353062	0.01559061	-0.3140587	-0.3990974	0.01520694	-0.003238716	-0.1453377	-0.03033616	
-0.09510104	-0.07943224	0.01520694	-0.003238716	-0.2239816	-0.5213313	-0.01742638	0.00947357	
0.01567721	0.004086238	-0.1453377	-0.03033616	-0.01742638	0.00947357	-0.268292	-0.4675177	

2.81e+10	-0.3210334	-0.4340101	0.004097323	0.0158603	-0.1086484	-0.08682607	0.01490257	-0.006013166	
0.004097323	0.0158603	-0.3171304	-0.3991163	0.01006303	-0.01149976	-0.1462116	-0.03161208	
-0.1086484	-0.08682607	0.01006303	-0.01149976	-0.2385074	-0.5272536	-0.009101077	0.01737919	
0.01490257	-0.006013166	-0.1462116	-0.03161208	-0.009101077	0.01737919	-0.2698912	-0.4693552	

2.812e+10	-0.3300841	-0.4309521	0.01221416	0.01098456	-0.1228942	-0.09103656	0.008333848	-0.01348102	
0.01221416	0.01098456	-0.3200021	-0.3974339	0.001190138	-0.01492563	-0.1486778	-0.03141264	
-0.1228942	-0.09103656	0.001190138	-0.01492563	-0.2523355	-0.5304612	0.002107883	0.01936562	
0.008333848	-0.01348102	-0.1486778	-0.03141264	0.002107883	0.01936562	-0.2730632	-0.4704908	

2.814e+10	-0.3380845	-0.4265565	0.01640905	0.002318234	-0.1371014	-0.09212834	-0.001142579	-0.01557013	
0.01640905	0.002318234	-0.3213722	-0.3950257	-0.007723548	-0.01241806	-0.1506914	-0.02901859	
-0.1371014	-0.09212834	-0.007723548	-0.01241806	-0.2657064	-0.5317621	0.01250428	0.01483249	
-0.001142579	-0.01557013	-0.1506914	-0.02901859	0.01250428	0.01483249	-0.2767564	-0.4696516	

2.816e+10	-0.3448835	-0.4210654	0.01499681	-0.00741091	-0.1505094	-0.09064985	-0.009885456	-0.01183966	
0.01499681	-0.00741091	-0.3213077	-0.3934011	-0.01321517	-0.005312465	-0.1505104	-0.02594356	
-0.1505094	-0.09064985	-0.01321517	-0.005312465	-0.2786967	-0.531515	0.01863285	0.005296458	
-0.009885456	-0.01183966	-0.1505104	-0.02594356	0.01863285	0.005296458	-0.2791692	-0.4673829	

2.818e+10	-0.3502777	-0.4150852	0.008197493	-0.01470322	-0.1629763	-0.08720409	-0.01481309	-0.003817138	
0.008197493	-0.01470322	-0.3210511	-0.3935073	-0.01343567	0.003362344	-0.1485978	-0.02441373	
-0.1629763	-0.08720409	-0.01343567	0.003362344	-0.2912595	-0.5295802	0.01841013	-0.006070038	
-0.01481309	-0.003817138	-0.1485978	-0.02441373	0.01841013	-0.006070038	-0.2796296	-0.4653818	

2.82e+10	-0.3544505	-0.4091888	-0.001587294	-0.0168263	-0.1746618	-0.08204071	-0.01412207	0.005548601	
-0.001587294	-0.0168263	-0.3221005	-0.3947935	-0.008699055	0.01028302	-0.1472148	-0.02516389	
-0.1746618	-0.08204071	-0.008699055	0.01028302	-0.3029074	-0.5261345	0.01181736	-0.01540681	
-0.01412207	0.005548601	-0.1472148	-0.02516389	0.01181736	-0.01540681	-0.279028	-0.4652998	

2.822e+10	-0.3580182	-0.4033874	-0.01087646	-0.0130497	-0.1855327	-0.0751108	-0.008056438	0.01263147	
-0.01087646	-0.0130497	-0.3249995	-0.3953793	-0.00106309	0.01306181	-0.1480815	-0.02659071	
-0.1855327	-0.0751108	-0.00106309	0.01306181	-0.3136652	-0.521614	0.00105468	-0.01941137	
-0.008056438	0.01263147	-0.1480815	-0.02659071	0.00105468	-0.01941137	-0.2796424	-0.4668785	

2.824e+10	-0.3611707	-0.3974785	-0.01650292	-0.004648086	-0.1952454	-0.0663149	0.0008544321	0.01468917	
-0.01650292	-0.004648086	-0.3282451	-0.3942517	0.006532411	0.01094128	-0.1505556	-0.02638448	
-0.1952454	-0.0663149	0.006532411	0.01094128	-0.3238451	-0.5164536	-0.01009863	-0.01661586	
0.0008544321	0.01468917	-0.1505556	-0.02638448	-0.01009863	-0.01661586	-0.2823294	-0.4685774	

2.826e+10	-0.3639006	-0.3910558	-0.01640952	0.005647046	-0.2033184	-0.05588871	0.009042843	0.01123096	
-0.01640952	0.005647046	-0.3302838	-0.3916693	0.01131343	0.00498746	-0.152492	-0.02407051	
-0.2033184	-0.05588871	0.01131343	0.00498746	-0.3339971	-0.5104011	-0.01771931	-0.008022926	
0.009042843	0.01123096	-0.152492	-0.02407051	-0.01771931	-0.008022926	-0.2862604	-0.4686019	

2.828e+10	-0.365647	-0.3842357	-0.01031609	0.01420409	-0.2095657	-0.04431525	0.01362146	0.003893544	
-0.01031609	0.01420409	-0.3303576	-0.3894066	0.01173137	-0.002352891	-0.1524196	-0.02114997	
-0.2095657	-0.04431525	0.01173137	-0.002352891	-0.3438125	-0.5030666	-0.01919725	0.003371175	
0.01362146	0.003893544	-0.1524196	-0.02114997	-0.01919725	0.003371175	-0.2894879	-0.4665326	

2.83e+10	-0.3664866	-0.3771297	-0.0002424013	0.01769134	-0.214041	-0.0317977	0.01320664	-0.004597488	
-0.0002424013	0.01769134	-0.3296494	-0.3889844	0.008018833	-0.008336294	-0.1507706	-0.01952817	
-0.214041	-0.0317977	0.008018833	-0.008336294	-0.35316	-0.4938347	-0.01399346	0.01367951	
0.01320664	-0.004597488	-0.1507706	-0.01952817	-0.01399346	0.01367951	-0.2905107	-0.4638328	

2.832e+10	-0.3664348	-0.3701631	0.01003552	0.01466254	-0.2167013	-0.01838737	0.008030318	-0.01126225	
0.01003552	0.01466254	-0.3301882	-0.3903102	0.001849056	-0.01104834	-0.149459	-0.01991553	
-0.2167013	-0.01838737	0.001849056	-0.01104834	-0.3613434	-0.482842	-0.003795469	0.01929219	
0.008030318	-0.01126225	-0.149459	-0.01991553	-0.003795469	0.01929219	-0.2897558	-0.462807	

2.834e+10	-0.3656697	-0.362999	0.01670199	0.006272543	-0.2171907	-0.004132354	3.571205e-06	-0.013641	
0.01670199	0.006272543	-0.3328379	-0.3914984	-0.004534193	-0.009898972	-0.1499636	-0.02102264	
-0.2171907	-0.004132354	-0.004534193	-0.009898972	-0.3680385	-0.4703905	0.007861731	0.01810148	
3.571205e-06	-0.013641	-0.1499636	-0.02102264	0.007861731	0.01810148	-0.2895244	-0.4642369	

2.836e+10	-0.3639107	-0.3552496	0.0174055	-0.004476746	-0.2150499	0.01078107	-0.007745481	-0.01091508	
0.0174055	-0.004476746	-0.3365433	-0.3905778	-0.00905709	-0.005543671	-0.1519489	-0.02097654	
-0.2150499	0.01078107	-0.00905709	-0.005543671	-0.3730178	-0.4565509	0.01679055	0.0104748	
-0.007745481	-0.01091508	-0.1519489	-0.02097654	0.01679055	0.0104748	-0.2916324	-0.4665282	

2.838e+10	-0.3602566	-0.3471675	0.01176061	-0.01383872	-0.2098233	0.02568872	-0.01233111	-0.004398189	
0.01176061	-0.01383872	-0.3388717	-0.3879089	-0.01037007	0.0004056285	-0.153775	-0.0192082	
-0.2098233	0.02568872	-0.01037007	0.0004056285	-0.3761373	-0.4408675	0.01984669	-0.0008757915	
-0.01233111	-0.004398189	-0.153775	-0.0192082	0.01984669	-0.0008757915	-0.295775	-0.4671473	

2.84e+10	-0.3542126	-0.339559	0.00152998	-0.0182851	-0.2013999	0.03987825	-0.01240248	0.003311638	
0.00152998	-0.0182851	-0.3390492	-0.385253	-0.00827064	0.005923381	-0.1541378	-0.01660864	
-0.2013999	0.03987825	-0.00827064	0.005923381	-0.3761084	-0.4234722	0.01597704	-0.01204219	
-0.01240248	0.003311638	-0.1541378	-0.01660864	0.01597704	-0.01204219	-0.2996243	-0.4651042	

2.842e+10	-0.3459489	-0.3333796	-0.009531414	-0.01580664	-0.189692	0.05271322	-0.008261154	0.009601088	
-0.009531414	-0.01580664	-0.3382015	-0.3845604	-0.003675879	0.00934611	-0.1530547	-0.01471053	
-0.189692	0.05271322	-0.003675879	0.00934611	-0.3717494	-0.4051251	0.006362865	-0.01918223	
-0.008261154	0.009601088	-0.1530547	-0.01471053	0.006362865	-0.01918223	-0.3008733	-0.4620673	

2.844e+10	-0.335851	-0.3293492	-0.01699546	-0.007193149	-0.1746536	0.06332717	-0.001383509	0.01249967	
-0.01699546	-0.007193149	-0.3384422	-0.3859194	0.001946031	0.009851636	-0.1517435	-0.01445087	
-0.1746536	0.06332717	0.001946031	0.009851636	-0.3625777	-0.387188	-0.005819526	-0.01958362	
-0.001383509	0.01249967	-0.1517435	-0.01445087	-0.005819526	-0.01958362	-0.3000206	-0.460582	

2.846e+10	-0.3242711	-0.3277991	-0.0179035	0.004113605	-0.1563845	0.07064316	0.005924927	0.0110259	
-0.0179035	0.004113605	-0.3410026	-0.3870639	0.00707865	0.007345278	-0.1516412	-0.01518926	
-0.1563845	0.07064316	0.00707865	0.007345278	-0.3483737	-0.3714997	-0.01616833	-0.01278273	
0.005924927	0.0110259	-0.1516412	-0.01518926	-0.01616833	-0.01278273	-0.299533	-0.4617696	

2.848e+10	-0.3114448	-0.329574	-0.01203001	0.01372242	-0.1355385	0.07313263	0.01107424	0.005677956	
-0.01203001	0.01372242	-0.3445189	-0.3862721	0.01023695	0.002317512	-0.1530181	-0.01548905	
-0.1355385	0.07313263	0.01023695	0.002317512	-0.3296427	-0.3596158	-0.02070606	-0.001132274	
0.01107424	0.005677956	-0.1530181	-0.01548905	-0.02070606	-0.001132274	-0.3013222	-0.4641729	

2.85e+10	-0.2985178	-0.3358743	-0.001695565	0.01801438	-0.1136687	0.06943817	0.01228386	-0.001563815	
-0.001695565	0.01801438	-0.3469055	-0.3837932	0.01013787	-0.003946679	-0.1548227	-0.01438972	
-0.1136687	0.06943817	0.01013787	-0.003946679	-0.3074603	-0.3528212	-0.01764918	0.01106702	
0.01228386	-0.001563815	-0.1548227	-0.01438972	-0.01764918	0.01106702	-0.3053939	-0.4649178	

2.852e+10	-0.2877335	-0.3470694	0.00908107	0.01537668	-0.09328125	0.05899275	0.009287969	-0.008204882	
0.00908107	0.01537668	-0.3474196	-0.3812741	0.006313167	-0.009378003	-0.155769	-0.01212252	
-0.09328125	0.05899275	0.006313167	-0.009378003	-0.2831918	-0.3527235	-0.008046107	0.01930104	
0.009287969	-0.008204882	-0.155769	-0.01212252	-0.008046107	0.01930104	-0.3092885	-0.4630578	

2.854e+10	-0.2813419	-0.3619205	0.01603843	0.006996351	-0.07697223	0.04264884	0.003082686	-0.01213456	
0.01603843	0.006996351	-0.3468721	-0.3804064	-0.0003122252	-0.01172784	-0.1552362	-0.009875443	
-0.07697223	0.04264884	-0.0003122252	-0.01172784	-0.2593848	-0.3604409	0.004626413	0.02043586	
0.003082686	-0.01213456	-0.1552362	-0.009875443	0.004626413	0.02043586	-0.310772	-0.4602185	

2.856e+10	-0.2803196	-0.3780017	0.01665256	-0.0035223	-0.06656829	0.02241564	-0.004466136	-0.01192618	
0.01665256	-0.0035223	-0.3471375	-0.3810981	-0.007403039	-0.009602637	-0.153886	-0.008846061	
-0.06656829	0.02241564	-0.007403039	-0.009602637	-0.2393916	-0.3753357	0.01560223	0.01394217	
-0.004466136	-0.01192618	-0.153886	-0.008846061	0.01560223	0.01394217	-0.310357	-0.4585677	

2.858e+10	-0.2841121	-0.3932074	0.01128879	-0.01204617	-0.06271911	0.0006020787	-0.01072971	-0.007250914	
0.01128879	-0.01204617	-0.3490444	-0.3819845	-0.01197893	-0.003373895	-0.1531171	-0.009311399	
-0.06271911	0.0006020787	-0.01197893	-0.003373895	-0.2256748	-0.3950091	0.02067894	0.002313924	
-0.01072971	-0.007250914	-0.1531171	-0.009311399	0.02067894	0.002313924	-0.309929	-0.4593156	

2.86e+10	-0.2917872	-0.4062145	0.002464521	-0.01587585	-0.06524809	-0.02054761	-0.01307476	0.0004040383	
0.002464521	-0.01587585	-0.3520136	-0.3816071	-0.01179575	0.004591858	-0.1538951	-0.01000589	
-0.06524809	-0.02054761	-0.01179575	0.004591858	-0.2186879	-0.4163625	0.01808072	-0.009954758	
-0.01307476	0.0004040383	-0.1538951	-0.01000589	0.01808072	-0.009954758	-0.3114212	-0.4611798	

2.862e+10	-0.3021248	-0.4164503	-0.006696985	-0.01426411	-0.07327475	-0.03912507	-0.01038906	0.008009325	
-0.006696985	-0.01426411	-0.3545312	-0.3797892	-0.006663364	0.01086085	-0.1558088	-0.009529677	
-0.07327475	-0.03912507	-0.006663364	0.01086085	-0.2174708	-0.4369425	0.009015623	-0.01836989	
-0.01038906	0.008009325	-0.1558088	-0.009529677	0.009015623	-0.01836989	-0.3148611	-0.4619154	

2.864e+10	-0.3140783	-0.4233697	-0.01336747	-0.007997099	-0.08521367	-0.05380742	-0.003760434	0.01255807	
-0.01336747	-0.007997099	-0.3556997	-0.3774593	0.001246166	0.0126367	-0.1573039	-0.007445779	
-0.08521367	-0.05380742	0.001246166	0.0126367	-0.2206092	-0.455743	-0.003084569	-0.02007339	
-0.003760434	0.01255807	-0.1573039	-0.007445779	-0.003084569	-0.02007339	-0.3184174	-0.4607116	

2.866e+10	-0.32639	-0.4270548	-0.01543974	0.0008659185	-0.09921508	-0.064136	0.004248614	0.01240142	
-0.01543974	0.0008659185	-0.3556815	-0.3759912	0.008494148	0.009238611	-0.1571575	-0.004774141	
-0.09921508	-0.064136	0.008494148	0.009238611	-0.2269031	-0.4725247	-0.01391134	-0.0146339	
0.004248614	0.01240142	-0.1571575	-0.004774141	-0.01391134	-0.0146339	-0.3203271	-0.4584956	

2.868e+10	-0.3380523	-0.4280484	-0.0122094	0.009331414	-0.1138299	-0.07055005	0.01070024	0.007609324	
-0.0122094	0.009331414	-0.3556609	-0.3759694	0.01212089	0.002299032	-0.1556253	-0.003287059	
-0.1138299	-0.07055005	0.01212089	0.002299032	-0.2359307	-0.4867446	-0.01968468	-0.004055008	
0.01070024	0.007609324	-0.1556253	-0.003287059	-0.01968468	-0.004055008	-0.3207338	-0.4566968	

2.87e+10	-0.3485502	-0.4272126	-0.004844942	0.01449682	-0.128249	-0.073806	0.01313454	-0.0001098823	
-0.004844942	0.01449682	-0.3569037	-0.3766243	0.01090779	-0.005237377	-0.1543871	-0.003638334	
-0.128249	-0.073806	0.01090779	-0.005237377	-0.2465331	-0.498165	-0.01839604	0.007888352	
0.01313454	-0.0001098823	-0.1543871	-0.003638334	-0.01839604	0.007888352	-0.3207043	-0.4564853	

2.872e+10	-0.3579199	-0.4253448	0.004095411	0.01469187	-0.1421743	-0.07439011	0.01050852	-0.007781571	
0.004095411	0.01469187	-0.3593205	-0.3767966	0.005592925	-0.01045616	-0.154911	-0.004624712	
-0.1421743	-0.07439011	0.005592925	-0.01045616	-0.2576853	-0.5070479	-0.01053345	0.01690954	
0.01050852	-0.007781571	-0.154911	-0.004624712	-0.01053345	0.01690954	-0.3215091	-0.4576309	

2.874e+10	-0.3665013	-0.4228023	0.01165927	0.00989478	-0.1553721	-0.07258329	0.003898885	-0.01234389	
0.01165927	0.00989478	-0.3620687	-0.3755885	-0.001613638	-0.01149328	-0.156878	-0.004409402	
-0.1553721	-0.07258329	-0.001613638	-0.01149328	-0.2688183	-0.5142019	0.001005059	0.01978549	
0.003898885	-0.01234389	-0.156878	-0.004409402	0.001005059	0.01978549	-0.3239754	-0.4585845	

2.876e+10	-0.3745451	-0.4196424	0.01530163	0.001609103	-0.1673955	-0.06868801	-0.00398011	-0.01214127	
0.01530163	0.001609103	-0.3638931	-0.3734163	-0.007876167	-0.008144623	-0.1585417	-0.00240754	
-0.1673955	-0.06868801	-0.007876167	-0.008144623	-0.2801529	-0.5203005	0.01203287	0.01559176	
-0.00398011	-0.01214127	-0.1585417	-0.00240754	0.01203287	0.01559176	-0.3271771	-0.4583468	

2.878e+10	-0.3819736	-0.4158299	0.01359952	-0.007409466	-0.1779706	-0.06323251	-0.01016078	-0.007496648	
0.01359952	-0.007409466	-0.3643381	-0.3714009	-0.01085811	-0.001928259	-0.1585197	0.0003043364	
-0.1779706	-0.06323251	-0.01085811	-0.001928259	-0.2922056	-0.5252056	0.01867052	0.005947753	
-0.01016078	-0.007496648	-0.1585197	0.0003043364	0.01867052	0.005947753	-0.3299521	-0.4566494	

2.88e+10	-0.3887686	-0.4113988	0.006978629	-0.01389721	-0.1871442	-0.05675174	-0.01251886	-0.0002316314	
0.006978629	-0.01389721	-0.3641364	-0.3705479	-0.009661238	0.004626816	-0.1570779	0.001946584	
-0.1871442	-0.05675174	-0.009661238	0.004626816	-0.3049105	-0.5285465	0.01867048	-0.005702793	
-0.01251886	-0.0002316314	-0.1570779	0.001946584	0.01867048	-0.005702793	-0.3312729	-0.4544552	

2.882e+10	-0.394811	-0.4068446	-0.00218672	-0.01541871	-0.1951342	-0.04952152	-0.01025827	0.007037144	
-0.00218672	-0.01541871	-0.3644905	-0.3711673	-0.005045414	0.009102167	-0.1557897	0.001794647	
-0.1951342	-0.04952152	-0.005045414	0.009102167	-0.317605	-0.5302591	0.01206658	-0.01526853	
-0.01025827	0.007037144	-0.1557897	0.001794647	0.01206658	-0.01526853	-0.3311883	-0.4533409	

2.884e+10	-0.4006598	-0.4020608	-0.01056651	-0.01146285	-0.2020915	-0.04155694	-0.004192508	0.01160065	
-0.01056651	-0.01146285	-0.3665503	-0.3718341	0.00110467	0.01006556	-0.1560971	0.0009535547	
-0.2020915	-0.04155694	0.00110467	0.01006556	-0.330118	-0.5305631	0.001216393	-0.01934479	
-0.004192508	0.01160065	-0.1560971	0.0009535547	0.001216393	-0.01934479	-0.3313307	-0.4538684	

2.886e+10	-0.4065086	-0.3968337	-0.01525658	-0.003469011	-0.2078886	-0.03292633	0.003318828	0.011716	
-0.01525658	-0.003469011	-0.3695765	-0.3712574	0.006536876	0.00738366	-0.1577662	0.001101433	
-0.2078886	-0.03292633	0.006536876	0.00738366	-0.3425201	-0.529861	-0.009946203	-0.01651406	
0.003318828	0.011716	-0.1577662	0.001101433	-0.009946203	-0.01651406	-0.3329604	-0.4552661	

2.888e+10	-0.4120126	-0.3909854	-0.01463034	0.005845794	-0.212432	-0.02379052	0.009354243	0.007492554	
-0.01463034	0.005845794	-0.3720154	-0.3690406	0.00933641	0.002190351	-0.1593157	0.002780866	
-0.212432	-0.02379052	0.00933641	0.002190351	-0.3551278	-0.5280876	-0.01745591	-0.007933053	
0.009354243	0.007492554	-0.1593157	0.002780866	-0.01745591	-0.007933053	-0.3362597	-0.4557584	

2.89e+10	-0.4171211	-0.3841003	-0.008754745	0.01325712	-0.2157745	-0.01448304	0.01178052	0.0007117772	
-0.008754745	0.01325712	-0.3727378	-0.3664163	0.00861537	-0.003482235	-0.1595241	0.005236214	
-0.2157745	-0.01448304	0.00861537	-0.003482235	-0.367983	-0.5247542	-0.01882232	0.003291792	
0.01178052	0.0007117772	-0.1595241	0.005236214	-0.01882232	0.003291792	-0.3396555	-0.4543575	

2.892e+10	-0.4212909	-0.3766775	0.0004235503	0.01599339	-0.2181512	-0.005064827	0.009923347	-0.006120413	
0.0004235503	0.01599339	-0.3721081	-0.3651594	0.004889301	-0.007523688	-0.1584366	0.006972904	
-0.2181512	-0.005064827	0.004889301	-0.007523688	-0.380561	-0.51959	-0.01368656	0.0133282	
0.009923347	-0.006120413	-0.1584366	0.006972904	-0.01368656	0.0133282	-0.3414877	-0.4516915	

2.894e+10	-0.4247626	-0.3688502	0.00955706	0.01292176	-0.2197134	0.004525612	0.00453434	-0.01062599	
0.00955706	0.01292176	-0.3720532	-0.3657433	-0.0002419386	-0.008650717	-0.1572729	0.007251748	
-0.2197134	0.004525612	-0.0002419386	-0.008650717	-0.3923495	-0.5128007	-0.003763708	0.01876732	
0.00453434	-0.01062599	-0.1572729	0.007251748	-0.003763708	0.01876732	-0.3412782	-0.4499435	

2.896e+10	-0.4277882	-0.3603588	0.01528829	0.005164394	-0.2203547	0.01448143	-0.002439018	-0.01117698	
0.01528829	0.005164394	-0.3739494	-0.3668381	-0.00490602	-0.006772423	-0.157205	0.006753762	
-0.2203547	0.01448143	-0.00490602	-0.006772423	-0.4034223	-0.5046354	0.00753941	0.01763495	
-0.002439018	-0.01117698	-0.157205	0.006753762	0.00753941	0.01763495	-0.340837	-0.4503405	

2.898e+10	-0.4299182	-0.3510077	0.0156116	-0.004502811	-0.2199308	0.02466919	-0.008363207	-0.007575317	
0.0156116	-0.004502811	-0.3772152	-0.3664417	-0.007618131	-0.002756221	-0.1583863	0.006749123	
-0.2199308	0.02466919	-0.007618131	-0.002756221	-0.4137195	-0.4953297	0.01621494	0.01028555	
-0.008363207	-0.007575317	-0.1583863	0.006749123	0.01621494	0.01028555	-0.3423104	-0.4519593	

2.9e+10	-0.430683	-0.3406214	0.01035362	-0.01275467	-0.2182829	0.03511957	-0.01100672	-0.001306627	
0.01035362	-0.01275467	-0.3799173	-0.3640731	-0.007603427	0.00193385	-0.1598007	0.00798331	
-0.2182829	0.03511957	-0.007603427	0.00193385	-0.4234232	-0.4843543	0.01922881	-0.0006560286	
-0.01100672	-0.001306627	-0.1598007	0.00798331	0.01922881	-0.0006560286	-0.3456574	-0.4527559	

2.902e+10	-0.4294481	-0.3296462	0.001149918	-0.01661125	-0.2154004	0.04562763	-0.009562682	0.005168366	
0.001149918	-0.01661125	-0.3805699	-0.3612736	-0.005042709	0.005647893	-0.1603729	0.01008981	
-0.2154004	0.04562763	-0.005042709	0.005647893	-0.4319589	-0.4714004	0.0156056	-0.01142032	
-0.009562682	0.005168366	-0.1603729	0.01008981	0.0156056	-0.01142032	-0.3493014	-0.4512917	

2.904e+10	-0.4261488	-0.3186841	-0.008795832	-0.01438729	-0.2111624	0.05630437	-0.004789821	0.009540086	
-0.008795832	-0.01438729	-0.3798881	-0.3598708	-0.001048596	0.007204591	-0.1597491	0.01201159	
-0.2111624	0.05630437	-0.001048596	0.007204591	-0.4384524	-0.4565755	0.006521703	-0.01839937	
-0.004789821	0.009540086	-0.1597491	0.01201159	0.006521703	-0.01839937	-0.3510723	-0.4485447	

2.906e+10	-0.4207626	-0.3081773	-0.01567712	-0.006654542	-0.2052259	0.06707815	0.001507677	0.01039827	
-0.01567712	-0.006654542	-0.3796657	-0.3605412	0.002903578	0.006384012	-0.1585908	0.01284349	
-0.2052259	0.06707815	0.002903578	0.006384012	-0.4424745	-0.4403174	-0.005095305	-0.0190959	
0.001507677	0.01039827	-0.1585908	0.01284349	-0.005095305	-0.0190959	-0.3509381	-0.446604	

2.908e+10	-0.4132532	-0.2980476	-0.01675356	0.003744865	-0.1971927	0.07767627	0.007085947	0.007528896	
-0.01675356	0.003744865	-0.3815238	-0.3615467	0.005686535	0.003763978	-0.158088	0.01260838	
-0.1971927	0.07767627	0.005686535	0.003763978	-0.4436785	-0.4232483	-0.01524602	-0.01297997	
0.007085947	0.007528896	-0.158088	0.01260838	-0.01524602	-0.01297997	-0.3504169	-0.4470639	

2.91e+10	-0.4029679	-0.288816	-0.01152933	0.01291299	-0.1865976	0.08760734	0.009924172	0.002056462	
-0.01152933	0.01291299	-0.3847226	-0.3610259	0.006719823	0.0002130691	-0.1588098	0.01235917	
-0.1865976	0.08760734	0.006719823	0.0002130691	-0.442107	-0.4054004	-0.02017908	-0.002010583	
0.009924172	0.002056462	-0.1588098	0.01235917	-0.02017908	-0.002010583	-0.3519658	-0.448556	

2.912e+10	-0.3894194	-0.2818926	-0.001796901	0.01737935	-0.1732534	0.09603594	0.009091282	-0.003871011	
-0.001796901	0.01737935	-0.3872181	-0.358819	0.0058263	-0.003334053	-0.1602118	0.01314365	
-0.1732534	0.09603594	0.0058263	-0.003334053	-0.4368502	-0.3871726	-0.01797261	0.009986997	
0.009091282	-0.003871011	-0.1602118	0.01314365	-0.01797261	0.009986997	-0.3552301	-0.4491543	

2.914e+10	-0.3734249	-0.2787481	0.008880299	0.01520351	-0.1571877	0.101923	0.005193642	-0.00809055	
0.008880299	0.01520351	-0.3880354	-0.3561924	0.003252914	-0.00595291	-0.1611277	0.01506082	
-0.1571877	0.101923	0.003252914	-0.00595291	-0.4271076	-0.3693203	-0.009197808	0.01877506	
0.005193642	-0.00809055	-0.1611277	0.01506082	-0.009197808	0.01877506	-0.3586017	-0.4476081	

2.916e+10	-0.3564	-0.2805599	0.01621887	0.006949407	-0.1389322	0.1041238	-0.000152039	-0.00939637	
0.01621887	0.006949407	-0.3875705	-0.3548941	-0.0003582471	-0.006949472	-0.1608043	0.01718503	
-0.1389322	0.1041238	-0.0003582471	-0.006949472	-0.4122424	-0.353834	0.003329468	0.02105235	
-0.000152039	-0.00939637	-0.1608043	0.01718503	0.003329468	0.02105235	-0.3601872	-0.4451118	

2.918e+10	-0.3401958	-0.2872842	0.01704944	-0.004085028	-0.1195157	0.101608	-0.005215806	-0.007677707	
0.01704944	-0.004085028	-0.3876738	-0.3549887	-0.004164874	-0.005959118	-0.1596148	0.01838338	
-0.1195157	0.101608	-0.004164874	-0.005959118	-0.3932236	-0.3427891	0.01520917	0.01551592	
-0.005215806	-0.007677707	-0.1596148	0.01838338	0.01520917	0.01551592	-0.3601107	-0.4435905	

2.92e+10	-0.3261057	-0.2987161	0.01108559	-0.01323332	-0.1005444	0.09366076	-0.008559087	-0.003550542	
0.01108559	-0.01323332	-0.3891452	-0.3555876	-0.007149772	-0.002895956	-0.1587871	0.01831613	
-0.1005444	0.09366076	-0.007149772	-0.002895956	-0.3720473	-0.3374702	0.02175189	0.003768935	
-0.008559087	-0.003550542	-0.1587871	0.01831613	0.02175189	0.003768935	-0.3601908	-0.4438475	

2.922e+10	-0.3155796	-0.3144799	0.001078453	-0.01685052	-0.08397396	0.08033142	-0.009145881	0.001771154	
0.001078453	-0.01685052	-0.3916977	-0.3552944	-0.008039938	0.00175005	-0.1592252	0.01791625	
-0.08397396	0.08033142	-0.008039938	0.00175005	-0.3505675	-0.3381846	0.0200557	-0.009809133	
-0.009145881	0.001771154	-0.1592252	0.01791625	0.0200557	-0.009809133	-0.3618037	-0.444882	

2.924e+10	-0.310483	-0.3330688	-0.008787135	-0.01390525	-0.07186245	0.06257926	-0.006702244	0.006607003	
-0.008787135	-0.01390525	-0.3941427	-0.3536441	-0.005857109	0.006466291	-0.160608	0.01841256	
-0.07186245	0.06257926	-0.005857109	0.006466291	-0.3304871	-0.344388	0.0105598	-0.01985675	
-0.006702244	0.006607003	-0.160608	0.01841256	0.0105598	-0.01985675	-0.3647011	-0.4449435	

2.926e+10	-0.3116037	-0.3522039	-0.01482297	-0.006009947	-0.06558644	0.04238107	-0.001935484	0.009370806	
-0.01482297	-0.006009947	-0.3954327	-0.3513285	-0.0009287189	0.009090985	-0.161753	0.02020474	
-0.06558644	0.04238107	-0.0009287189	0.009090985	-0.3131937	-0.3557489	-0.003118769	-0.02236964	
-0.001935484	0.009370806	-0.161753	0.02020474	-0.003118769	-0.02236964	-0.3673949	-0.443631	

2.928e+10	-0.3183232	-0.3691715	-0.01511027	0.003577487	-0.06523773	0.02215792	0.003732463	0.009065063	
-0.01511027	0.003577487	-0.3955654	-0.3494747	0.004847372	0.008108679	-0.1616235	0.02248462	
-0.06523773	0.02215792	0.004847372	0.008108679	-0.3005401	-0.3710037	-0.01567698	-0.01630218	
0.003732463	0.009065063	-0.1616235	0.02248462	-0.01567698	-0.01630218	-0.369045	-0.4416861	

2.93e+10	-0.3285911	-0.3826974	-0.00998747	0.01125311	-0.06990214	0.003700118	0.008470214	0.00549957	
-0.00998747	0.01125311	-0.3953425	-0.3490321	0.00894055	0.003673716	-0.160383	0.02394078	
-0.06990214	0.003700118	0.00894055	0.003673716	-0.2933809	-0.3880598	-0.02222158	-0.003990286	
0.008470214	0.00549957	-0.160383	0.02394078	-0.02222158	-0.003990286	-0.3696029	-0.4404756	

2.932e+10	-0.3408403	-0.3925067	-0.001754072	0.01446101	-0.0782576	-0.01203102	0.01038962	-0.0004174536	
-0.001754072	0.01446101	-0.3961917	-0.3495358	0.009507246	-0.002452192	-0.1592659	0.02397298	
-0.0782576	-0.01203102	0.009507246	-0.002452192	-0.2911603	-0.4045961	-0.0202479	0.009735951	
0.01038962	-0.0004174536	-0.1592659	0.02397298	-0.0202479	0.009735951	-0.3701222	-0.4403136	

2.934e+10	-0.3540322	-0.3990365	0.006484526	0.01257108	-0.08925192	-0.02473497	0.008373088	-0.006566756	
0.006484526	0.01257108	-0.3984733	-0.3496979	0.006194884	-0.007739951	-0.1595348	0.02338738	
-0.08925192	-0.02473497	0.006194884	-0.007739951	-0.2924352	-0.419196	-0.01066895	0.0195845	
0.008373088	-0.006566756	-0.1595348	0.02338738	-0.01066895	0.0195845	-0.3716059	-0.4405154	

2.936e+10	-0.367311	-0.4026801	0.01211467	0.006671113	-0.1019638	-0.0341166	0.002960226	-0.01039471	
0.01211467	0.006671113	-0.4012201	-0.3484066	0.0003045687	-0.009934532	-0.1609686	0.02374108	
-0.1019638	-0.0341166	0.0003045687	-0.009934532	-0.2956715	-0.4321409	0.00269608	0.02194198	
0.002960226	-0.01039471	-0.1609686	0.02374108	0.00269608	0.02194198	-0.3737209	-0.4405206	

2.938e+10	-0.3803018	-0.4034254	0.01357544	-0.001184259	-0.115443	-0.0402241	-0.00374808	-0.01025875	
0.01357544	-0.001184259	-0.4029624	-0.345991	-0.005682803	-0.008088811	-0.1622205	0.02554811	
-0.115443	-0.0402241	-0.005682803	-0.008088811	-0.3007292	-0.4436747	0.01478403	0.01616223	
-0.00374808	-0.01025875	-0.1622205	0.02554811	0.01478403	0.01616223	-0.3761102	-0.4397464	

2.94e+10	-0.392125	-0.4019657	0.01048907	-0.008484488	-0.1287601	-0.04340762	-0.009132185	-0.006164376	
0.01048907	-0.008484488	-0.403148	-0.3437129	-0.009268481	-0.003065257	-0.1620699	0.02793608	
-0.1287601	-0.04340762	-0.009268481	-0.003065257	-0.3073654	-0.4538062	0.02122249	0.004593892	
-0.009132185	-0.006164376	-0.1620699	0.02793608	0.02122249	0.004593892	-0.378073	-0.438311	

2.942e+10	-0.4025814	-0.3989442	0.003888718	-0.01278885	-0.1414661	-0.0443328	-0.01110943	0.000382126	
0.003888718	-0.01278885	-0.4026503	-0.3429247	-0.009135404	0.002962985	-0.1607212	0.02941087	
-0.1414661	-0.0443328	-0.009135404	0.002962985	-0.3151875	-0.4618744	0.01981999	-0.008442088	
-0.01110943	0.000382126	-0.1607212	0.02941087	0.01981999	-0.008442088	-0.3791228	-0.4369003	

2.944e+10	-0.4116913	-0.3950737	-0.003903251	-0.01264843	-0.1535184	-0.04352815	-0.008807217	0.006920646	
-0.003903251	-0.01264843	-0.4031014	-0.3435517	-0.005558239	0.007636237	-0.1596037	0.02935036	
-0.1535184	-0.04352815	-0.005558239	0.007636237	-0.3232708	-0.4679085	0.01121597	-0.01819713	
-0.008807217	0.006920646	-0.1596037	0.02935036	0.01121597	-0.01819713	-0.3797337	-0.4360645	

2.946e+10	-0.419865	-0.3905725	-0.01021502	-0.008257212	-0.1650182	-0.04114366	-0.002993241	0.01082997	
-0.01021502	-0.008257212	-0.4053373	-0.3439944	-2.774071e-05	0.009294859	-0.1599119	0.02883032	
-0.1650182	-0.04114366	-2.774071e-05	0.009294859	-0.3309284	-0.4727904	-0.001338103	-0.02115071	
-0.002993241	0.01082997	-0.1599119	0.02883032	-0.001338103	-0.02115071	-0.3806241	-0.4361639	

2.948e+10	-0.4272016	-0.3856002	-0.01304952	-0.001171526	-0.1758284	-0.03714902	0.004007098	0.01046614	
-0.01304952	-0.001171526	-0.4083276	-0.3428705	0.005336736	0.007416469	-0.1613083	0.02925653	
-0.1758284	-0.03714902	0.005336736	0.007416469	-0.3384204	-0.4772615	-0.01315527	-0.01635601	
0.004007098	0.01046614	-0.1613083	0.02925653	-0.01315527	-0.01635601	-0.3825122	-0.4364788	

2.95e+10	-0.4336825	-0.3801954	-0.01150785	0.006334343	-0.1856012	-0.03182542	0.009358133	0.006030674	
-0.01150785	0.006334343	-0.410299	-0.340274	0.00848963	0.002820833	-0.1623951	0.03106666	
-0.1856012	-0.03182542	0.00848963	0.002820833	-0.3464659	-0.4812715	-0.01997167	-0.005768303	
0.009358133	0.006030674	-0.1623951	0.03106666	-0.01997167	-0.005768303	-0.3851683	-0.4359665	

2.952e+10	-0.4393868	-0.3743444	-0.005982649	0.0117619	-0.1942518	-0.02543578	0.01103081	-0.0006336954	
-0.005982649	0.0117619	-0.4104211	-0.3377239	0.008324644	-0.002595229	-0.1621629	0.03331675	
-0.1942518	-0.02543578	0.008324644	-0.002595229	-0.3551228	-0.4843264	-0.01950282	0.006673506	
0.01103081	-0.0006336954	-0.1621629	0.03331675	-0.01950282	0.006673506	-0.3874115	-0.434363	

2.954e+10	-0.4442107	-0.368529	0.001712886	0.01312571	-0.2019486	-0.01834323	0.008487268	-0.006956649	
0.001712886	0.01312571	-0.4096429	-0.3368439	0.005139374	-0.006741266	-0.1609265	0.03467595	
-0.2019486	-0.01834323	0.005139374	-0.006741266	-0.3637691	-0.4862601	-0.01206367	0.0165313	
0.008487268	-0.006956649	-0.1609265	0.03467595	-0.01206367	0.0165313	-0.3884309	-0.4324575	

2.956e+10	-0.4486133	-0.3626321	0.00883252	0.009880718	-0.2088559	-0.01050709	0.002725326	-0.01055173	
0.00883252	0.009880718	-0.4099326	-0.337562	0.0003253283	-0.008243483	-0.159963	0.03473136	
-0.2088559	-0.01050709	0.0003253283	-0.008243483	-0.3721878	-0.48733	-0.0003822723	0.0203154	
0.002725326	-0.01055173	-0.159963	0.03473136	-0.0003822723	0.0203154	-0.388611	-0.4315962	

2.958e+10	-0.4527498	-0.356663	0.012887	0.00321094	-0.2148231	-0.001724747	-0.004010817	-0.01001255	
0.012887	0.00321094	-0.4121832	-0.3382098	-0.004344253	-0.00677467	-0.1602136	0.03437606	
-0.2148231	-0.001724747	-0.004344253	-0.00677467	-0.3804675	-0.4882044	0.01125182	0.0167098	
-0.004010817	-0.01001255	-0.1602136	0.03437606	0.01125182	0.0167098	-0.3893306	-0.432092	

2.96e+10	-0.4566519	-0.3502747	0.01254344	-0.0046049	-0.2195907	0.007821772	-0.009021564	-0.005608878	
0.01254344	-0.0046049	-0.4153349	-0.3370523	-0.007261966	-0.002990201	-0.1613677	0.03485945	
-0.2195907	0.007821772	-0.007261966	-0.002990201	-0.3892093	-0.4887777	0.01861042	0.007187134	
-0.009021564	-0.005608878	-0.1613677	0.03485945	0.01861042	0.007187134	-0.3915917	-0.4326236	

2.962e+10	-0.4601556	-0.3432393	0.007852727	-0.01098234	-0.2229957	0.01786346	-0.01039307	0.0007759866	
0.007852727	-0.01098234	-0.4173701	-0.3342569	-0.007458432	0.001660324	-0.1623027	0.03651696	
-0.2229957	0.01786346	-0.007458432	0.001660324	-0.3986997	-0.4883318	0.01920674	-0.004668605	
-0.01039307	0.0007759866	-0.1623027	0.03651696	0.01920674	-0.004668605	-0.3946593	-0.4317529	

2.964e+10	-0.4628709	-0.3358019	0.0002507037	-0.0136657	-0.2252048	0.02809066	-0.007797584	0.006594136	
0.0002507037	-0.0136657	-0.4173508	-0.3316192	-0.005021365	0.005437791	-0.1621752	0.03857577	
-0.2252048	0.02809066	-0.005021365	0.005437791	-0.4082202	-0.4866703	0.01304031	-0.01466598	
-0.007797584	0.006594136	-0.1621752	0.03857577	0.01304031	-0.01466598	-0.3967242	-0.4296249	

2.966e+10	-0.4648737	-0.3280538	-0.007662138	-0.01150629	-0.2263709	0.038491	-0.002412188	0.009718102	
-0.007662138	-0.01150629	-0.4164954	-0.3307024	-0.001047975	0.007075512	-0.1611277	0.03996463	
-0.2263709	0.038491	-0.001047975	0.007075512	-0.4174644	-0.4838078	0.002353623	-0.01937557	
-0.002412188	0.009718102	-0.1611277	0.03996463	0.002353623	-0.01937557	-0.3971399	-0.4276727	

2.968e+10	-0.4662815	-0.3198676	-0.01298061	-0.005139387	-0.2264084	0.04928224	0.003671746	0.009104815	
-0.01298061	-0.005139387	-0.4167123	-0.3315867	0.002975013	0.006255497	-0.1601576	0.04025854	
-0.2264084	0.04928224	0.002975013	0.006255497	-0.4263601	-0.480221	-0.009062487	-0.01716674	
0.003671746	0.009104815	-0.1601576	0.04025854	-0.009062487	-0.01716674	-0.3970373	-0.427263	

2.97e+10	-0.4669474	-0.3110621	-0.01374392	0.003193253	-0.2250897	0.0603126	0.008137938	0.005094237	
-0.01374392	0.003193253	-0.4190566	-0.3321401	0.005778746	0.003466047	-0.1602013	0.04000207	
-0.2250897	0.0603126	0.005778746	0.003466047	-0.4351879	-0.4760907	-0.01711466	-0.008890352	
0.008137938	0.005094237	-0.1602013	0.04000207	-0.01711466	-0.008890352	-0.3981397	-0.4281496	

2.972e+10	-0.4663378	-0.3014566	-0.009618543	0.01059662	-0.2222241	0.07139113	0.009321752	-0.0006429635	
-0.009618543	0.01059662	-0.4221461	-0.3308859	0.006564039	-0.0002957868	-0.1611557	0.04038982	
-0.2222241	0.07139113	0.006564039	-0.0002957868	-0.4443206	-0.4706779	-0.01901465	0.00237177	
0.009321752	-0.0006429635	-0.1611557	0.04038982	-0.01901465	0.00237177	-0.4008839	-0.4285438	

2.974e+10	-0.4639433	-0.2912568	-0.001861296	0.01445163	-0.2178469	0.08223058	0.006952056	-0.005790179	
-0.001861296	0.01445163	-0.4240269	-0.3280801	0.005178317	-0.003758265	-0.1621359	0.04181045	
-0.2178469	0.08223058	0.005178317	-0.003758265	-0.4531064	-0.4636674	-0.01428349	0.01265475	
0.006952056	-0.005790179	-0.1621359	0.04181045	-0.01428349	0.01265475	-0.403925	-0.4271387	

2.976e+10	-0.4593302	-0.2812574	0.00694954	0.01313482	-0.212014	0.09271478	0.00220362	-0.008444721	
0.00694954	0.01313482	-0.4239575	-0.3255493	0.002237722	-0.005801604	-0.1621765	0.04384968	
-0.212014	0.09271478	0.002237722	-0.005801604	-0.4609126	-0.4549978	-0.004640255	0.01850096	
0.00220362	-0.008444721	-0.1621765	0.04384968	-0.004640255	0.01850096	-0.4056654	-0.4245046	

2.978e+10	-0.4526404	-0.2718663	0.01353681	0.006769274	-0.2045016	0.1028983	-0.00296923	-0.00786199	
0.01353681	0.006769274	-0.4232551	-0.3246577	-0.001166318	-0.005950272	-0.1611807	0.04542729	
-0.2045016	0.1028983	-0.001166318	-0.005950272	-0.4672758	-0.4452919	0.006662052	0.01791755	
-0.00296923	-0.00786199	-0.1611807	0.04542729	0.006662052	0.01791755	-0.4056005	-0.4228085	

2.98e+10	-0.4437727	-0.2633882	0.01517349	-0.002456157	-0.1949926	0.1124429	-0.00668754	-0.004541435	
0.01517349	-0.002456157	-0.4235994	-0.3253918	-0.004053182	-0.004404715	-0.1600661	0.04583775	
-0.1949926	0.1124429	-0.004053182	-0.004404715	-0.47243	-0.4347261	0.01570139	0.01101017	
-0.00668754	-0.004541435	-0.1600661	0.04583775	0.01570139	0.01101017	-0.4054806	-0.422979	

2.982e+10	-0.4324388	-0.2561513	0.01099812	-0.01103388	-0.1832996	0.1207721	-0.007749026	0.0001095566	
0.01099812	-0.01103388	-0.425805	-0.3256703	-0.005774768	-0.001664618	-0.1599455	0.0455315	
-0.1832996	0.1207721	-0.005774768	-0.001664618	-0.4762604	-0.4232899	0.01924234	0.0001588066	
-0.007749026	0.0001095566	-0.1599455	0.0455315	0.01924234	0.0001588066	-0.4070292	-0.4240015	

2.984e+10	-0.4182345	-0.2515988	0.002422058	-0.01558795	-0.1694114	0.1271514	-0.006007653	0.004288382	
0.002422058	-0.01558795	-0.4285722	-0.3243618	-0.005905175	0.001625447	-0.1608672	0.04576353	
-0.1694114	0.1271514	-0.005905175	0.001625447	-0.4783168	-0.4106917	0.01603146	-0.01083046	
-0.006007653	0.004288382	-0.1608672	0.04576353	0.01603146	-0.01083046	-0.4101144	-0.4239449	

2.986e+10	-0.4018617	-0.2513061	-0.007370911	-0.0141413	-0.1536023	0.1308183	-0.002438846	0.006540384	
-0.007370911	-0.0141413	-0.430289	-0.3218973	-0.004298616	0.004625862	-0.1619097	0.04713105	
-0.1536023	0.1308183	-0.004298616	0.004625862	-0.4778508	-0.3971423	0.007130026	-0.01817874	
-0.002438846	0.006540384	-0.1619097	0.04713105	0.007130026	-0.01817874	-0.4129899	-0.422026	

2.988e+10	-0.3851441	-0.2563739	-0.0144517	-0.006970674	-0.1364596	0.1309973	0.001424177	0.006440005	
-0.0144517	-0.006970674	-0.4305903	-0.3195515	-0.001246007	0.006470421	-0.1620077	0.0492217	
-0.1364596	0.1309973	-0.001246007	0.006470421	-0.4740804	-0.3841768	-0.004561615	-0.01925196	
0.001424177	0.006440005	-0.1620077	0.0492217	-0.004561615	-0.01925196	-0.414146	-0.4195297	

2.99e+10	-0.3701128	-0.2669337	-0.01569943	0.003122811	-0.1189271	0.1269994	0.004394712	0.004521707	
-0.01569943	0.003122811	-0.430249	-0.3184837	0.002567919	0.006482188	-0.1610085	0.05085849	
-0.1189271	0.1269994	0.002567919	0.006482188	-0.4675836	-0.3728664	-0.01500366	-0.01333024	
0.004394712	0.004521707	-0.1610085	0.05085849	-0.01500366	-0.01333024	-0.4139504	-0.4181622	

2.992e+10	-0.3586713	-0.2819425	-0.0105012	0.01179458	-0.1023071	0.1184822	0.005963281	0.001573563	
-0.0105012	0.01179458	-0.4305216	-0.3185692	0.006119048	0.00427522	-0.1598345	0.05134802	
-0.1023071	0.1184822	0.006119048	0.00427522	-0.45938	-0.3637086	-0.02019828	-0.002229911	
0.005963281	0.001573563	-0.1598345	0.05134802	-0.02019828	-0.002229911	-0.4141377	-0.4184974	

2.994e+10	-0.3520596	-0.300581	-0.001303792	0.01534973	-0.08805757	0.1055775	0.00592443	-0.001736578	
-0.001303792	0.01534973	-0.4320604	-0.3187752	0.008017499	4.031188e-05	-0.1595549	0.05107392	
-0.08805757	0.1055775	0.008017499	4.031188e-05	-0.4500904	-0.3566094	-0.01791847	0.009993784	
0.00592443	-0.001736578	-0.1595549	0.05107392	-0.01791847	0.009993784	-0.4159445	-0.4192974	

2.996e+10	-0.3516863	-0.3210212	0.007786495	0.01270591	-0.07775675	0.08910284	0.004212242	-0.004665381	
0.007786495	0.01270591	-0.4344755	-0.317988	0.006971249	-0.004964837	-0.160371	0.05118093	
-0.07775675	0.08910284	0.006971249	-0.004964837	-0.4398601	-0.3516387	-0.008856906	0.01868626	
0.004212242	-0.004665381	-0.160371	0.05118093	-0.008856906	0.01868626	-0.418883	-0.418883	

2.998e+10	-0.3581004	-0.340657	0.01324309	0.005542147	-0.07247743	0.07062905	0.001118371	-0.006385604	
0.01324309	0.005542147	-0.4365395	-0.3160019	0.002802185	-0.008585472	-0.1614506	0.05239619	
-0.07247743	0.07062905	0.002802185	-0.008585472	-0.4292103	-0.3490586	0.003688147	0.02049581	
0.001118371	-0.006385604	-0.1614506	0.05239619	0.003688147	0.02049581	-0.4214489	-0.4169129	

3e+10	-0.3702656	-0.3568127	0.01348972	-0.003007895	-0.0723635	0.05205593	-0.002634361	-0.006227309	
0.01348972	-0.003007895	-0.4374061	-0.3134985	-0.003025246	-0.008917201	-0.1617271	0.05449005	
-0.0723635	0.05205593	-0.003025246	-0.008917201	-0.4188697	-0.3493608	0.01503616	0.01457818	
-0.002634361	-0.006227309	-0.1617271	0.05449005	0.01503616	0.01457818	-0.4225114	-0.4147662	

3.002e+10	-0.3857938	-0.3681576	0.009006981	-0.009802226	-0.0767679	0.03482346	-0.005940882	-0.003896496	
0.009006981	-0.009802226	-0.4370905	-0.3117736	-0.008030226	-0.005486067	-0.1608142	0.05631635	
-0.0767679	0.03482346	-0.008030226	-0.005486067	-0.4099445	-0.3516133	0.02078272	0.0030408	
-0.005940882	-0.003896496	-0.1608142	0.05631635	0.02078272	0.0030408	-0.4226192	-0.4135704	

3.004e+10	-0.4026947	-0.374469	0.001824831	-0.01269956	-0.08472441	0.01982514	-0.007460343	0.0002135987	
0.001824831	-0.01269956	-0.4368599	-0.3114941	-0.00996739	0.0004578463	-0.1594208	0.05698676	
-0.08472441	0.01982514	-0.00996739	0.0004578463	-0.4024346	-0.3547938	0.01862465	-0.009690837	
-0.007460343	0.0002135987	-0.1594208	0.05698676	0.01862465	-0.009690837	-0.423101	-0.413464	

3.006e+10	-0.4194444	-0.3766103	-0.005374339	-0.01117703	-0.09549265	0.007465127	-0.00617699	0.004726083	
-0.005374339	-0.01117703	-0.4379541	-0.3120437	-0.007830949	0.006501379	-0.158887	0.05660835	
-0.09549265	0.007465127	-0.007830949	0.006501379	-0.3956037	-0.35846	0.009420189	-0.01868688	
-0.00617699	0.004726083	-0.158887	0.05660835	0.009420189	-0.01868688	-0.4246232	-0.4137941	

3.008e+10	-0.4354002	-0.3750324	-0.01036064	-0.006215458	-0.1084048	-0.00181651	-0.002248	0.00768756	
-0.01036064	-0.006215458	-0.4404259	-0.3117236	-0.002343558	0.01003908	-0.1597131	0.05646326	
-0.1084048	-0.00181651	-0.002343558	0.01003908	-0.3890632	-0.3630613	-0.003229744	-0.02057303	
-0.002248	0.00768756	-0.1597131	0.05646326	-0.003229744	-0.02057303	-0.427013	-0.4135155	

3.01e+10	-0.4497212	-0.3705897	-0.01190046	0.0004509294	-0.1225032	-0.007621387	0.002806991	0.007664247	
-0.01190046	0.0004509294	-0.4428812	-0.3097633	0.004217414	0.009464907	-0.1609726	0.05763655	
-0.1225032	-0.007621387	0.004217414	0.009464907	-0.3831836	-0.3692614	-0.01452404	-0.01475914	
0.002806991	0.007664247	-0.1609726	0.05763655	-0.01452404	-0.01475914	-0.4294192	-0.41223	

3.012e+10	-0.4621068	-0.3637728	-0.009664632	0.006875915	-0.1368046	-0.01014233	0.006887802	0.004562222	
-0.009664632	0.006875915	-0.4439667	-0.3069588	0.009042693	0.005012447	-0.1613106	0.05986271	
-0.1368046	-0.01014233	0.009042693	0.005012447	-0.3788607	-0.3767506	-0.02027047	-0.003526828	
0.006887802	0.004562222	-0.1613106	0.05986271	-0.02027047	-0.003526828	-0.4310335	-0.4103243	

3.014e+10	-0.4722295	-0.3555921	-0.00425655	0.01109448	-0.1505803	-0.00981677	0.008324213	-0.0004139669	
-0.00425655	0.01109448	-0.4435409	-0.3049512	0.01017492	-0.001379411	-0.1602628	0.06184025	
-0.1505803	-0.00981677	0.01017492	-0.001379411	-0.3762413	-0.3847419	-0.0183996	0.008863043	
0.008324213	-0.0004139669	-0.1602628	0.06184025	-0.0183996	0.008863043	-0.4316971	-0.4085212	

3.016e+10	-0.4803651	-0.3465777	0.002648904	0.01162913	-0.1636141	-0.007143547	0.006482265	-0.005314748	
0.002648904	0.01162913	-0.4430053	-0.304583	0.00729538	-0.007095686	-0.1587822	0.06241794	
-0.1636141	-0.007143547	0.00729538	-0.007095686	-0.3748819	-0.3928402	-0.009714225	0.01775075	
0.006482265	-0.005314748	-0.1587822	0.06241794	-0.009714225	0.01775075	-0.4318266	-0.4077874	

3.018e+10	-0.4867122	-0.3375184	0.008724773	0.008214051	-0.1757253	-0.002269696	0.002020629	-0.008136964	
0.008724773	0.008214051	-0.4438338	-0.3052667	0.001649326	-0.009939082	-0.1582624	0.06199049	
-0.1757253	-0.002269696	0.001649326	-0.009939082	-0.3745436	-0.4013678	0.002380448	0.01985985	
0.002020629	-0.008136964	-0.1582624	0.06199049	0.002380448	0.01985985	-0.4326001	-0.4080896	

3.02e+10	-0.4919761	-0.3281073	0.01191483	0.001966356	-0.1864811	0.004687768	-0.003225566	-0.007665826	
0.01191483	0.001966356	-0.4463025	-0.3051323	-0.004501906	-0.008873742	-0.1590442	0.06191282	
-0.1864811	0.004687768	-0.004501906	-0.008873742	-0.3756929	-0.410572	0.01326112	0.01461011	
-0.003225566	-0.007665826	-0.1590442	0.06191282	0.01326112	0.01461011	-0.4346654	-0.4084636	

3.022e+10	-0.4960571	-0.3185853	0.01111487	-0.005099817	-0.1954364	0.01332352	-0.007047306	-0.004161127	
0.01111487	-0.005099817	-0.4489361	-0.3032674	-0.00873352	-0.004423104	-0.1601917	0.06306889	
-0.1954364	0.01332352	-0.00873352	-0.004423104	-0.3791004	-0.4198533	0.01898662	0.00422488	
-0.007047306	-0.004161127	-0.1601917	0.06306889	0.01898662	0.00422488	-0.4375703	-0.4076128	

3.024e+10	-0.4990689	-0.3085924	0.006414481	-0.01064937	-0.2024364	0.02292157	-0.007970792	0.0008026166	
0.006414481	-0.01064937	-0.4502012	-0.3003604	-0.009468722	0.001528511	-0.160484	0.0651658	
-0.2024364	0.02292157	-0.009468722	0.001528511	-0.3846274	-0.4283734	0.01772173	-0.007353993	
-0.007970792	0.0008026166	-0.160484	0.0651658	0.01772173	-0.007353993	-0.4398943	-0.4053545	

3.026e+10	-0.5007221	-0.2984903	-0.0007860509	-0.01262756	-0.2076763	0.03311566	-0.005836646	0.005216731	
-0.0007860509	-0.01262756	-0.4497734	-0.2981503	-0.006639198	0.006616064	-0.1595912	0.06698765	
-0.2076763	0.03311566	-0.006639198	0.006616064	-0.3916058	-0.4355334	0.01016489	-0.0159883	
-0.005836646	0.005216731	-0.1595912	0.06698765	0.01016489	-0.0159883	-0.4405433	-0.4029768	

3.028e+10	-0.5012484	-0.2882306	-0.007991886	-0.0100688	-0.2113457	0.04376758	-0.001627377	0.007470091	
-0.007991886	-0.0100688	-0.4491002	-0.2975912	-0.001540445	0.009023354	-0.158262	0.0677658	
-0.2113457	0.04376758	-0.001540445	0.009023354	-0.3994468	-0.4414566	-0.0008294057	-0.01868961	
-0.001627377	0.007470091	-0.158262	0.0677658	-0.0008294057	-0.01868961	-0.4401415	-0.4019045	

3.03e+10	-0.5006221	-0.2779564	-0.01249495	-0.003720158	-0.2133789	0.05478638	0.002990272	0.00682562	
-0.01249495	-0.003720158	-0.4497547	-0.2982509	0.003849831	0.008079684	-0.1576291	0.06759249	
-0.2133789	0.05478638	0.003849831	0.008079684	-0.4082212	-0.4462765	-0.0112213	-0.01465034	
0.002990272	0.00682562	-0.1576291	0.06759249	-0.0112213	-0.01465034	-0.4404368	-0.4024561	

3.032e+10	-0.4987877	-0.2672235	-0.01254743	0.004178839	-0.213568	0.06598781	0.006231268	0.003654986	
-0.01254743	0.004178839	-0.4520932	-0.2982138	0.007622224	0.004316311	-0.1580912	0.06752946	
-0.213568	0.06598781	0.007622224	0.004316311	-0.4180443	-0.4498692	-0.01732112	-0.005564538	
0.006231268	0.003654986	-0.1580912	0.06752946	-0.01732112	-0.005564538	-0.4425653	-0.4032686	

3.034e+10	-0.4950203	-0.2562654	-0.007997885	0.01081247	-0.2119303	0.07692695	0.006919647	-0.0006531001	
-0.007997885	0.01081247	-0.4546871	-0.2965199	0.008533931	-0.000796281	-0.1590253	0.06842133	
-0.2119303	0.07692695	0.008533931	-0.000796281	-0.4287547	-0.4514975	-0.01720638	0.005165435	
0.006919647	-0.0006531001	-0.1590253	0.06842133	-0.01720638	0.005165435	-0.4458157	-0.4025429	

3.036e+10	-0.4888776	-0.2452387	-0.0002735241	0.01370927	-0.2086384	0.08736092	0.005028415	-0.004336431	
-0.0002735241	0.01370927	-0.4560343	-0.2936688	0.006425763	-0.005380589	-0.1594839	0.07017458	
-0.2086384	0.08736092	0.006425763	-0.005380589	-0.4393847	-0.451041	-0.01117595	0.01385546	
0.005028415	-0.004336431	-0.1594839	0.07017458	-0.01117595	0.01385546	-0.4482686	-0.400095	

3.038e+10	-0.4799316	-0.2353238	0.007941697	0.01151128	-0.2038297	0.09717814	0.001571608	-0.006115692	
0.007941697	0.01151128	-0.4557499	-0.2914642	0.002232621	-0.007888339	-0.1589269	0.07205899	
-0.2038297	0.09717814	0.002232621	-0.007888339	-0.4493832	-0.4485996	-0.00138904	0.01764942	
0.001571608	-0.006115692	-0.1589269	0.07205899	-0.00138904	0.01764942	-0.4488453	-0.3973842	

3.04e+10	-0.4684828	-0.22718	0.01342347	0.004692418	-0.1974216	0.1062561	-0.002030897	-0.005647217	
0.01342347	0.004692418	-0.4552031	-0.290667	-0.002491657	-0.007654892	-0.1577114	0.07317376	
-0.1974216	0.1062561	-0.002491657	-0.007654892	-0.4584214	-0.4448623	0.008813663	0.01528727	
-0.002030897	-0.005647217	-0.1577114	0.07317376	0.008813663	0.01528727	-0.4482086	-0.3962626	

3.042e+10	-0.4546425	-0.2215475	0.01374517	-0.004239073	-0.1892123	0.1142303	-0.004589097	-0.003400713	
0.01374517	-0.004239073	-0.4557426	-0.2910114	-0.006237172	-0.00495239	-0.156778	0.07330676	
-0.1892123	0.1142303	-0.006237172	-0.00495239	-0.4666067	-0.4401694	0.01588402	0.007582416	
-0.004589097	-0.003400713	-0.156778	0.07330676	0.01588402	0.007582416	-0.4484279	-0.396875	

3.044e+10	-0.4386782	-0.2190994	0.008565356	-0.01166629	-0.1793159	0.1204953	-0.005427565	-0.0003167533	
0.008565356	-0.01166629	-0.4576845	-0.2909038	-0.00792152	-0.0006944363	-0.1568638	0.07314677	
-0.1793159	0.1204953	-0.00792152	-0.0006944363	-0.4739198	-0.4344197	0.01735636	-0.002738017	
-0.005427565	-0.0003167533	-0.1568638	0.07314677	0.01735636	-0.002738017	-0.4505242	-0.3977498	

3.046e+10	-0.4210683	-0.2215347	-0.000107994	-0.0144906	-0.1681725	0.1243957	-0.004519329	0.00251336	
-0.000107994	-0.0144906	-0.4599311	-0.289522	-0.007031788	0.003822718	-0.1576605	0.07368587	
-0.1681725	0.1243957	-0.007031788	0.003822718	-0.4800211	-0.427533	0.01277283	-0.01208374	
-0.004519329	0.00251336	-0.1576605	0.07368587	0.01277283	-0.01208374	-0.453762	-0.3969589	

3.048e+10	-0.4038538	-0.2298873	-0.008743201	-0.01147709	-0.1564058	0.125529	-0.002450227	0.004299192	
-0.008743201	-0.01147709	-0.4614408	-0.2871098	-0.003772279	0.007176	-0.1583497	0.07515611	
-0.1564058	0.125529	-0.003772279	0.007176	-0.4842338	-0.4201967	0.003691893	-0.01726672	
-0.002450227	0.004299192	-0.1583497	0.07515611	0.003691893	-0.01726672	-0.4561845	-0.3944631	

3.05e+10	-0.3896001	-0.244301	-0.01372192	-0.003854473	-0.1448421	0.1237069	2.974693e-05	0.004841909	
-0.01372192	-0.003854473	-0.4617156	-0.2849387	0.0008965891	0.008207876	-0.1581293	0.07709065	
-0.1448421	0.1237069	0.0008965891	0.008207876	-0.4867169	-0.4132043	-0.006841149	-0.01640252	
2.974693e-05	0.004841909	-0.1581293	0.07709065	-0.006841149	-0.01640252	-0.4567547	-0.3919012	

3.052e+10	-0.380744	-0.2629521	-0.01298223	0.005064172	-0.1344243	0.1189704	0.002465564	0.00424734	
-0.01298223	0.005064172	-0.461495	-0.2835806	0.00548917	0.006424948	-0.157023	0.07856273	
-0.1344243	0.1189704	0.00548917	0.006424948	-0.4881156	-0.4071158	-0.01509493	-0.009586924	
0.002465564	0.00424734	-0.157023	0.07856273	-0.01509493	-0.009586924	-0.4563749	-0.3907462	

3.054e+10	-0.378241	-0.2835787	-0.007125517	0.01142983	-0.1260355	0.1118209	0.004490476	0.002490546	
-0.007125517	0.01142983	-0.4615922	-0.2833075	0.008391312	0.002214887	-0.1558514	0.07899952	
-0.1260355	0.1118209	0.008391312	0.002214887	-0.4891944	-0.4018288	-0.0179338	0.0008300522	
0.004490476	0.002490546	-0.1558514	0.07899952	-0.0179338	0.0008300522	-0.456694	-0.3911577	

3.056e+10	-0.3820945	-0.3040406	0.0009571258	0.01285843	-0.1203453	0.1030392	0.005422073	-0.0003215607	
0.0009571258	0.01285843	-0.4628165	-0.2832811	0.008356993	-0.003111093	-0.1554816	0.07877797	
-0.1203453	0.1030392	0.008356993	-0.003111093	-0.4900916	-0.3968683	-0.0142279	0.0110045	
0.005422073	-0.0003215607	-0.1554816	0.07877797	-0.0142279	0.0110045	-0.458654	-0.3915891	

3.058e+10	-0.3917806	-0.3223852	0.007845261	0.009455034	-0.1176246	0.09362991	0.004578261	-0.003448464	
0.007845261	0.009455034	-0.464892	-0.2825477	0.005095383	-0.007579014	-0.1561084	0.07889024	
-0.1176246	0.09362991	0.005095383	-0.007579014	-0.4904371	-0.392212	-0.005341307	0.01720182	
0.004578261	-0.003448464	-0.1561084	0.07889024	-0.005341307	0.01720182	-0.4613369	-0.390827	

3.06e+10	-0.4061578	-0.3368396	0.01129173	0.003161632	-0.1177277	0.08459597	0.001933774	-0.005697367	
0.01129173	0.003161632	-0.4668586	-0.2806279	-0.0003345938	-0.009293179	-0.1570438	0.08005232	
-0.1177277	0.08459597	-0.0003345938	-0.009293179	-0.4903509	-0.3879511	0.005511168	0.01718176	
0.001933774	-0.005697367	-0.1570438	0.08005232	0.005511168	0.01718176	-0.4634186	-0.3888544	

3.062e+10	-0.4233061	-0.346472	0.01067533	-0.0035686	-0.1201333	0.07668081	-0.001733025	-0.006051748	
0.01067533	-0.0035686	-0.4677031	-0.2781436	-0.005812823	-0.007397402	-0.1572378	0.08209713	
-0.1201333	0.07668081	-0.005812823	-0.007397402	-0.4901541	-0.3844681	0.01441358	0.01091159	
-0.001733025	-0.006051748	-0.1572378	0.08209713	0.01441358	0.01091159	-0.4643643	-0.3867565	

3.064e+10	-0.441361	-0.3512002	0.006648522	-0.008602182	-0.1241317	0.07028756	-0.005120406	-0.004116912	
0.006648522	-0.008602182	-0.4674277	-0.2762158	-0.009112142	-0.002575041	-0.1562025	0.08396577	
-0.1241317	0.07028756	-0.009112142	-0.002575041	-0.4903043	-0.3814167	0.01808701	0.0006307272	
-0.005120406	-0.004116912	-0.1562025	0.08396577	0.01808701	0.0006307272	-0.4647191	-0.3854064	

3.066e+10	-0.4589784	-0.3516777	0.0007563585	-0.01052085	-0.1291691	0.06541786	-0.006815133	-0.0003631299	
0.0007563585	-0.01052085	-0.4670951	-0.2755794	-0.008918893	0.003277979	-0.1546644	0.08464121	
-0.1291691	0.06541786	-0.008918893	0.003277979	-0.4907152	-0.3781745	0.01515745	-0.009897991	
-0.006815133	-0.0003631299	-0.1546644	0.08464121	0.01515745	-0.009897991	-0.4652303	-0.3850088	

3.068e+10	-0.475333	-0.3490391	-0.005013631	-0.008974514	-0.1349044	0.06204908	-0.005888157	0.003841371	
-0.005013631	-0.008974514	-0.467772	-0.2758687	-0.005313511	0.007904359	-0.1539363	0.08424275	
-0.1349044	0.06204908	-0.005313511	0.007904359	-0.4908543	-0.3746082	0.006700774	-0.01681182	
-0.005888157	0.003841371	-0.1539363	0.08424275	0.006700774	-0.01681182	-0.4665365	-0.3848566	

3.07e+10	-0.4904211	-0.3436517	-0.008925422	-0.004705841	-0.1411019	0.06015596	-0.002515535	0.00671381	
-0.008925422	-0.004705841	-0.4698556	-0.2754422	0.0003398683	0.00952754	-0.1545663	0.08402748	
-0.1411019	0.06015596	0.0003398683	0.00952754	-0.4902779	-0.3714673	-0.004185945	-0.01759801	
-0.002515535	0.00671381	-0.1545663	0.08402748	-0.004185945	-0.01759801	-0.4683721	-0.3844515	

3.072e+10	-0.5038809	-0.3361739	-0.009961562	0.0008872933	-0.1473922	0.05984976	0.001963545	0.006979455	
-0.009961562	0.0008872933	-0.4720262	-0.2738442	0.005863692	0.00749628	-0.1557239	0.0850798	
-0.1473922	0.05984976	0.005863692	0.00749628	-0.4895955	-0.3689367	-0.01353694	-0.0119849	
0.001963545	0.006979455	-0.1557239	0.0850798	-0.01353694	-0.0119849	-0.4704448	-0.3832754	

3.074e+10	-0.5156567	-0.3267409	-0.007871625	0.0061788	-0.1533481	0.06093163	0.005731638	0.004517162	
-0.007871625	0.0061788	-0.4732667	-0.2711521	0.009098519	0.002611193	-0.1560109	0.08722727	
-0.1533481	0.06093163	0.009098519	0.002611193	-0.4893274	-0.3668635	-0.01795732	-0.002023758	
0.005731638	0.004517162	-0.1560109	0.08722727	-0.01795732	-0.002023758	-0.4720997	-0.3816171	

3.076e+10	-0.525441	-0.3160914	-0.003195575	0.009550568	-0.1588125	0.06310288	0.007331667	0.0002999431	
-0.003195575	0.009550568	-0.4731148	-0.2688759	0.008833339	-0.003178804	-0.1549631	0.08921574	
-0.1588125	0.06310288	0.008833339	-0.003178804	-0.4895552	-0.3646375	-0.0158537	0.008668859	
0.007331667	0.0002999431	-0.1549631	0.08921574	-0.0158537	0.008668859	-0.4731481	-0.3797415	

3.078e+10	-0.5333812	-0.3044821	0.002654914	0.009800773	-0.1637638	0.06609836	0.0061446	-0.00407999	
0.002654914	0.009800773	-0.4724968	-0.2679794	0.005280957	-0.00765747	-0.153362	0.08994098	
-0.1637638	0.06609836	0.005280957	-0.00765747	-0.4897154	-0.3621059	-0.007975622	0.01621575	
0.0061446	-0.00407999	-0.153362	0.08994098	-0.007975622	0.01621575	-0.4735362	-0.3784251	

3.08e+10	-0.5397032	-0.29206	0.007722528	0.006726117	-0.1682396	0.06999693	0.002571297	-0.006934748	
0.007722528	0.006726117	-0.4728361	-0.2681718	-0.0001455361	-0.009223352	-0.152556	0.08957569	
-0.1682396	0.06999693	-0.0001455361	-0.009223352	-0.48945	-0.3596683	0.002819759	0.01784155	
0.002571297	-0.006934748	-0.152556	0.08957569	0.002819759	0.01784155	-0.4739444	-0.3780741	

3.082e+10	-0.5443977	-0.2791821	0.01026621	0.001306427	-0.1720588	0.0748133	-0.002009442	-0.007096488	
0.01026621	0.001306427	-0.4746062	-0.2681913	-0.00543182	-0.007370234	-0.1530352	0.08939072	
-0.1720588	0.0748133	-0.00543182	-0.007370234	-0.4892655	-0.357433	0.01256412	0.01293848	
-0.002009442	-0.007096488	-0.1530352	0.08939072	0.01256412	0.01293848	-0.4752354	-0.3781548	

3.084e+10	-0.54752	-0.2655072	0.009391047	-0.004705556	-0.1749844	0.08037287	-0.005748008	-0.004513497	
0.009391047	-0.004705556	-0.4770054	-0.2666986	-0.00863108	-0.002819405	-0.1540506	0.09030868	
-0.1749844	0.08037287	-0.00863108	-0.002819405	-0.4894661	-0.355357	0.01767887	0.003347488	
-0.005748008	-0.004513497	-0.1540506	0.09030868	0.01767887	0.003347488	-0.4775318	-0.3776735	

3.086e+10	-0.5486529	-0.2513087	0.005241123	-0.0093411	-0.176822	0.08650945	-0.00720398	-0.0002994172	
0.005241123	-0.0093411	-0.4784676	-0.2641283	-0.008572999	0.002688258	-0.1543541	0.09226932	
-0.176822	0.08650945	-0.008572999	0.002688258	-0.4900121	-0.3527583	0.016367	-0.007394797	
-0.00720398	-0.0002994172	-0.1543541	0.09226932	0.016367	-0.007394797	-0.4798363	-0.3761045	

3.088e+10	-0.5476289	-0.2366398	-0.0009827197	-0.01090581	-0.1777015	0.09290012	-0.005954428	0.003880162	
-0.0009827197	-0.01090581	-0.4785081	-0.2615415	-0.005365562	0.007063746	-0.1535441	0.09412879	
-0.1777015	0.09290012	-0.005365562	0.007063746	-0.4903454	-0.3491148	0.009160869	-0.01544217	
-0.005954428	0.003880162	-0.1535441	0.09412879	0.009160869	-0.01544217	-0.481149	-0.3737557	

3.09e+10	-0.5442267	-0.2220948	-0.007182529	-0.008578031	-0.1776142	0.09959096	-0.002582427	0.006519142	
-0.007182529	-0.008578031	-0.4777735	-0.2603824	-0.0003140987	0.008745161	-0.1521402	0.09510467	
-0.1776142	0.09959096	-0.0003140987	0.008745161	-0.4897353	-0.3449584	-0.001373707	-0.01792243	
-0.002582427	0.006519142	-0.1521402	0.09510467	-0.001373707	-0.01792243	-0.481238	-0.371943	

3.092e+10	-0.5385018	-0.2078985	-0.01101529	-0.002959781	-0.1763494	0.1065908	0.001633848	0.006722708	
-0.01101529	-0.002959781	-0.4778159	-0.2605137	0.004695742	0.007255179	-0.151205	0.09507149	
-0.1763494	0.1065908	0.004695742	0.007255179	-0.4881421	-0.340786	-0.01145171	-0.01388216	
0.001633848	0.006722708	-0.151205	0.09507149	-0.01145171	-0.01388216	-0.4811794	-0.3714954	

3.094e+10	-0.5303159	-0.1940681	-0.01090685	0.003984866	-0.1735973	0.1136854	0.005129721	0.004471159	
-0.01090685	0.003984866	-0.4794093	-0.2605147	0.007918193	0.003234902	-0.1513129	0.09491841	
-0.1735973	0.1136854	0.007918193	0.003234902	-0.4857836	-0.3368745	-0.01736892	-0.004754857	
0.005129721	0.004471159	-0.1513129	0.09491841	-0.01736892	-0.004754857	-0.4822845	-0.3719457	

3.096e+10	-0.5190979	-0.1812771	-0.006738541	0.009724435	-0.1691936	0.1204175	0.006622749	0.0006977151	
-0.006738541	0.009724435	-0.4816739	-0.2593547	0.008274638	-0.001851269	-0.1520259	0.09555063	
-0.1691936	0.1204175	0.008274638	-0.001851269	-0.4826959	-0.3328653	-0.01695442	0.006110653	
0.006622749	0.0006977151	-0.1520259	0.09555063	-0.01695442	0.006110653	-0.4847417	-0.3716866	

3.098e+10	-0.5045775	-0.1702013	0.0001536061	0.01207202	-0.1632108	0.1262802	0.005701079	-0.003105232	
0.0001536061	0.01207202	-0.4832909	-0.2568621	0.005691413	-0.006186981	-0.1524938	0.09707443	
-0.1632108	0.1262802	0.005691413	-0.006186981	-0.4782163	-0.3289148	-0.01037657	0.0147863	
0.005701079	-0.003105232	-0.1524938	0.09707443	-0.01037657	0.0147863	-0.4872684	-0.3699909	

3.1e+10	-0.4868215	-0.1623215	0.007335761	0.009894196	-0.1556842	0.130959	0.002923602	-0.005620259	
0.007335761	0.009894196	-0.4834953	-0.2543792	0.001159505	-0.008256581	-0.1520742	0.09890916	
-0.1556842	0.130959	0.001159505	-0.008256581	-0.4718892	-0.3257777	5.130088e-05	0.01814393	
0.002923602	-0.005620259	-0.1520742	0.09890916	5.130088e-05	0.01814393	-0.4885747	-0.3674994	

3.102e+10	-0.4666798	-0.1589617	0.01195842	0.003704265	-0.1467643	0.1338733	-0.0006387705	-0.006196061	
0.01195842	0.003704265	-0.4829817	-0.2529262	-0.00368687	-0.007427152	-0.1508928	0.100215	
-0.1467643	0.1338733	-0.00368687	-0.007427152	-0.4640148	-0.3245447	0.01061223	0.01483503	
-0.0006387705	-0.006196061	-0.1508928	0.100215	0.01061223	0.01483503	-0.4886065	-0.3656574	

3.104e+10	-0.4454606	-0.1606392	0.01192434	-0.004180751	-0.1367964	0.1343825	-0.00389641	-0.004818539	
0.01192434	-0.004180751	-0.4829371	-0.2526881	-0.007232523	-0.004068667	-0.1497186	0.1005688	
-0.1367964	0.1343825	-0.007232523	-0.004068667	-0.4554259	-0.3260529	0.01733535	0.005900422	
-0.00389641	-0.004818539	-0.1497186	0.1005688	0.01733535	0.005900422	-0.4885656	-0.3652279	

3.106e+10	-0.4243627	-0.1683599	0.007080012	-0.01048313	-0.1265651	0.1318426	-0.00593281	-0.001916246	
0.007080012	-0.01048313	-0.4841232	-0.2525558	-0.008340523	0.0007253009	-0.1493681	0.100409	
-0.1265651	0.1318426	-0.008340523	0.0007253009	-0.4472944	-0.3298944	0.01753196	-0.005349688	
-0.00593281	-0.001916246	-0.1493681	0.100409	0.01753196	-0.005349688	-0.4897017	-0.3654114	

3.108e+10	-0.4054056	-0.1822815	-0.0005623676	-0.01255841	-0.1173689	0.1259508	-0.00609818	0.001683154	
-0.0005623676	-0.01255841	-0.4859715	-0.2516885	-0.006541761	0.005423364	-0.149869	0.1006318	
-0.1173689	0.1259508	-0.006541761	0.005423364	-0.4398943	-0.3362029	0.01106212	-0.014568	
-0.00609818	0.001683154	-0.149869	0.1006318	0.01106212	-0.014568	-0.4919329	-0.3649421	

3.11e+10	-0.3911163	-0.2019566	-0.007819747	-0.00964281	-0.1106013	0.1171623	-0.00424234	0.004880254	
-0.007819747	-0.00964281	-0.4876417	-0.2496463	-0.002265	0.008336584	-0.150545	0.1018117	
-0.1106013	0.1171623	-0.002265	0.008336584	-0.433698	-0.3449789	0.0004371163	-0.01819775	
-0.00424234	0.004880254	-0.150545	0.1018117	0.0004371163	-0.01819775	-0.4940625	-0.3634563	

3.112e+10	-0.3837141	-0.2253038	-0.01180003	-0.003082477	-0.1073377	0.1067026	-0.0008211544	0.006610493	
-0.01180003	-0.003082477	-0.4883071	-0.2473038	0.003045443	0.008219231	-0.1504907	0.1037003	
-0.1073377	0.1067026	0.003045443	0.008219231	-0.4299064	-0.3560288	-0.0102249	-0.01489402	
-0.0008211544	0.006610493	-0.1504907	0.1037003	-0.0102249	-0.01489402	-0.4954125	-0.3613935	

3.114e+10	-0.3839465	-0.2491473	-0.01108483	0.004364195	-0.10785	0.09612465	0.003180232	0.006129267	
-0.01108483	0.004364195	-0.4881899	-0.2454272	0.007356322	0.004942871	-0.1494436	0.1053427	
-0.10785	0.09612465	0.007356322	0.004942871	-0.4295055	-0.3686512	-0.01682397	-0.006027166	
0.003180232	0.006129267	-0.1494436	0.1053427	-0.01682397	-0.006027166	-0.4959117	-0.3597723	

3.116e+10	-0.3906685	-0.2710164	-0.006249421	0.009738212	-0.1116838	0.08678707	0.006366974	0.003286381	
-0.006249421	0.009738212	-0.4879461	-0.2446648	0.008927296	-0.0003163658	-0.1480169	0.1059697	
-0.1116838	0.08678707	0.008927296	-0.0003163658	-0.4329592	-0.3810339	-0.01693392	0.004865322	
0.006366974	0.003286381	-0.1480169	0.1059697	-0.01693392	0.004865322	-0.4963444	-0.3587656	

3.118e+10	-0.4023044	-0.2891915	0.0005191129	0.01118196	-0.117936	0.07960873	0.007306521	-0.001115614	
0.0005191129	0.01118196	-0.488526	-0.2444224	0.007062737	-0.005539685	-0.1472861	0.1057189	
-0.117936	0.07960873	0.007062737	-0.005539685	-0.4394378	-0.3919377	-0.01075715	0.01357702	
0.007306521	-0.001115614	-0.1472861	0.1057189	-0.01075715	0.01357702	-0.4971856	-0.3583178	

3.12e+10	-0.4172343	-0.3031385	0.006582977	0.008598352	-0.1256524	0.07499303	0.005330093	-0.005340709	
0.006582977	0.008598352	-0.490109	-0.2438255	0.002427278	-0.008648642	-0.1477063	0.1056304	
-0.1256524	0.07499303	0.002427278	-0.008648642	-0.4477007	-0.401135	-0.0008867482	0.01697686	
0.005330093	-0.005340709	-0.1477063	0.1056304	-0.0008867482	0.01697686	-0.4985794	-0.3578699	

3.122e+10	-0.4340202	-0.312795	0.009993684	0.003295423	-0.1338972	0.07303345	0.001131622	-0.007539449	
0.009993684	0.003295423	-0.4918579	-0.2423441	-0.003147066	-0.008368198	-0.1485778	0.1066461	
-0.1338972	0.07303345	-0.003147066	-0.008368198	-0.4574517	-0.4085782	0.008883418	0.01410226	
0.001131622	-0.007539449	-0.1485778	0.1066461	0.008883418	0.01410226	-0.5003961	-0.3569291	

3.124e+10	-0.4514529	-0.3182291	0.009901728	-0.00280732	-0.1416657	0.07352667	-0.003552008	-0.006777071	
0.009901728	-0.00280732	-0.4929435	-0.2401052	-0.00740277	-0.004844237	-0.1486885	0.1086244	
-0.1416657	0.07352667	-0.00740277	-0.004844237	-0.4685591	-0.4144003	0.01506498	0.006333043	
-0.003552008	-0.006777071	-0.1486885	0.1086244	0.01506498	0.006333043	-0.5021205	-0.3555211	

3.126e+10	-0.4684368	-0.3199055	0.006523994	-0.007733784	-0.1483934	0.07577342	-0.006865645	-0.003400671	
0.006523994	-0.007733784	-0.4930692	-0.2378284	-0.008709438	0.0004229152	-0.1476261	0.1103982	
-0.1483934	0.07577342	-0.008709438	0.0004229152	-0.4807978	-0.4180985	0.01569104	-0.003337236	
-0.006865645	-0.003400671	-0.1476261	0.1103982	0.01569104	-0.003337236	-0.5033956	-0.3536611	

3.128e+10	-0.4844122	-0.3186837	0.001060339	-0.009913656	-0.1538641	0.07910937	-0.007561681	0.00127489	
0.001060339	-0.009913656	-0.492649	-0.2366725	-0.006712444	0.005343145	-0.1460584	0.1110654	
-0.1538641	0.07910937	-0.006712444	0.005343145	-0.4934224	-0.4194901	0.0108209	-0.01147724	
-0.007561681	0.00127489	-0.1460584	0.1110654	0.0108209	-0.01147724	-0.5039181	-0.3520614	

3.13e+10	-0.4991358	-0.3152967	-0.004595811	-0.008698323	-0.1582698	0.08305825	-0.005367601	0.005469743	
-0.004595811	-0.008698323	-0.4928412	-0.2363415	-0.002314839	0.008120924	-0.1452591	0.110778	
-0.1582698	0.08305825	-0.002314839	0.008120924	-0.5057806	-0.4187155	0.002351946	-0.01535391	
-0.005367601	0.005469743	-0.1452591	0.110778	0.002351946	-0.01535391	-0.5042692	-0.3509985	

3.132e+10	-0.5127878	-0.309944	-0.008563602	-0.004624529	-0.161697	0.08742924	-0.001124081	0.007544823	
-0.008563602	-0.004624529	-0.4941232	-0.2360023	0.002787095	0.007833561	-0.1456672	0.1106877	
-0.161697	0.08742924	0.002787095	0.007833561	-0.5175689	-0.4164336	-0.006666457	-0.01377795	
-0.001124081	0.007544823	-0.1456672	0.1106877	-0.006666457	-0.01377795	-0.5049777	-0.3508379	

3.134e+10	-0.5252194	-0.3031133	-0.009636294	0.0008888432	-0.1641556	0.09204448	0.003472691	0.006714983	
-0.009636294	0.0008888432	-0.4959744	-0.2347638	0.006704349	0.004690426	-0.1464677	0.1116998	
-0.1641556	0.09204448	0.006704349	0.004690426	-0.5290829	-0.4127704	-0.01310111	-0.007493969	
0.003472691	0.006714983	-0.1464677	0.1116998	-0.01310111	-0.007493969	-0.5067394	-0.3504906	

3.136e+10	-0.5363774	-0.2947541	-0.007524225	0.006084304	-0.1656577	0.09660874	0.006656298	0.003407959	
-0.007524225	0.006084304	-0.4972791	-0.2326251	0.00804132	-5.373846e-05	-0.146483	0.1135829	
-0.1656577	0.09660874	0.00804132	-5.373846e-05	-0.540256	-0.4077037	-0.01486465	0.001162042	
0.006656298	0.003407959	-0.146483	0.1135829	-0.01486465	0.001162042	-0.5088996	-0.3493648	

3.138e+10	-0.546136	-0.2850277	-0.00287307	0.009281389	-0.1664534	0.1008475	0.007333736	-0.001053372	
-0.00287307	0.009281389	-0.4975594	-0.230221	0.006421056	-0.004596855	-0.1454624	0.1152094	
-0.1664534	0.1008475	0.006421056	-0.004596855	-0.5508874	-0.400831	-0.01155009	0.009220317	
0.007333736	-0.001053372	-0.1454624	0.1152094	-0.01155009	0.009220317	-0.5106286	-0.3471531	

3.14e+10	-0.5543033	-0.2744354	0.002828021	0.009354465	-0.1668563	0.1047093	0.005353829	-0.00505968	
0.002828021	0.009354465	-0.497123	-0.2287562	0.00256935	-0.007321344	-0.1440794	0.1158842	
-0.1668563	0.1047093	0.00256935	-0.007321344	-0.560297	-0.39247	-0.004368293	0.01404224	
0.005353829	-0.00505968	-0.1440794	0.1158842	-0.004368293	0.01404224	-0.5110537	-0.3450995	

3.142e+10	-0.560998	-0.2631489	0.007631657	0.006202521	-0.1671347	0.1082899	0.001441354	-0.007196274	
0.007631657	0.006202521	-0.4970918	-0.2283214	-0.002054621	-0.007353869	-0.1433618	0.1158024	
-0.1671347	0.1082899	-0.002054621	-0.007353869	-0.5683064	-0.3830389	0.004267188	0.0140388	
0.001441354	-0.007196274	-0.1433618	0.1158024	0.004267188	0.0140388	-0.5109378	-0.3439835	

3.144e+10	-0.5663475	-0.2512072	0.009870065	0.000866192	-0.1672639	0.1118044	-0.002982139	-0.006669778	
0.009870065	0.000866192	-0.4981034	-0.2281547	-0.005809521	-0.004783893	-0.1435734	0.1158905	
-0.1672639	0.1118044	-0.005809521	-0.004783893	-0.5751084	-0.3727666	0.0114149	0.009193898	
-0.002982139	-0.006669778	-0.1435734	0.1158905	0.0114149	0.009193898	-0.5114331	-0.343928	

3.146e+10	-0.5702948	-0.2383256	0.008752054	-0.004864331	-0.1672147	0.1152245	-0.006252498	-0.003683003	
0.008752054	-0.004864331	-0.4998952	-0.226973	-0.007400709	-0.0005863476	-0.1440353	0.1168458	
-0.1672147	0.1152245	-0.007400709	-0.0005863476	-0.5807449	-0.3619039	0.01460939	0.001180473	
-0.006252498	-0.003683003	-0.1440353	0.1168458	0.01460939	0.001180473	-0.513169	-0.3439259	

3.148e+10	-0.5724012	-0.2250134	0.004577275	-0.00907051	-0.1671319	0.1184674	-0.00717445	0.0006024554	
0.004577275	-0.00907051	-0.5013033	-0.2248741	-0.006313643	0.003708637	-0.1439756	0.1183892	
-0.1671319	0.1184674	-0.006313643	0.003708637	-0.5852023	-0.349959	0.01277843	-0.00724825	
-0.00717445	0.0006024554	-0.1439756	0.1183892	0.01277843	-0.00724825	-0.5155934	-0.3426892	

3.15e+10	-0.5725038	-0.2113213	-0.001371195	-0.0102507	-0.1671905	0.1216941	-0.005478096	0.00459504	
-0.001371195	-0.0102507	-0.5016352	-0.2226084	-0.003005422	0.006558362	-0.1431879	0.1198086	
-0.1671905	0.1216941	-0.003005422	0.006558362	-0.5879014	-0.3372396	0.00653406	-0.01325501	
-0.005478096	0.00459504	-0.1431879	0.1198086	0.00653406	-0.01325501	-0.5173019	-0.3404504	

3.152e+10	-0.5705729	-0.1976901	-0.007088796	-0.007798685	-0.1674147	0.1251967	-0.001817369	0.006878465	
-0.007088796	-0.007798685	-0.5013469	-0.2209113	0.001265106	0.00698638	-0.1420906	0.1206296	
-0.1674147	0.1251967	0.001265106	0.00698638	-0.588499	-0.3241992	-0.002098239	-0.01477071	
-0.001817369	0.006878465	-0.1420906	0.1206296	-0.002098239	-0.01477071	-0.517683	-0.3382463	

3.154e+10	-0.5666951	-0.1844585	-0.01046462	-0.00239864	-0.1676814	0.1291787	0.002485862	0.006634264	
-0.01046462	-0.00239864	-0.5012924	-0.2203651	0.004943852	0.004936265	-0.1413722	0.1208714	
-0.1676814	0.1291787	0.004943852	0.004936265	-0.5871979	-0.3111677	-0.010216	-0.01110592	
0.002485862	0.006634264	-0.1413722	0.1208714	-0.010216	-0.01110592	-0.5175767	-0.337018	

3.156e+10	-0.5608211	-0.1717814	-0.01013425	0.004104794	-0.1676595	0.1337929	0.005840298	0.003931327	
-0.01013425	0.004104794	-0.5021566	-0.2200133	0.006766246	0.001221951	-0.1412413	0.1211012	
-0.1676595	0.1337929	0.006766246	0.001221951	-0.5841106	-0.2986473	-0.01489251	-0.003356172	
0.005840298	0.003931327	-0.1412413	0.1211012	-0.01489251	-0.003356172	-0.518038	-0.3370609	

3.158e+10	-0.552815	-0.1597709	-0.006048779	0.009360732	-0.1671539	0.1390204	0.006964279	-0.0001982401	
-0.006048779	0.009360732	-0.5037075	-0.2188092	0.006158496	-0.002800879	-0.1414359	0.121826	
-0.1671539	0.1390204	0.006158496	-0.002800879	-0.5793992	-0.2863569	-0.01431235	0.005802914	
0.006964279	-0.0001982401	-0.1414359	0.121826	-0.01431235	0.005802914	-0.5197835	-0.3369068	

3.16e+10	-0.5424522	-0.1492125	0.0004695913	0.0113653	-0.1659874	0.1448	0.005472054	-0.004141485	
0.0004695913	0.0113653	-0.5049309	-0.2169354	0.00341174	-0.005702635	-0.1414198	0.1230211	
-0.1659874	0.1448	0.00341174	-0.005702635	-0.5727476	-0.2742918	-0.008538748	0.01310341	
0.005472054	-0.004141485	-0.1414198	0.1230211	-0.008538748	0.01310341	-0.522066	-0.3355465	

3.162e+10	-0.5299571	-0.1407136	0.007134711	0.009167911	-0.1638332	0.1512868	0.002032725	-0.006420399	
0.007134711	0.009167911	-0.505392	-0.2148386	-0.0004114431	-0.00649448	-0.1408891	0.1243853	
-0.1638332	0.1512868	-0.0004114431	-0.00649448	-0.5636582	-0.2631975	0.0005170372	0.01586158	
0.002032725	-0.006420399	-0.1408891	0.1243853	0.0005170372	0.01586158	-0.5235344	-0.3333998	

3.164e+10	-0.5159134	-0.1348663	0.01137337	0.003323436	-0.1602805	0.1582789	-0.001983139	-0.006285889	
0.01137337	0.003323436	-0.5053167	-0.2133502	-0.003897127	-0.005022335	-0.1399954	0.1253903	
-0.1602805	0.1582789	-0.003897127	-0.005022335	-0.5522083	-0.2538707	0.009714991	0.01287492	
-0.001983139	-0.006285889	-0.1399954	0.1253903	0.009714991	0.01287492	-0.5239213	-0.3314653	

3.166e+10	-0.5009468	-0.1317013	0.01134243	-0.004077266	-0.1547478	0.1653672	-0.005094372	-0.003937378	
0.01134243	-0.004077266	-0.5054854	-0.2123827	-0.005893381	-0.001969611	-0.1391217	0.1258826	
-0.1547478	0.1653672	-0.005893381	-0.001969611	-0.5390449	-0.2465665	0.01562711	0.004938906	
-0.005094372	-0.003937378	-0.1391217	0.1258826	0.01562711	0.004938906	-0.5240522	-0.3303966	

3.168e+10	-0.4851791	-0.1316384	0.006821906	-0.01013372	-0.1469212	0.1717796	-0.006268825	-0.0003537745	
0.006821906	-0.01013372	-0.5061782	-0.2116351	-0.005903719	0.001554319	-0.1387101	0.126128	
-0.1469212	0.1717796	-0.005903719	0.001554319	-0.5243469	-0.2418382	0.01580296	-0.005169479	
-0.006268825	-0.0003537745	-0.1387101	0.126128	0.01580296	-0.005169479	-0.5248042	-0.3301032	

3.17e+10	-0.4690752	-0.1351256	-0.0005387341	-0.01232423	-0.1368616	0.1766318	-0.005255639	0.003129261	
-0.0005387341	-0.01232423	-0.5072386	-0.2105201	-0.004072761	0.004469633	-0.1387999	0.1266085	
-0.1368616	0.1766318	-0.004072761	0.004469633	-0.5082077	-0.2397947	0.009907846	-0.01360949	
-0.005255639	0.003129261	-0.1387999	0.1266085	0.009907846	-0.01360949	-0.5263674	-0.3295499	

3.172e+10	-0.4536509	-0.1429485	-0.007824164	-0.009627632	-0.125013	0.1789355	-0.002609171	0.005375763	
-0.007824164	-0.009627632	-0.5082113	-0.2089509	-0.001010292	0.005964339	-0.1388944	0.1276752	
-0.125013	0.1789355	-0.001010292	0.005964339	-0.4906927	-0.2414507	1.840551e-05	-0.01700899	
-0.002609171	0.005375763	-0.1388944	0.1276752	1.840551e-05	-0.01700899	-0.5280774	-0.3281879	

3.174e+10	-0.4405768	-0.1549788	-0.01203453	-0.003029564	-0.1121677	0.1779126	0.0006968203	0.005853268	
-0.01203453	-0.003029564	-0.5088913	-0.2071568	0.002398864	0.005628958	-0.1384976	0.1290608	
-0.1121677	0.1779126	0.002398864	0.005628958	-0.4729557	-0.2478862	-0.01010725	-0.01384527	
0.0006968203	0.005853268	-0.1384976	0.1290608	-0.01010725	-0.01384527	-0.5292964	-0.3263899	

3.176e+10	-0.431275	-0.1704057	-0.01137065	0.004765775	-0.09958349	0.1730412	0.003732394	0.004589763	
-0.01137065	0.004765775	-0.5092175	-0.2056338	0.005195779	0.003509349	-0.1375678	0.1301824	
-0.09958349	0.1730412	0.005195779	0.003509349	-0.456942	-0.2597902	-0.01641051	-0.005167915	
0.003732394	0.004589763	-0.1375678	0.1301824	-0.01641051	-0.005167915	-0.5300182	-0.3247956	

3.178e+10	-0.4265886	-0.1878812	-0.006156638	0.01047697	-0.08882708	0.164488	0.005745083	0.001901228	
-0.006156638	0.01047697	-0.5094771	-0.2042922	0.006503224	6.997823e-05	-0.1365929	0.1307136	
-0.08882708	0.164488	0.006503224	6.997823e-05	-0.4448281	-0.2762352	-0.016224	0.005602212	
0.005745083	0.001901228	-0.1365929	0.1307136	-0.016224	0.005602212	-0.5306066	-0.3237566	

3.18e+10	-0.4268501	-0.2060717	0.001286222	0.01180916	-0.08121649	0.1530681	0.006057049	-0.001624454	
0.001286222	0.01180916	-0.5098405	-0.2033026	0.005652609	-0.003766259	-0.1361002	0.1308806	
-0.08121649	0.1530681	0.005652609	-0.003766259	-0.4377761	-0.2956173	-0.009611596	0.01402688	
0.006057049	-0.001624454	-0.1361002	0.1308806	-0.009611596	0.01402688	-0.5314836	-0.322893	

3.182e+10	-0.4322931	-0.2234098	0.00779239	0.008500922	-0.07762193	0.1402645	0.004264576	-0.00494143	
0.00779239	0.008500922	-0.5105515	-0.2022447	0.002551522	-0.006608646	-0.1361993	0.1312967	
-0.07762193	0.1402645	0.002551522	-0.006608646	-0.4363482	-0.3160956	0.0005743072	0.01672214	
0.004264576	-0.00494143	-0.1361993	0.1312967	0.0005743072	0.01672214	-0.5326476	-0.321821	

3.184e+10	-0.4424311	-0.2382246	0.01092073	0.002259387	-0.07811041	0.1277647	0.0006973379	-0.006744546	
0.01092073	0.002259387	-0.5114586	-0.2009535	-0.001871461	-0.007088206	-0.136327	0.1323871	
-0.07811041	0.1277647	-0.001871461	-0.007088206	-0.440571	-0.3363549	0.01010385	0.01288869	
0.0006973379	-0.006744546	-0.136327	0.1323871	0.01010385	0.01288869	-0.5338741	-0.3206571	

3.186e+10	-0.4559305	-0.2492011	0.009870202	-0.0043245	-0.08183148	0.1169543	-0.003450285	-0.006108304	
0.009870202	-0.0043245	-0.5122993	-0.1993252	-0.005840581	-0.004726234	-0.1358982	0.1338268	
-0.08183148	0.1169543	-0.005840581	-0.004726234	-0.4502263	-0.3544204	0.01534529	0.004433832	
-0.003450285	-0.006108304	-0.1358982	0.1338268	0.01534529	0.004433832	-0.5350466	-0.3194582	

3.188e+10	-0.4709486	-0.2558107	0.005433499	-0.008899405	-0.0875507	0.108464	-0.006560568	-0.003036968	
0.005433499	-0.008899405	-0.5127643	-0.1976537	-0.007630046	-0.0003571545	-0.1348406	0.1349348	
-0.0875507	0.108464	-0.007630046	-0.0003571545	-0.4641267	-0.3685222	0.01468074	-0.00514745	
-0.006560568	-0.003036968	-0.1348406	0.1349348	0.01468074	-0.00514745	-0.5361172	-0.31807	

3.19e+10	-0.4860803	-0.2584535	-0.0005678789	-0.01009404	-0.09427776	0.1021678	-0.007277641	0.001433094	
-0.0005678789	-0.01009404	-0.5129562	-0.1962894	-0.00642875	0.004277723	-0.1338229	0.1353261	
-0.09427776	0.1021678	-0.00642875	0.004277723	-0.4801948	-0.3780117	0.008818034	-0.01233281	
-0.007277641	0.001433094	-0.1338229	0.1353261	0.008818034	-0.01233281	-0.5370119	-0.3165767	

3.192e+10	-0.5005878	-0.2578196	-0.005992025	-0.007794865	-0.1014502	0.09776423	-0.005131297	0.005566579	
-0.005992025	-0.007794865	-0.5133161	-0.195093	-0.002663004	0.007300682	-0.1334627	0.1353866	
-0.1014502	0.09776423	-0.002663004	0.007300682	-0.4967518	-0.3831032	0.0001864814	-0.01479783	
-0.005131297	0.005566579	-0.1334627	0.1353866	0.0001864814	-0.01479783	-0.5376651	-0.3154463	

3.194e+10	-0.5140291	-0.2544957	-0.00910948	-0.003033853	-0.1087286	0.09508419	-0.0008545502	0.007635328	
-0.00910948	-0.003033853	-0.5139446	-0.1939985	0.002179195	0.00747211	-0.1336758	0.1359345	
-0.1087286	0.09508419	0.002179195	0.00747211	-0.5128473	-0.3846369	-0.008075034	-0.01201692	
-0.0008545502	0.007635328	-0.1336758	0.1359345	-0.008075034	-0.01201692	-0.5385233	-0.3144355	

3.196e+10	-0.5260892	-0.2489059	-0.009085708	0.00251286	-0.1157137	0.09383696	0.003861548	0.006732014	
-0.009085708	0.00251286	-0.5147129	-0.1927505	0.006152428	0.004726727	-0.1337136	0.137213	
-0.1157137	0.09383696	0.006152428	0.004726727	-0.5281998	-0.3831965	-0.01320015	-0.005244972	
0.003861548	0.006732014	-0.1337136	0.137213	-0.01320015	-0.005244972	-0.5396677	-0.3134639	

3.198e+10	-0.5363918	-0.2414017	-0.006071664	0.007051489	-0.1222101	0.09363961	0.007145741	0.003187169	
-0.006071664	0.007051489	-0.5154097	-0.1911673	0.007707705	0.0002038526	-0.1330057	0.1386486	
-0.1222101	0.09363961	0.007707705	0.0002038526	-0.5423961	-0.3792258	-0.01364713	0.003055497	
0.007145741	0.003187169	-0.1330057	0.1386486	-0.01364713	0.003055497	-0.540974	-0.3122056	

3.2e+10	-0.5447291	-0.2325714	-0.001104099	0.009157279	-0.1283137	0.09404906	0.007713395	-0.001649525	
-0.001104099	0.009157279	-0.5158195	-0.1896824	0.006321929	-0.004317218	-0.1318309	0.1395048	
-0.1283137	0.09404906	0.006321929	-0.004317218	-0.5549545	-0.372914	-0.009456826	0.0100846	
0.007713395	-0.001649525	-0.1318309	0.1395048	-0.009456826	0.0100846	-0.5420801	-0.3107035	

3.202e+10	-0.5510756	-0.2229847	0.004164902	0.008174434	-0.1343046	0.09495228	0.005290823	-0.005933909	
0.004164902	0.008174434	-0.5161828	-0.1882834	0.0025898	-0.007149175	-0.1309864	0.1396817	
-0.1343046	0.09495228	0.0025898	-0.007149175	-0.5654095	-0.3648007	-0.002133116	0.01355215	
0.005290823	-0.005933909	-0.1309864	0.1396817	-0.002133116	0.01355215	-0.5428395	-0.3092536	

3.204e+10	-0.5555919	-0.2129381	0.007999965	0.004457114	-0.1403648	0.09650614	0.0007486106	-0.007962486	
0.007999965	0.004457114	-0.5166601	-0.1870284	-0.002064252	-0.00726586	-0.130843	0.1398708	
-0.1403648	0.09650614	-0.002064252	-0.00726586	-0.573607	-0.35579	0.005843973	0.01234127	
0.0007486106	-0.007962486	-0.130843	0.1398708	0.005843973	0.01234127	-0.5435121	-0.3081308	

3.206e+10	-0.5583733	-0.2026796	0.009142382	-0.0007753405	-0.1464226	0.09887488	-0.004135932	-0.006869761	
0.009142382	-0.0007753405	-0.5172797	-0.1857224	-0.005875752	-0.004647054	-0.1310651	0.1406485	
-0.1464226	0.09887488	-0.005875752	-0.004647054	-0.5798216	-0.3466038	0.0117581	0.006871983	
-0.004135932	-0.006869761	-0.1310651	0.1406485	0.0117581	0.006871983	-0.5443988	-0.3072539	

3.208e+10	-0.5593551	-0.1924922	0.007174353	-0.005796213	-0.1522648	0.1020864	-0.00740506	-0.003073335	
0.007174353	-0.005796213	-0.5178623	-0.1843006	-0.007406243	-0.0003324297	-0.1308152	0.1420115	
-0.1522648	0.1020864	-0.007406243	-0.0003324297	-0.5845463	-0.337216	0.01357192	-0.0009764426	
-0.00740506	-0.003073335	-0.1308152	0.1420115	0.01357192	-0.0009764426	-0.5456636	-0.3060869	

3.21e+10	-0.5585292	-0.1826634	0.002681214	-0.008895194	-0.1579035	0.1060667	-0.007770135	0.001918597	
0.002681214	-0.008895194	-0.5182807	-0.1828205	-0.006131737	0.004003332	-0.129929	0.1432415	
-0.1579035	0.1060667	-0.006131737	0.004003332	-0.5877192	-0.3277924	0.0106419	-0.008498659	
-0.007770135	0.001918597	-0.129929	0.1432415	0.0106419	-0.008498659	-0.5467957	-0.3047177	

3.212e+10	-0.5560462	-0.173615	-0.002844641	-0.008924193	-0.163437	0.1108633	-0.005094101	0.006144597	
-0.002844641	-0.008924193	-0.5186126	-0.1815139	-0.002618092	0.006735892	-0.1288212	0.1438764	
-0.163437	0.1108633	-0.002618092	0.006735892	-0.5892238	-0.3185921	0.003940206	-0.0130679	
-0.005094101	0.006144597	-0.1288212	0.1438764	0.003940206	-0.0130679	-0.5476183	-0.303175	

3.214e+10	-0.552213	-0.165882	-0.007468951	-0.005785165	-0.1687204	0.1168275	-0.0004243513	0.007930255	
-0.007468951	-0.005785165	-0.5190892	-0.1803597	0.001767621	0.00690494	-0.1281758	0.1440638	
-0.1687204	0.1168275	0.001767621	0.00690494	-0.5891884	-0.3101183	-0.004222699	-0.01301932	
-0.0004243513	0.007930255	-0.1281758	0.1440638	-0.004222699	-0.01301932	-0.5482259	-0.3018883	

3.216e+10	-0.5475625	-0.1593926	-0.009520906	-0.0005089677	-0.1734587	0.1240469	0.004358659	0.006550383	
-0.009520906	-0.0005089677	-0.5198272	-0.1789909	0.005374334	0.004515519	-0.1281073	0.1443922	
-0.1734587	0.1240469	0.005374334	0.004515519	-0.5881644	-0.3027947	-0.0109273	-0.008288263	
0.004358659	0.006550383	-0.1281073	0.1443922	-0.0109273	-0.008288263	-0.5490238	-0.3010801	

3.218e+10	-0.5424183	-0.1543072	-0.008188297	0.005067072	-0.1770755	0.1325658	0.007300706	0.002607564	
-0.008188297	0.005067072	-0.5204885	-0.1774929	0.006872867	0.0005329532	-0.1281281	0.1452817	
-0.1770755	0.1325658	0.006872867	0.0005329532	-0.5867877	-0.2965364	-0.01371423	-0.0005436282	
0.007300706	0.002607564	-0.1281281	0.1452817	-0.01371423	-0.0005436282	-0.5503285	-0.3000488	

3.22e+10	-0.5369573	-0.1504264	-0.003837285	0.008935823	-0.1793443	0.1419937	0.007270636	-0.002216198	
-0.003837285	0.008935823	-0.520854	-0.1757929	0.005775287	-0.003483051	-0.1277426	0.1465373	
-0.1793443	0.1419937	0.005775287	-0.003483051	-0.5853178	-0.290809	-0.01155743	0.007408352	
0.007270636	-0.002216198	-0.1277426	0.1465373	-0.01155743	0.007408352	-0.5516209	-0.2986337	

3.222e+10	-0.5313777	-0.1477637	0.002030865	0.009596461	-0.1800991	0.1521417	0.004426404	-0.005960593	
0.002030865	0.009596461	-0.5209426	-0.174305	0.002628435	-0.006025133	-0.1268602	0.1476449	
-0.1800991	0.1521417	0.002628435	-0.006025133	-0.5835393	-0.2856204	-0.005230572	0.01269032	
0.004426404	-0.005960593	-0.1268602	0.1476449	-0.005230572	0.01269032	-0.55252	-0.2967555	

3.224e+10	-0.5259602	-0.146455	0.007246743	0.00670234	-0.179208	0.1628382	3.596871e-05	-0.007231011	
0.007246743	0.00670234	-0.5211037	-0.1733481	-0.001272054	-0.006263535	-0.1258847	0.1482807	
-0.179208	0.1628382	-0.001272054	-0.006263535	-0.5814879	-0.2808519	0.002988018	0.01339067	
3.596871e-05	-0.007231011	-0.1258847	0.1482807	0.002988018	0.01339067	-0.5528656	-0.2953267	

3.226e+10	-0.5210661	-0.1461707	0.009826801	0.001279889	-0.1763048	0.1738601	-0.004118143	-0.005684812	
0.009826801	0.001279889	-0.5217679	-0.1724572	-0.004482548	-0.004295606	-0.125231	0.1485587	
-0.1763048	0.1738601	-0.004482548	-0.004295606	-0.5792757	-0.2767969	0.01011158	0.009242211	
-0.004118143	-0.005684812	-0.125231	0.1485587	0.01011158	0.009242211	-0.5533304	-0.2945827	

3.228e+10	-0.5168076	-0.1465341	0.008780675	-0.004649717	-0.171068	0.184672	-0.006452771	-0.002100368	
0.008780675	-0.004649717	-0.522781	-0.1710732	-0.005954795	-0.0009794042	-0.1249968	0.1489125	
-0.171068	0.184672	-0.005954795	-0.0009794042	-0.5772543	-0.2729901	0.0135468	0.001778107	
-0.006452771	-0.002100368	-0.1249968	0.1489125	0.0135468	0.001778107	-0.5545151	-0.2939725	

3.23e+10	-0.5129771	-0.1473845	0.00447623	-0.008891872	-0.1635197	0.1945991	-0.006217021	0.001992477	
0.00447623	-0.008891872	-0.5235187	-0.1691928	-0.005328066	0.00246417	-0.1249329	0.1496833	
-0.1635197	0.1945991	-0.005328066	0.00246417	-0.5752587	-0.2691036	0.01209912	-0.006267304	
-0.006217021	0.001992477	-0.1249329	0.1496833	0.01209912	-0.006267304	-0.5561813	-0.2927451	

3.232e+10	-0.5093275	-0.1488413	-0.001514069	-0.009848496	-0.1539222	0.2030793	-0.003747611	0.005009536	
-0.001514069	-0.009848496	-0.5235815	-0.1672976	-0.002974457	0.004882518	-0.1246721	0.1508099	
-0.1539222	0.2030793	-0.002974457	0.004882518	-0.572668	-0.2650951	0.006350791	-0.01203516	
-0.003747611	0.005009536	-0.1246721	0.1508099	0.006350791	-0.01203516	-0.5574368	-0.2908018	

3.234e+10	-0.5060159	-0.1509461	-0.006945572	-0.007124852	-0.1425472	0.2096731	-0.0001934192	0.005981774	
-0.006945572	-0.007124852	-0.5233691	-0.1658214	0.0002005674	0.005581498	-0.1239144	0.1519882	
-0.1425472	0.2096731	0.0002005674	0.005581498	-0.569136	-0.2611718	-0.001656413	-0.01351185	
-0.0001934192	0.005981774	-0.1239144	0.1519882	-0.001656413	-0.01351185	-0.557868	-0.2888008	

3.236e+10	-0.503259	-0.1540538	-0.009746825	-0.001746707	-0.1296747	0.2139498	0.003087706	0.00482607	
-0.009746825	-0.001746707	-0.5234855	-0.1651548	0.003154104	0.004497674	-0.1228661	0.15276	
-0.1296747	0.2139498	0.003154104	0.004497674	-0.5645708	-0.2581232	-0.009098579	-0.01015122	
0.003087706	0.00482607	-0.1228661	0.15276	-0.009098579	-0.01015122	-0.5578588	-0.2876859	

3.238e+10	-0.5013775	-0.1579875	-0.008878252	0.004200523	-0.1158347	0.2153084	0.005049353	0.002182644	
-0.008878252	0.004200523	-0.5243551	-0.1643229	0.005057875	0.002067171	-0.1220381	0.1530387	
-0.1158347	0.2153084	0.005057875	0.002067171	-0.5592565	-0.2566382	-0.01329141	-0.003112578	
0.005049353	0.002182644	-0.1220381	0.1530387	-0.01329141	-0.003112578	-0.5583942	-0.2873453	

3.24e+10	-0.5005697	-0.1627416	-0.00475522	0.008477169	-0.1017885	0.2133083	0.005218647	-0.0009426505	
-0.00475522	0.008477169	-0.52548	-0.1628643	0.005409348	-0.001010378	-0.1216862	0.1532548	
-0.1017885	0.2133083	0.005409348	-0.001010378	-0.5538565	-0.2565044	-0.01268962	0.005075484	
0.005218647	-0.0009426505	-0.1216862	0.1532548	-0.01268962	0.005075484	-0.5599061	-0.2867651	

3.242e+10	-0.5012226	-0.1681933	0.000996056	0.009552209	-0.08869269	0.2078366	0.003731071	-0.003536078	
0.000996056	0.009552209	-0.5261583	-0.1607623	0.004042414	-0.003871663	-0.1216895	0.1538647	
-0.08869269	0.2078366	0.004042414	-0.003871663	-0.5486958	-0.2579627	-0.007495949	0.01145065	
0.003731071	-0.003536078	-0.1216895	0.1538647	-0.007495949	0.01145065	-0.5617062	-0.2852164	

3.244e+10	-0.5038854	-0.1739937	0.00622906	0.007136984	-0.07774149	0.1992938	0.001189628	-0.004879682	
0.00622906	0.007136984	-0.5260949	-0.1588374	0.001245889	-0.00558615	-0.1215708	0.1549892	
-0.07774149	0.1992938	0.001245889	-0.00558615	-0.5442085	-0.2613252	0.0004435563	0.01370282	
0.001189628	-0.004879682	-0.1215708	0.1549892	0.0004435563	0.01370282	-0.5628108	-0.2829413	

3.246e+10	-0.5089381	-0.1794251	0.009051529	0.002236339	-0.06970292	0.1886338	-0.001609167	-0.004697317	
0.009051529	0.002236339	-0.5257751	-0.15754	-0.002153119	-0.005454839	-0.1208467	0.1563009	
-0.06970292	0.1886338	-0.002153119	-0.005454839	-0.5413625	-0.266266	0.008264176	0.01096056	
-0.001609167	-0.004697317	-0.1208467	0.1563009	0.008264176	0.01096056	-0.5629546	-0.2810469	

3.248e+10	-0.5163266	-0.1832466	0.008559783	-0.003260963	-0.06493086	0.1769533	-0.003899815	-0.003090956	
0.008559783	-0.003260963	-0.5259083	-0.1567801	-0.004986425	-0.003360854	-0.1197038	0.1571905	
-0.06493086	0.1769533	-0.004986425	-0.003360854	-0.5409514	-0.2721885	0.01306343	0.004183648	
-0.003899815	-0.003090956	-0.1197038	0.1571905	0.01306343	0.004183648	-0.5629435	-0.2800602	

3.25e+10	-0.5252776	-0.1845674	0.005128346	-0.007397166	-0.06340587	0.1652641	-0.005020151	-0.0004612871	
0.005128346	-0.007397166	-0.5266701	-0.1560068	-0.006163473	9.467159e-05	-0.1186934	0.1574542	
-0.06340587	0.1652641	-0.006163473	9.467159e-05	-0.5432207	-0.2778605	0.01304597	-0.004093111	
-0.005020151	-0.0004612871	-0.1186934	0.1574542	0.01304597	-0.004093111	-0.5635998	-0.2797733	

3.252e+10	-0.5347239	-0.1831812	0.0001059298	-0.008872868	-0.06464685	0.1543919	-0.004513757	0.00244873	
0.0001059298	-0.008872868	-0.527743	-0.1545228	-0.005097204	0.003716945	-0.1182528	0.1574979	
-0.06464685	0.1543919	-0.005097204	0.003716945	-0.547586	-0.2819044	0.00828633	-0.01079544	
-0.004513757	0.00244873	-0.1182528	0.1574979	0.00828633	-0.01079544	-0.5651349	-0.2790617	

3.254e+10	-0.5437273	-0.179084	-0.004811992	-0.007364712	-0.06815901	0.1449109	-0.002395413	0.004650982	
-0.004811992	-0.007364712	-0.5284285	-0.1525231	-0.002023983	0.006102092	-0.118312	0.1579784	
-0.06815901	0.1449109	-0.002023983	0.006102092	-0.5529871	-0.2839528	0.0006066359	-0.01353641	
-0.002395413	0.004650982	-0.118312	0.1579784	0.0006066359	-0.01353641	-0.5667792	-0.277417	

3.256e+10	-0.5516494	-0.172665	-0.008076043	-0.003438063	-0.07329965	0.1371628	0.0006800407	0.005278575	
-0.008076043	-0.003438063	-0.5284506	-0.1506328	0.001945573	0.006220124	-0.1183306	0.1591001	
-0.07329965	0.1371628	0.001945573	0.006220124	-0.5585694	-0.284237	-0.007218566	-0.01141864	
0.0006800407	0.005278575	-0.1183306	0.1591001	-0.007218566	-0.01141864	-0.5677382	-0.2753116	

3.258e+10	-0.5579852	-0.1644356	-0.008645411	0.001650764	-0.0794269	0.1312011	0.003632094	0.004007328	
-0.008645411	0.001650764	-0.5281915	-0.1491645	0.005257554	0.003945761	-0.1176943	0.1605147	
-0.0794269	0.1312011	0.005257554	0.003945761	-0.5640408	-0.2829433	-0.0124286	-0.005237271	
0.003632094	0.004007328	-0.1176943	0.1605147	-0.0124286	-0.005237271	-0.5680093	-0.2734865	

3.26e+10	-0.5623453	-0.1547901	-0.006286278	0.006238188	-0.08607884	0.1268516	0.005359631	0.001209909	
-0.006286278	0.006238188	-0.5281845	-0.148267	0.006609902	0.0001407545	-0.1164427	0.1615112	
-0.08607884	0.1268516	0.006609902	0.0001407545	-0.5690022	-0.280354	-0.01318054	0.00280161	
0.005359631	0.001209909	-0.1164427	0.1615112	-0.01318054	0.00280161	-0.5681406	-0.2724512	

3.262e+10	-0.5644053	-0.1441799	-0.001734595	0.008768374	-0.09306274	0.1239029	0.005145586	-0.00215234	
-0.001734595	0.008768374	-0.5287314	-0.1474255	0.005482211	-0.003756419	-0.1152429	0.1617437	
-0.09306274	0.1239029	0.005482211	-0.003756419	-0.5731567	-0.2762114	-0.009218444	0.009826951	
0.005145586	-0.00215234	-0.1152429	0.1617437	-0.009218444	0.009826951	-0.5688002	-0.2717914	

3.264e+10	-0.56393	-0.1335153	0.003529274	0.008334665	-0.100329	0.1223165	0.002950748	-0.004809341	
0.003529274	0.008334665	-0.5296265	-0.1461818	0.002268701	-0.006279542	-0.1147579	0.1616592	
-0.100329	0.1223165	0.002268701	-0.006279542	-0.5758278	-0.2712095	-0.001956394	0.01334536	
0.002950748	-0.004809341	-0.1147579	0.1616592	-0.001956394	0.01334536	-0.5700455	-0.2709214	

3.266e+10	-0.5611783	-0.1232804	0.007734761	0.004982421	-0.1077968	0.1221855	-0.0004456066	-0.00565818	
0.007734761	0.004982421	-0.5304037	-0.1444058	-0.00184575	-0.006436897	-0.1149046	0.1620456	
-0.1077968	0.1221855	-0.00184575	-0.006436897	-0.5768697	-0.2660627	0.006034097	0.01209988	
-0.0004456066	-0.00565818	-0.1149046	0.1620456	0.006034097	0.01209988	-0.5714529	-0.2695147	

3.268e+10	-0.5563896	-0.114008	0.009376703	-0.0002838961	-0.1150601	0.1236462	-0.003694266	-0.00430105	
0.009376703	-0.0002838961	-0.5306631	-0.1424886	-0.005270285	-0.00411908	-0.1149478	0.1631906	
-0.1150601	0.1236462	-0.005270285	-0.00411908	-0.576636	-0.261331	0.01191511	0.006496327	
-0.003694266	-0.00430105	-0.1149478	0.1631906	0.01191511	0.006496327	-0.5724779	-0.2678028	

3.27e+10	-0.5498391	-0.1059819	0.007696804	-0.005702823	-0.1218402	0.1265223	-0.005481668	-0.001284704	
0.007696804	-0.005702823	-0.5305132	-0.1407621	-0.006645749	-0.0002320747	-0.1143019	0.1646428	
-0.1218402	0.1265223	-0.006645749	-0.0002320747	-0.5755762	-0.2571061	0.01354898	-0.001511261	
-0.005481668	-0.001284704	-0.1143019	0.1646428	0.01354898	-0.001511261	-0.5730795	-0.2660146	

3.272e+10	-0.5417043	-0.09951908	0.003088627	-0.00928043	-0.1278459	0.1306431	-0.005126139	0.002163258	
0.003088627	-0.00928043	-0.5303087	-0.1396186	-0.005462643	0.003670744	-0.1129926	0.165641	
-0.1278459	0.1306431	-0.005462643	0.003670744	-0.5737301	-0.253404	0.01027762	-0.009064771	
-0.005126139	0.002163258	-0.1129926	0.165641	0.01027762	-0.009064771	-0.5733819	-0.2645754	

3.274e+10	-0.5322084	-0.09528	-0.002901624	-0.009544379	-0.1329866	0.1358963	-0.002826634	0.004687614	
-0.002901624	-0.009544379	-0.5304983	-0.1387778	-0.002257967	0.006087745	-0.1118031	0.1658797	
-0.1329866	0.1358963	-0.002257967	0.006087745	-0.5709777	-0.2505228	0.003204718	-0.01340011	
-0.002826634	0.004687614	-0.1118031	0.1658797	0.003204718	-0.01340011	-0.5737332	-0.2636452	

3.276e+10	-0.5220926	-0.09356305	-0.008046996	-0.006199259	-0.1371137	0.1421342	0.0004583741	0.005336852	
-0.008046996	-0.006199259	-0.5312283	-0.1378797	0.001683015	0.006166866	-0.1113005	0.1658201	
-0.1371137	0.1421342	0.001683015	0.006166866	-0.5676007	-0.2486868	-0.005137842	-0.01285854	
0.0004583741	0.005336852	-0.1113005	0.1658201	-0.005137842	-0.01285854	-0.5745562	-0.2628098	

3.278e+10	-0.512224	-0.09456526	-0.01032114	-0.0003477977	-0.1398213	0.1492596	0.003398994	0.003941804	
-0.01032114	-0.0003477977	-0.5321723	-0.1363417	0.004863594	0.003970044	-0.111345	0.1661996	
-0.1398213	0.1492596	0.004863594	0.003970044	-0.5641913	-0.2483676	-0.0116706	-0.007555829	
0.003398994	0.003941804	-0.111345	0.1661996	-0.0116706	-0.007555829	-0.5758065	-0.2618035	

3.28e+10	-0.5033195	-0.0978354	-0.008696679	0.005846129	-0.140936	0.1568003	0.004877591	0.001187225	
-0.008696679	0.005846129	-0.5327307	-0.134307	0.006131128	0.0004141513	-0.1113168	0.1672285	
-0.140936	0.1568003	0.006131128	0.0004141513	-0.5614179	-0.2493726	-0.01393466	0.0005864718	
0.004877591	0.001187225	-0.1113168	0.1672285	-0.01393466	0.0005864718	-0.5771277	-0.2603406	

3.282e+10	-0.4956598	-0.1030071	-0.003641721	0.009962245	-0.1404226	0.1642975	0.004485615	-0.001752206	
-0.003641721	0.009962245	-0.5326042	-0.1322996	0.005127335	-0.003106326	-0.110705	0.1685322	
-0.1404226	0.1642975	0.005127335	-0.003106326	-0.5595586	-0.2508889	-0.01105929	0.008559929	
0.004485615	-0.001752206	-0.110705	0.1685322	-0.01105929	0.008559929	-0.5780786	-0.2583449	

3.284e+10	-0.4894726	-0.1097689	0.002968489	0.01027582	-0.1384127	0.1714142	0.002595313	-0.003809441	
0.002968489	0.01027582	-0.5321456	-0.1309045	0.002383681	-0.005328537	-0.1095752	0.1695071	
-0.1384127	0.1714142	0.002383681	-0.005328537	-0.55828	-0.2527772	-0.00406862	0.01341666	
0.002595313	-0.003809441	-0.1095752	0.1695071	-0.00406862	0.01341666	-0.5783142	-0.2566359	

3.286e+10	-0.4852341	-0.1180182	0.008500338	0.006551342	-0.1350251	0.177889	3.951216e-05	-0.004421523	
0.008500338	0.006551342	-0.5320915	-0.130202	-0.001000495	-0.005605412	-0.1084572	0.1699163	
-0.1350251	0.177889	-0.001000495	-0.005605412	-0.5574589	-0.2548716	0.004478098	0.01331408	
3.951216e-05	-0.004421523	-0.1084572	0.1699163	0.004478098	0.01331408	-0.5783496	-0.2554444	

3.288e+10	-0.4834707	-0.1271068	0.01070998	0.0002545641	-0.1304255	0.1833908	-0.00230204	-0.003587173	
0.01070998	0.0002545641	-0.5328103	-0.1294912	-0.003874716	-0.004016593	-0.1077433	0.1700385	
-0.1304255	0.1833908	-0.003874716	-0.004016593	-0.5572483	-0.2574849	0.01138476	0.008240281	
-0.00230204	-0.003587173	-0.1077433	0.1700385	0.01138476	0.008240281	-0.5788809	-0.2548343	

3.29e+10	-0.4842249	-0.1362919	0.008750699	-0.006073744	-0.1249033	0.1875681	-0.003762193	-0.001718497	
0.008750699	-0.006073744	-0.5338855	-0.1279775	-0.005379034	-0.001181673	-0.1075614	0.1703428	
-0.1249033	0.1875681	-0.005379034	-0.001181673	-0.5579319	-0.2604051	0.01403769	9.333316e-05	
-0.003762193	-0.001718497	-0.1075614	0.1703428	0.01403769	9.333316e-05	-0.5801583	-0.2541888	

3.292e+10	-0.4871556	-0.1447646	0.003477398	-0.009978436	-0.1188277	0.1902379	-0.004007581	0.0005503956	
0.003477398	-0.009978436	-0.5344728	-0.1258516	-0.00509748	0.001977182	-0.1074288	0.1711235	
-0.1188277	0.1902379	-0.00509748	0.001977182	-0.5595374	-0.2630598	0.01146172	-0.008056624	
-0.004007581	0.0005503956	-0.1074288	0.1711235	0.01146172	-0.008056624	-0.5817685	-0.252598	

3.294e+10	-0.4918367	-0.152343	-0.003011324	-0.01001821	-0.112786	0.1913199	-0.003070424	0.002561815	
-0.003011324	-0.01001821	-0.5342659	-0.1238362	-0.003146312	0.004458529	-0.1069906	0.1722224	
-0.112786	0.1913199	-0.003146312	0.004458529	-0.561607	-0.2654704	0.004647423	-0.01318385	
-0.003070424	0.002561815	-0.1069906	0.1722224	0.004647423	-0.01318385	-0.5826926	-0.2505855	

3.296e+10	-0.4981562	-0.1589819	-0.008202825	-0.006273802	-0.1071365	0.1909932	-0.001260057	0.003807831	
-0.008202825	-0.006273802	-0.5337444	-0.1225379	-0.000155012	0.005474206	-0.1060851	0.1732509	
-0.1071365	0.1909932	-0.000155012	0.005474206	-0.564008	-0.2676901	-0.003866598	-0.01339614	
-0.001260057	0.003807831	-0.1060851	0.1732509	-0.003866598	-0.01339614	-0.5828975	-0.2485066	

3.298e+10	-0.5061431	-0.1642605	-0.01015674	-0.000294348	-0.1022981	0.1895126	0.000975271	0.003967902	
-0.01015674	-0.000294348	-0.5337297	-0.1217503	0.002936815	0.004685135	-0.1050145	0.1738786	
-0.1022981	0.1895126	0.002936815	0.004685135	-0.5668978	-0.2702749	-0.01089512	-0.008607534	
0.000975271	0.003967902	-0.1050145	0.1738786	-0.01089512	-0.008607534	-0.5827653	-0.2474892	

3.3e+10	-0.5154046	-0.167664	-0.008280875	0.005551939	-0.09842143	0.187227	0.003057367	0.002895255	
-0.008280875	0.005551939	-0.5343901	-0.1209201	0.005132001	0.002280301	-0.104147	0.1741549	
-0.09842143	0.187227	0.005132001	0.002280301	-0.5708959	-0.2726704	-0.01377535	-0.0006568579	
0.003057367	0.002895255	-0.104147	0.1741549	-0.01377535	-0.0006568579	-0.5833527	-0.2468979	

3.302e+10	-0.5252204	-0.1689332	-0.003498089	0.009127115	-0.09563409	0.1844181	0.00429283	0.0007537439	
-0.003498089	0.009127115	-0.5352651	-0.1193517	0.005628983	-0.001029761	-0.1036703	0.1743926	
-0.09563409	0.1844181	0.005628983	-0.001029761	-0.5759723	-0.274478	-0.01149106	0.007396969	
0.00429283	0.0007537439	-0.1036703	0.1743926	-0.01149106	0.007396969	-0.5846551	-0.2461267	

3.304e+10	-0.5350487	-0.168187	0.002316467	0.009309528	-0.09387838	0.1814196	0.004113743	-0.001843442	
0.002316467	0.009309528	-0.5356892	-0.1173869	0.004116715	-0.004130966	-0.1034423	0.1749114	
-0.09387838	0.1814196	0.004116715	-0.004130966	-0.5817534	-0.2752421	-0.005038461	0.01255255	
0.004113743	-0.001843442	-0.1034423	0.1749114	-0.005038461	0.01255255	-0.5860438	-0.2445467	

3.306e+10	-0.5445696	-0.1658683	0.007087952	0.006226918	-0.09329392	0.1784548	0.002419872	-0.003971553	
0.007087952	0.006226918	-0.5355659	-0.1156956	0.001016175	-0.005842285	-0.1031654	0.1757709	
-0.09329392	0.1784548	0.001016175	-0.005842285	-0.5877649	-0.2750791	0.0030974	0.01302169	
0.002419872	-0.003971553	-0.1031654	0.1757709	0.0030974	0.01302169	-0.5868053	-0.2425829	

3.308e+10	-0.5537405	-0.161925	0.009235293	0.001084914	-0.0936365	0.1759564	-0.0002897785	-0.00477752	
0.009235293	0.001084914	-0.5353381	-0.1143757	-0.002574543	-0.00542931	-0.1025138	0.1768456	
-0.0936365	0.1759564	-0.002574543	-0.00542931	-0.5940025	-0.2740904	0.009929532	0.008768546	
-0.0002897785	-0.00477752	-0.1025138	0.1768456	0.009929532	0.008768546	-0.5870641	-0.2407725	

3.31e+10	-0.5622834	-0.1562521	0.008126471	-0.004278804	-0.09465928	0.1741232	-0.003063561	-0.003843157	
0.008126471	-0.004278804	-0.5354001	-0.1133146	-0.005291987	-0.002972154	-0.1015085	0.1777471	
-0.09465928	0.1741232	-0.005291987	-0.002972154	-0.6005725	-0.272179	0.01302542	0.001451114	
-0.003063561	-0.003843157	-0.1015085	0.1777471	0.01302542	0.001451114	-0.5872564	-0.2397745	

3.312e+10	-0.5697118	-0.1491423	0.00425671	-0.008036812	-0.09609588	0.1729342	-0.004836325	-0.001395019	
0.00425671	-0.008036812	-0.5357831	-0.1121261	-0.006086362	0.0006407765	-0.1004193	0.1782155	
-0.09609588	0.1729342	-0.006086362	0.0006407765	-0.607267	-0.2689769	0.01138275	-0.006210972	
-0.004836325	-0.001395019	-0.1004193	0.1782155	0.01138275	-0.006210972	-0.5879519	-0.2388621	

3.314e+10	-0.5757436	-0.1408836	-0.0009967233	-0.00897935	-0.09774441	0.1723413	-0.004839505	0.001714709	
-0.0009967233	-0.00897935	-0.5362217	-0.1107534	-0.004621062	0.004076882	-0.09963372	0.1783466	
-0.09774441	0.1723413	-0.004621062	0.004076882	-0.6134848	-0.2645892	0.005734995	-0.01148806	
-0.004839505	0.001714709	-0.09963372	0.1783466	0.005734995	-0.01148806	-0.588956	-0.2377146	

3.316e+10	-0.5803371	-0.1319559	-0.005852749	-0.006847846	-0.09965033	0.1723215	-0.002967897	0.004282992	
-0.005852749	-0.006847846	-0.5365578	-0.1091639	-0.001400448	0.006032372	-0.09938263	0.1785554	
-0.09965033	0.1723215	-0.001400448	0.006032372	-0.6189308	-0.2589044	-0.001822682	-0.0126049	
-0.002967897	0.004282992	-0.09938263	0.1785554	-0.001822682	-0.0126049	-0.5899146	-0.2361879	

3.318e+10	-0.5836061	-0.1227723	-0.008697897	-0.002379475	-0.1016717	0.1730183	0.0001009613	0.005258131	
-0.008697897	-0.002379475	-0.536742	-0.1075439	0.002374347	0.005730484	-0.09926302	0.1792966	
-0.1016717	0.1730183	0.002374347	0.005730484	-0.6233619	-0.2527409	-0.008623036	-0.00926651	
0.0001009613	0.005258131	-0.09926302	0.1792966	-0.008623036	-0.00926651	-0.5905867	-0.2346649	

3.32e+10	-0.5857086	-0.1132138	-0.008567888	0.002943471	-0.1035536	0.1744735	0.00316878	0.00422779	
-0.008567888	0.002943471	-0.5368353	-0.1061015	0.005251909	0.003275643	-0.09883268	0.1804468	
-0.1035536	0.1744735	0.005251909	0.003275643	-0.6270712	-0.2462517	-0.01230749	-0.002699221	
0.00316878	0.00422779	-0.09883268	0.1804468	-0.01230749	-0.002699221	-0.5911362	-0.2333316	

3.322e+10	-0.5864924	-0.1034144	-0.005455242	0.007318768	-0.105117	0.1765456	0.005048763	0.001591288	
-0.005455242	0.007318768	-0.5368771	-0.1047474	0.006148716	-0.0003726894	-0.09778393	0.1815286	
-0.105117	0.1765456	0.006148716	-0.0003726894	-0.630161	-0.2392499	-0.01162258	0.004769136	
0.005048763	0.001591288	-0.09778393	0.1815286	-0.01162258	0.004769136	-0.5917884	-0.2319193	

3.324e+10	-0.5857962	-0.09361963	-0.0003546819	0.009211674	-0.1062791	0.1790656	0.005033357	-0.001647099	
-0.0003546819	0.009211674	-0.5369138	-0.1032961	0.004774741	-0.003834739	-0.09657113	0.1820069	
-0.1062791	0.1790656	0.004774741	-0.003834739	-0.6323991	-0.2316756	-0.006837259	0.01052041	
0.005033357	-0.001647099	-0.09657113	0.1820069	-0.006837259	0.01052041	-0.5924372	-0.2305053	

3.326e+10	-0.5837055	-0.08400926	0.004998592	0.007871965	-0.1070549	0.1820336	0.003127574	-0.004264068	
0.004998592	0.007871965	-0.5369994	-0.1020496	0.001679182	-0.005849452	-0.09567227	0.1820744	
-0.1070549	0.1820336	0.001679182	-0.005849452	-0.6334903	-0.2237087	0.0003688964	0.01254758	
0.003127574	-0.004264068	-0.09567227	0.1820744	0.0003688964	0.01254758	-0.5929187	-0.229264	

3.328e+10	-0.580382	-0.07517246	0.00870308	0.003670419	-0.1074564	0.1854467	5.730219e-05	-0.005261288	
0.00870308	0.003670419	-0.5372689	-0.1008383	-0.001984287	-0.005707717	-0.0954226	0.1822166	
-0.1074564	0.1854467	-0.001984287	-0.005707717	-0.6334411	-0.2157643	0.007470318	0.01011807	
5.730219e-05	-0.005261288	-0.0954226	0.1822166	0.007470318	0.01011807	-0.5935027	-0.2279432	

3.33e+10	-0.5761048	-0.0667595	0.009372377	-0.001989938	-0.1071267	0.1893459	-0.002982141	-0.004273209	
0.009372377	-0.001989938	-0.537708	-0.09946416	-0.004862146	-0.003495093	-0.09529951	0.1829127	
-0.1071267	0.1893459	-0.004862146	-0.003495093	-0.6325043	-0.2082015	0.01194226	0.004055245	
-0.002982141	-0.004273209	-0.09529951	0.1829127	0.01194226	0.004055245	-0.5942288	-0.2269139	

3.332e+10	-0.5708404	-0.05888992	0.006641366	-0.007117758	-0.1058987	0.1935082	-0.004837299	-0.001739628	
0.006641366	-0.007117758	-0.5380769	-0.09778514	-0.005920732	-7.440604e-05	-0.09482118	0.1840278	
-0.1058987	0.1935082	-0.005920732	-7.440604e-05	-0.6308785	-0.2008538	0.01216469	-0.003506557	
-0.004837299	-0.001739628	-0.09482118	0.1840278	0.01216469	-0.003506557	-0.5952022	-0.2256208	

3.334e+10	-0.5643625	-0.05185763	0.001352559	-0.009811511	-0.1038012	0.1976283	-0.004885357	0.001328238	
0.001352559	-0.009811511	-0.5380792	-0.0961372	-0.00484659	0.003273992	-0.0938621	0.1850123	
-0.1038012	0.1976283	-0.00484659	0.003273992	-0.6285205	-0.193118	0.008016099	-0.009881414	
-0.004885357	0.001328238	-0.0938621	0.1850123	0.008016099	-0.009881414	-0.5961234	-0.2238306	

3.336e+10	-0.5566678	-0.0455708	-0.004664883	-0.00893449	-0.1008015	0.2015594	-0.003212867	0.003816754	
-0.004664883	-0.00893449	-0.5378169	-0.09463807	-0.002113756	0.005379846	-0.09267992	0.1855626	
-0.1008015	0.2015594	-0.002113756	0.005379846	-0.6248485	-0.1855632	0.0009181123	-0.01277706	
-0.003212867	0.003816754	-0.09267992	0.1855626	0.0009181123	-0.01277706	-0.5965775	-0.2221023	

3.338e+10	-0.5479619	-0.04081677	-0.009147939	-0.004616949	-0.09685154	0.205169	-0.0004812851	0.004899719	
-0.009147939	-0.004616949	-0.5376429	-0.09354365	0.001272332	0.005580802	-0.0918279	0.185718	
-0.09685154	0.205169	0.001272332	0.005580802	-0.6197577	-0.1785324	-0.006641025	-0.0110744	
-0.0004812851	0.004899719	-0.0918279	0.185718	-0.006641025	-0.0110744	-0.5967131	-0.2207309	

3.34e+10	-0.5386447	-0.03766571	-0.01027012	0.00163214	-0.0918994	0.2082654	0.002334659	0.004267523	
-0.01027012	0.00163214	-0.5379102	-0.09252654	0.004154371	0.003881069	-0.09138707	0.1859688	
-0.0918994	0.2082654	0.004154371	0.003881069	-0.6134573	-0.1723195	-0.0119091	-0.005267441	
0.002334659	0.004267523	-0.09138707	0.1859688	-0.0119091	-0.005267441	-0.5970591	-0.2197933	

3.342e+10	-0.5288987	-0.03596396	-0.007454569	0.007444167	-0.08595289	0.2104111	0.004277448	0.00220492	
-0.007454569	0.007444167	-0.5384957	-0.09117641	0.005595381	0.0008974769	-0.09110792	0.186551	
-0.08595289	0.2104111	0.005595381	0.0008974769	-0.6061649	-0.1671933	-0.01287156	0.002602376	
0.004277448	0.00220492	-0.09110792	0.186551	-0.01287156	0.002602376	-0.5979301	-0.2189297	

3.344e+10	-0.5185889	-0.03589947	-0.001656042	0.01052957	-0.07913675	0.2112112	0.004744344	-0.0005375471	
-0.001656042	0.01052957	-0.5389233	-0.08941147	0.005155487	-0.002370605	-0.09060206	0.1874194	
-0.07913675	0.2112112	0.005155487	-0.002370605	-0.5978594	-0.1629952	-0.009063456	0.009658354	
0.004744344	-0.0005375471	-0.09060206	0.1874194	-0.009063456	0.009658354	-0.5991027	-0.217582	

3.346e+10	-0.5079926	-0.03837449	0.004945249	0.009560764	-0.07186114	0.2102484	0.003658	-0.003057153	
0.004945249	0.009560764	-0.5388758	-0.08766496	0.002994778	-0.004869846	-0.08980031	0.1882703	
-0.07186114	0.2102484	0.002994778	-0.004869846	-0.5882694	-0.1603807	-0.001782172	0.01324564	
0.003658	-0.003057153	-0.08980031	0.1882703	-0.001782172	0.01324564	-0.5999715	-0.2157665	

3.348e+10	-0.4980253	-0.04348398	0.009721836	0.0047791	-0.06471968	0.2072812	0.001391788	-0.004599957	
0.009721836	0.0047791	-0.5385604	-0.086167	-0.0002197699	-0.005799938	-0.08885272	0.1889072	
-0.06471968	0.2072812	-0.0002197699	-0.005799938	-0.5776357	-0.1598669	0.006339135	0.01190213	
0.001391788	-0.004599957	-0.08885272	0.1889072	0.006339135	0.01190213	-0.6003076	-0.213878	

3.35e+10	-0.4897384	-0.05112793	0.01066583	-0.001968709	-0.05833666	0.2022446	-0.001395768	-0.004693977	
0.01066583	-0.001968709	-0.5383841	-0.08498272	-0.003502834	-0.004794789	-0.08796574	0.1893329	
-0.05833666	0.2022446	-0.003502834	-0.004794789	-0.5667022	-0.1624992	0.01220374	0.005963769	
-0.001395768	-0.004693977	-0.08796574	0.1893329	0.01220374	0.005963769	-0.6003589	-0.2125983	

3.352e+10	-0.4838678	-0.06069777	0.007344516	-0.007911391	-0.05347366	0.1953328	-0.003876501	-0.003212623	
0.007344516	-0.007911391	-0.538551	-0.08385341	-0.005763297	-0.002035232	-0.08732104	0.1896751	
-0.05347366	0.1953328	-0.005763297	-0.002035232	-0.5567579	-0.1680951	0.01343005	-0.002378233	
-0.003876501	-0.003212623	-0.08732104	0.1896751	0.01343005	-0.002378233	-0.6007676	-0.2116815	

3.354e+10	-0.4806773	-0.07132318	0.001172031	-0.01061952	-0.0508044	0.1869912	-0.005180404	-0.0004833074	
0.001172031	-0.01061952	-0.538898	-0.08265552	-0.00608139	0.00168309	-0.08676215	0.1901183	
-0.0508044	0.1869912	-0.00608139	0.00168309	-0.548617	-0.1761416	0.009438432	-0.009848497	
-0.005180404	-0.0004833074	-0.08676215	0.1901183	0.009438432	-0.009848497	-0.6016259	-0.2106864	

3.356e+10	-0.480413	-0.08229111	-0.00528325	-0.009099437	-0.05089349	0.1779555	-0.00468197	0.002656487	
-0.00528325	-0.009099437	-0.5392158	-0.0811637	-0.004100281	0.005056203	-0.0862257	0.1907025	
-0.05089349	0.1779555	-0.004100281	0.005056203	-0.5427976	-0.1858411	0.001793838	-0.01347109	
-0.00468197	0.002656487	-0.0862257	0.1907025	0.001793838	-0.01347109	-0.6026465	-0.2091563	

3.358e+10	-0.4832774	-0.09297708	-0.009455809	-0.004139005	-0.05406839	0.1693166	-0.002350595	0.00503857	
-0.009455809	-0.004139005	-0.5393889	-0.07945765	-0.0003580884	0.00668101	-0.08568962	0.1913823	
-0.05406839	0.1693166	-0.0003580884	0.00668101	-0.5395472	-0.197126	-0.006455486	-0.01184512	
-0.002350595	0.00503857	-0.08568962	0.1913823	-0.006455486	-0.01184512	-0.6033417	-0.2075117	

3.36e+10	-0.4890519	-0.1021683	-0.009870716	0.002153969	-0.05994183	0.162305	0.001075993	0.005616053	
-0.009870716	0.002153969	-0.539365	-0.07781978	0.003748437	0.005713184	-0.08495663	0.1921681	
-0.05994183	0.162305	0.003748437	0.005713184	-0.5395062	-0.209044	-0.01206507	-0.005700558	
0.001075993	0.005616053	-0.08495663	0.1921681	-0.01206507	-0.005700558	-0.6037618	-0.2060077	

3.362e+10	-0.4967829	-0.1089521	-0.006610619	0.007339259	-0.0675729	0.1577354	0.004277781	0.003987002	
-0.006610619	0.007339259	-0.539151	-0.07634857	0.006502328	0.002391876	-0.0840235	0.1928725	
-0.0675729	0.1577354	0.006502328	0.002391876	-0.5428068	-0.220411	-0.01292725	0.00244263	
0.004277781	0.003987002	-0.0840235	0.1928725	-0.01292725	0.00244263	-0.6041613	-0.2046149	

3.364e+10	-0.5053095	-0.1132279	-0.001098752	0.009594491	-0.07596972	0.155761	0.005902951	0.0006827129	
-0.001098752	0.009594491	-0.5389168	-0.07506851	0.006691597	-0.001971221	-0.08308785	0.1932992	
-0.07596972	0.155761	0.006691597	-0.001971221	-0.548811	-0.2301356	-0.008899377	0.009391109	
0.005902951	0.0006827129	-0.08308785	0.1932992	-0.008899377	0.009391109	-0.604624	-0.2032435	

3.366e+10	-0.5139051	-0.1153424	0.004539711	0.00828234	-0.08432025	0.1562728	0.005196782	-0.0029913	
0.004539711	0.00828234	-0.5388885	-0.07410601	0.004197718	-0.005575822	-0.08230588	0.1935248	
-0.08432025	0.1562728	0.004197718	-0.005575822	-0.5564917	-0.2378231	-0.001720227	0.01258901	
0.005196782	-0.0029913	-0.08230588	0.1935248	-0.001720227	0.01258901	-0.6050863	-0.2019894	

3.368e+10	-0.5223274	-0.1158929	0.008295331	0.004087925	-0.09214491	0.1590223	0.00239914	-0.005506339	
0.008295331	0.004087925	-0.5392732	-0.0729126	5.258251e-05	-0.006941701	-0.08184563	0.1938501	
-0.09214491	0.1590223	5.258251e-05	-0.006941701	-0.5650902	-0.2436001	0.005798733	0.01103747	
0.00239914	-0.005506339	-0.08184563	0.1938501	0.005798733	0.01103747	-0.6055964	-0.2008683	

3.37e+10	-0.5304514	-0.1150753	0.008975426	-0.001354794	-0.09884416	0.1637266	-0.001328369	-0.005823313	
0.008975426	-0.001354794	-0.5397795	-0.07154259	-0.004031913	-0.005557608	-0.08151566	0.194488	
-0.09884416	0.1637266	-0.004031913	-0.005557608	-0.5744045	-0.2477343	0.01090313	0.005542484	
-0.001328369	-0.005823313	-0.08151566	0.194488	0.01090313	0.005542484	-0.6063735	-0.1996	

3.372e+10	-0.5381419	-0.1127178	0.006506661	-0.006132425	-0.1038777	0.1699122	-0.004457843	-0.003875144	
0.006506661	-0.006132425	-0.5400083	-0.06955988	-0.006432895	-0.00207281	-0.08086169	0.1954103	
-0.1038777	0.1699122	-0.006432895	-0.00207281	-0.5843197	-0.250319	0.0118756	-0.0017164	
-0.004457843	-0.003875144	-0.08086169	0.1954103	0.0118756	-0.0017164	-0.6072838	-0.1981391	

3.374e+10	-0.5450372	-0.109206	0.001834725	-0.008645054	-0.1071176	0.1768722	-0.0057998	-0.0005237409	
0.001834725	-0.008645054	-0.5396724	-0.06760239	-0.006305046	0.002054718	-0.07987437	0.1962155	
-0.1071176	0.1768722	-0.006305046	0.002054718	-0.5945838	-0.2509175	0.008583663	-0.008072163	
-0.0057998	-0.0005237409	-0.07987437	0.1962155	0.008583663	-0.008072163	-0.6080022	-0.1963794	

3.376e+10	-0.5510507	-0.1049192	-0.003389935	-0.008068277	-0.1087265	0.1840664	-0.004946354	0.002903169	
-0.003389935	-0.008068277	-0.5390204	-0.06627888	-0.003847071	0.005233323	-0.07880786	0.1966355	
-0.1087265	0.1840664	-0.003847071	0.005233323	-0.6045371	-0.2497896	0.002379803	-0.01134202	
-0.004946354	0.002903169	-0.07880786	0.1966355	0.002379803	-0.01134202	-0.6082339	-0.1945802	

3.378e+10	-0.556321	-0.1002984	-0.007319597	-0.004646949	-0.1088922	0.1912184	-0.002316428	0.005149478	
-0.007319597	-0.004646949	-0.5387436	-0.0655768	-0.0001038468	0.006356252	-0.07796632	0.1968201	
-0.1088922	0.1912184	-0.0001038468	0.006356252	-0.6139159	-0.2472906	-0.00445719	-0.01050558	
-0.002316428	0.005149478	-0.07796632	0.1968201	-0.00445719	-0.01050558	-0.6081775	-0.1932758	

3.38e+10	-0.5610546	-0.09499601	-0.008585518	0.0003463309	-0.1077067	0.198206	0.001057469	0.005452401	
-0.008585518	0.0003463309	-0.5391835	-0.06477101	0.003497451	0.005145377	-0.07751079	0.1970751	
-0.1077067	0.198206	0.003497451	0.005145377	-0.6227806	-0.2436889	-0.00951335	-0.005995515	
0.001057469	0.005452401	-0.07751079	0.1970751	-0.00951335	-0.005995515	-0.6084323	-0.1925387	

3.382e+10	-0.5651838	-0.0890108	-0.006814329	0.005129373	-0.1052285	0.2047525	0.003920936	0.003795407	
-0.006814329	0.005129373	-0.5399792	-0.0632419	0.005689818	0.00217091	-0.07714365	0.1976593	
-0.1052285	0.2047525	0.005689818	0.00217091	-0.6312486	-0.2390327	-0.01107687	0.0004739419	
0.003920936	0.003795407	-0.07714365	0.1976593	-0.01107687	0.0004739419	-0.6093874	-0.1916715	

3.384e+10	-0.5684368	-0.08262202	-0.002680555	0.008058045	-0.101569	0.2105742	0.005290792	0.0008783138	
-0.002680555	0.008058045	-0.5403273	-0.06118044	0.005795129	-0.00142224	-0.07651284	0.1984939	
-0.101569	0.2105742	0.005795129	-0.00142224	-0.6392167	-0.233035	-0.008743462	0.006588671	
0.005290792	0.0008783138	-0.07651284	0.1984939	-0.008743462	0.006588671	-0.6106555	-0.190198	

3.386e+10	-0.570676	-0.07573897	0.002382723	0.008138785	-0.09705286	0.2154494	0.00479343	-0.002226053	
0.002382723	0.008138785	-0.5398621	-0.05912451	0.003901364	-0.004369574	-0.0756073	0.1992471	
-0.09705286	0.2154494	0.003901364	-0.004369574	-0.6462162	-0.2259219	-0.003442853	0.01027768	
0.00479343	-0.002226053	-0.0756073	0.1992471	-0.003442853	0.01027768	-0.6114686	-0.1881123	

3.388e+10	-0.5719558	-0.06880915	0.006606819	0.005315248	-0.09192932	0.2193339	0.002693711	-0.004485748	
0.006606819	0.005315248	-0.5390106	-0.05769877	0.0007542235	-0.00571656	-0.074612	0.1997714	
-0.09192932	0.2193339	0.0007542235	-0.00571656	-0.6520203	-0.2177834	0.002953949	0.01034866	
0.002693711	-0.004485748	-0.074612	0.1997714	0.002953949	0.01034866	-0.6114692	-0.1861283	

3.39e+10	-0.5724538	-0.06198621	0.008455075	0.0005675146	-0.08646576	0.2222315	-0.0002748993	-0.005200239	
0.008455075	0.0005675146	-0.5385735	-0.05708159	-0.002546566	-0.005094256	-0.07372925	0.2000669	
-0.08646576	0.2222315	-0.002546566	-0.005094256	-0.6565791	-0.2091624	0.008253809	0.006823293	
-0.0002748993	-0.005200239	-0.07372925	0.2000669	0.008253809	0.006823293	-0.6111649	-0.1847544	

3.392e+10	-0.5722135	-0.05509789	0.00724292	-0.00437421	-0.08067196	0.2241977	-0.00313583	-0.004155349	
0.00724292	-0.00437421	-0.5389909	-0.05646002	-0.004917262	-0.002779787	-0.07308253	0.2003573	
-0.08067196	0.2241977	-0.004917262	-0.002779787	-0.6600766	-0.2001692	0.01062539	0.0009412257	
-0.00313583	-0.004155349	-0.07308253	0.2003573	0.01062539	0.0009412257	-0.6113163	-0.1842181	

3.394e+10	-0.5710649	-0.04825479	0.003427844	-0.007725903	-0.07466292	0.2251007	-0.004939512	-0.001691173	
0.003427844	-0.007725903	-0.5398031	-0.05502158	-0.005610065	0.0004336409	-0.07252407	0.2007834	
-0.07466292	0.2251007	-0.005610065	0.0004336409	-0.6624848	-0.1907155	0.009264416	-0.005228541	
-0.004939512	-0.001691173	-0.07252407	0.2007834	0.009264416	-0.005228541	-0.6123521	-0.1834815	

3.396e+10	-0.5688582	-0.04177434	-0.001617009	-0.008303315	-0.06873951	0.2248368	-0.005069323	0.001373505	
-0.001617009	-0.008303315	-0.5401895	-0.05296605	-0.004415462	0.003492129	-0.07195061	0.2013932	
-0.06873951	0.2248368	-0.004415462	0.003492129	-0.663593	-0.1807918	0.004674554	-0.009547012	
-0.005069323	0.001373505	-0.07195061	0.2013932	0.004674554	-0.009547012	-0.6136866	-0.1820153	

3.398e+10	-0.565729	-0.03579091	-0.006109335	-0.005887365	-0.0632262	0.2234366	-0.003462351	0.004016839	
-0.006109335	-0.005887365	-0.5397916	-0.05083523	-0.001718427	0.005387791	-0.07128463	0.2020859	
-0.0632262	0.2234366	-0.001718427	0.005387791	-0.6631078	-0.1708741	-0.001558392	-0.01053941	
-0.003462351	0.004016839	-0.07128463	0.2020859	-0.001558392	-0.01053941	-0.6145128	-0.1798125	

3.4e+10	-0.5619711	-0.03053364	-0.008416053	-0.001292347	-0.05829192	0.2210947	-0.0006185727	0.005343717	
-0.008416053	-0.001292347	-0.5389768	-0.04933529	0.001608101	0.005469498	-0.07041102	0.2027625	
-0.05829192	0.2210947	0.001608101	0.005469498	-0.6610819	-0.1612766	-0.007305574	-0.007823312	
-0.0006185727	0.005343717	-0.07041102	0.2027625	-0.007305574	-0.007823312	-0.6145078	-0.1777172	

3.402e+10	-0.5577393	-0.0261072	-0.007630766	0.003826202	-0.05415028	0.2179952	0.002551026	0.004851373	
-0.007630766	0.003826202	-0.5384475	-0.04852883	0.004453204	0.003662591	-0.06944204	0.2032866	
-0.05415028	0.2179952	0.004453204	0.003662591	-0.6578177	-0.152353	-0.01052677	-0.002275968	
0.002551026	0.004851373	-0.06944204	0.2032866	-0.01052677	-0.002275968	-0.6141539	-0.1764539	

3.404e+10	-0.5530041	-0.02221094	-0.004002279	0.007546245	-0.05080655	0.2142586	0.004963058	0.002598596	
-0.004002279	0.007546245	-0.5386144	-0.0477858	0.005826906	0.0005204168	-0.06851884	0.2035996	
-0.05080655	0.2142586	0.005826906	0.0005204168	-0.6534942	-0.1440388	-0.01000085	0.004179345	
0.004963058	0.002598596	-0.06851884	0.2035996	-0.01000085	0.004179345	-0.6143017	-0.1756842	

3.406e+10	-0.5477228	-0.01922261	0.001113311	0.008463288	-0.04843356	0.209956	0.005684733	-0.0007299051	
0.001113311	0.008463288	-0.5392295	-0.04660752	0.005183589	-0.002926407	-0.06779826	0.2038091	
-0.04843356	0.209956	0.005183589	-0.002926407	-0.6480554	-0.1363305	-0.005838368	0.009214007	
0.005684733	-0.0007299051	-0.06779826	0.2038091	-0.005838368	0.009214007	-0.6151524	-0.1749986	

3.408e+10	-0.5421542	-0.0176062	0.005805705	0.006247464	-0.04728071	0.2052856	0.004315276	-0.0039606	
0.005805705	0.006247464	-0.5396701	-0.04484313	0.002633663	-0.005464779	-0.06731456	0.2041378	
-0.04728071	0.2052856	0.002633663	-0.005464779	-0.6413236	-0.129663	0.0005110979	0.0109721	
0.004315276	-0.0039606	-0.06731456	0.2041378	0.0005110979	0.0109721	-0.6163303	-0.1735909	

3.41e+10	-0.5367631	-0.01724357	0.008348857	0.001717571	-0.04754363	0.2006543	0.001243172	-0.00584465	
0.008348857	0.001717571	-0.5395492	-0.04274771	-0.001008568	-0.006097551	-0.06689328	0.2047813	
-0.04754363	0.2006543	-0.001008568	-0.006097551	-0.633444	-0.1242768	0.006785644	0.008746424	
0.001243172	-0.00584465	-0.06689328	0.2047813	0.006785644	0.008746424	-0.6171531	-0.1716158	

3.412e+10	-0.5319412	-0.0178322	0.007782745	-0.00345778	-0.04910903	0.1965271	-0.002435391	-0.005577042	
0.007782745	-0.00345778	-0.538933	-0.04099558	-0.004425225	-0.004464012	-0.06619213	0.2056709	
-0.04910903	0.1965271	-0.004425225	-0.004464012	-0.6248751	-0.1206713	0.01068005	0.003251365	
-0.002435391	-0.005577042	-0.06619213	0.2056709	0.01068005	0.003251365	-0.6173806	-0.1695913	

3.414e+10	-0.5277719	-0.01944476	0.004291014	-0.007329969	-0.05173009	0.1931942	-0.005325672	-0.00315587	
0.004291014	-0.007329969	-0.5382229	-0.03990242	-0.006287023	-0.00107579	-0.06504873	0.2064339	
-0.05173009	0.1931942	-0.006287023	-0.00107579	-0.6160591	-0.1188573	0.01067223	-0.003568394	
-0.005325672	-0.00315587	-0.06504873	0.2064339	0.01067223	-0.003568394	-0.6172621	-0.1680535	

3.416e+10	-0.5243311	-0.02170097	-0.0007957961	-0.008406116	-0.05513852	0.1907819	-0.006258323	0.0005838723	
-0.0007957961	-0.008406116	-0.537949	-0.03912694	-0.005806523	0.002828268	-0.06383214	0.2067191	
-0.05513852	0.1907819	-0.005806523	0.002828268	-0.6072284	-0.1186933	0.006651071	-0.009169887	
-0.006258323	0.0005838723	-0.06383214	0.2067191	0.006651071	-0.009169887	-0.6172355	-0.1671209	

3.418e+10	-0.52186	-0.02461029	-0.005498435	-0.006305196	-0.05927235	0.1894859	-0.004758107	0.004217026	
-0.005498435	-0.006305196	-0.5382758	-0.03820639	-0.003082579	0.005751396	-0.0629895	0.2066743	
-0.05927235	0.1894859	-0.003082579	0.005751396	-0.5985102	-0.1202461	5.88063e-05	-0.01138285	
-0.004758107	0.004217026	-0.0629895	0.2066743	5.88063e-05	-0.01138285	-0.6177001	-0.1662057	

3.42e+10	-0.5206919	-0.02810852	-0.008048833	-0.001914534	-0.06388357	0.1896072	-0.001338896	0.006250713	
-0.008048833	-0.001914534	-0.5388828	-0.03683183	0.0008936098	0.006509147	-0.06267348	0.2068017	
-0.06388357	0.1896072	0.0008936098	0.006509147	-0.5902471	-0.1238467	-0.006621772	-0.009300539	
-0.001338896	0.006250713	-0.06267348	0.2068017	-0.006621772	-0.009300539	-0.6185397	-0.1651588	

3.422e+10	-0.5209197	-0.0313133	-0.007589628	0.003064868	-0.06844108	0.191359	0.002620486	0.005821603	
-0.007589628	0.003064868	-0.5391599	-0.03477141	0.00456632	0.004741794	-0.06241015	0.2074975	
-0.06844108	0.191359	0.00456632	0.004741794	-0.5832624	-0.1295198	-0.01082054	-0.003679398	
0.002620486	0.005821603	-0.06241015	0.2074975	-0.01082054	-0.003679398	-0.6195206	-0.1635687	

3.424e+10	-0.5222913	-0.03404969	-0.004378862	0.006823397	-0.07234005	0.1946205	0.00551437	0.003136164	
-0.004378862	0.006823397	-0.5387048	-0.03275986	0.006460431	0.001138032	-0.06172842	0.2085253	
-0.07234005	0.1946205	0.006460431	0.001138032	-0.5782488	-0.1367988	-0.0109227	0.003343575	
0.00551437	0.003136164	-0.06172842	0.2085253	-0.0109227	0.003343575	-0.6201766	-0.1616595	

3.426e+10	-0.5244502	-0.03593735	0.0003738497	0.008025697	-0.07520531	0.1990251	0.006249496	-0.0006893436	
0.0003738497	0.008025697	-0.5377759	-0.03119631	0.005848329	-0.002849768	-0.06049716	0.2093231	
-0.07520531	0.1990251	0.005848329	-0.002849768	-0.5754948	-0.1448747	-0.006881484	0.009082467	
0.006249496	-0.0006893436	-0.06049716	0.2093231	-0.006881484	0.009082467	-0.620294	-0.1596107	

3.428e+10	-0.5271463	-0.03695412	0.004899525	0.006262541	-0.07688583	0.2042267	0.00462039	-0.004170451	
0.004899525	0.006262541	-0.5370701	-0.03040302	0.003041171	-0.005665349	-0.05917931	0.209554	
-0.07688583	0.2042267	0.003041171	-0.005665349	-0.5748824	-0.1531793	-0.0002508331	0.01134123	
0.00462039	-0.004170451	-0.05917931	0.209554	-0.0002508331	0.01134123	-0.6199792	-0.1582612	

3.43e+10	-0.5302921	-0.03726765	0.007523908	0.002254418	-0.07724666	0.2099503	0.0013059	-0.006010059	
0.007523908	0.002254418	-0.5371963	-0.02993989	-0.0008133817	-0.006287608	-0.05835889	0.2094414	
-0.07724666	0.2099503	-0.0008133817	-0.006287608	-0.5763499	-0.1613536	0.006393276	0.009271389	
0.0013059	-0.006010059	-0.05835889	0.2094414	0.006393276	0.009271389	-0.6199201	-0.1574396	

3.432e+10	-0.5336649	-0.0364752	0.007359068	-0.002451318	-0.0760893	0.215947	-0.002392883	-0.005566906	
0.007359068	-0.002451318	-0.5379319	-0.02875672	-0.004237044	-0.0045804	-0.05800126	0.2095718	
-0.0760893	0.215947	-0.004237044	-0.0045804	-0.5799956	-0.1689435	0.01049997	0.003745479	
-0.002392883	-0.005566906	-0.05800126	0.2095718	0.01049997	0.003745479	-0.6205967	-0.1568046	

3.434e+10	-0.5369745	-0.03463047	0.004581078	-0.006160112	-0.07340405	0.2216937	-0.005077845	-0.003110488	
0.004581078	-0.006160112	-0.5384831	-0.02680728	-0.005997039	-0.001277992	-0.05767375	0.210243	
-0.07340405	0.2216937	-0.005997039	-0.001277992	-0.585716	-0.1752776	0.01058462	-0.00303809	
-0.005077845	-0.003110488	-0.05767375	0.210243	0.01058462	-0.00303809	-0.6218511	-0.1555061	

3.436e+10	-0.5397905	-0.03169131	0.0002300356	-0.007620629	-0.06927007	0.2267137	-0.005840922	0.0003449687	
0.0002300356	-0.007620629	-0.5381454	-0.02443704	-0.005547419	0.002342181	-0.05697494	0.2111585	
-0.06927007	0.2267137	-0.005547419	0.002342181	-0.5928907	-0.179682	0.006771868	-0.008506699	
-0.005840922	0.0003449687	-0.05697494	0.2111585	0.006771868	-0.008506699	-0.6228368	-0.1534445	

3.438e+10	-0.5419111	-0.02811584	-0.00416443	-0.006344563	-0.06409229	0.2306403	-0.00455049	0.00354246	
-0.00416443	-0.006344563	-0.5370706	-0.02269773	-0.00317919	0.004992252	-0.05583046	0.2119087	
-0.06409229	0.2306403	-0.00317919	0.004992252	-0.6007191	-0.1820544	0.000595759	-0.01072647	
-0.00455049	0.00354246	-0.05583046	0.2119087	0.000595759	-0.01072647	-0.6229508	-0.1511681	

3.44e+10	-0.5432957	-0.02410083	-0.007026341	-0.002780507	-0.05819189	0.2333949	-0.001744264	0.005439267	
-0.007026341	-0.002780507	-0.5361126	-0.0219074	0.0001901512	0.0058303	-0.05460903	0.2122267	
-0.05819189	0.2333949	0.0001901512	0.0058303	-0.6086004	-0.1825889	-0.005644491	-0.008994603	
-0.001744264	0.005439267	-0.05460903	0.2122267	-0.005644491	-0.008994603	-0.6223879	-0.149537	

3.442e+10	-0.5439682	-0.01956615	-0.007305713	0.00176204	-0.05187037	0.2349422	0.001613904	0.005450896	
-0.007305713	0.00176204	-0.5360478	-0.0215299	0.003396508	0.004667864	-0.0537076	0.2122504	
-0.05187037	0.2349422	0.003396508	0.004667864	-0.6163151	-0.1816252	-0.00968535	-0.004039558	
0.001613904	0.005450896	-0.0537076	0.2122504	-0.00968535	-0.004039558	-0.622087	-0.1487758	

3.444e+10	-0.5437258	-0.01490272	-0.004937805	0.005608729	-0.04525109	0.2352067	0.004395906	0.003590838	
-0.004937805	0.005608729	-0.5367641	-0.0206204	0.005395894	0.001952541	-0.05318638	0.2123713	
-0.04525109	0.2352067	0.005395894	0.001952541	-0.6237074	-0.1791987	-0.01012204	0.002240296	
0.004395906	0.003590838	-0.05318638	0.2123713	-0.01012204	0.002240296	-0.6226771	-0.1484575	

3.446e+10	-0.5423854	-0.01013024	-0.0008227098	0.007399907	-0.03854569	0.2340269	0.005660355	0.0004989104	
-0.0008227098	0.007399907	-0.5373957	-0.01867236	0.005554887	-0.001399621	-0.0527491	0.2128306	
-0.03854569	0.2340269	0.005554887	-0.001399621	-0.6304888	-0.1752056	-0.006932033	0.0075491	
0.005660355	0.0004989104	-0.0527491	0.2128306	-0.006932033	0.0075491	-0.6240148	-0.1472809	

3.448e+10	-0.5398994	-0.005748261	0.003579255	0.006525201	-0.03215266	0.2313262	0.004988832	-0.002778117	
0.003579255	0.006525201	-0.5371893	-0.01641262	0.003827221	-0.004280665	-0.0521014	0.2135666	
-0.03215266	0.2313262	0.003827221	-0.004280665	-0.63621	-0.169996	-0.001362872	0.01006414	
0.004988832	-0.002778117	-0.0521014	0.2135666	-0.001362872	0.01006414	-0.6250764	-0.1451149	

3.45e+10	-0.536496	-0.002060007	0.006701871	0.003266405	-0.02659443	0.2272089	0.002597877	-0.005151633	
0.006701871	0.003266405	-0.5361737	-0.01450844	0.0007752923	-0.005726658	-0.05117091	0.2142952	
-0.02659443	0.2272089	0.0007752923	-0.005726658	-0.6406484	-0.1640139	0.004596358	0.008989033	
0.002597877	-0.005151633	-0.05117091	0.2142952	0.004596358	0.008989033	-0.6252044	-0.1427316	

3.452e+10	-0.5324995	0.00074351	0.007361658	-0.001236014	-0.02210192	0.2219422	-0.0007654738	-0.005815135	
0.007361658	-0.001236014	-0.5351409	-0.01345239	-0.002605528	-0.00522588	-0.0500277	0.2148114	
-0.02210192	0.2219422	-0.002605528	-0.00522588	-0.6439059	-0.157801	0.008877393	0.004734513	
-0.0007654738	-0.005815135	-0.0500277	0.2148114	0.008877393	0.004734513	-0.624639	-0.1411122	

3.454e+10	-0.5280846	0.002396388	0.005250227	-0.005289409	-0.01891849	0.2157622	-0.004013717	-0.004449869	
0.005250227	-0.005289409	-0.5348303	-0.01307097	-0.005173232	-0.002882933	-0.04900377	0.214996	
-0.01891849	0.2157622	-0.005173232	-0.002882933	-0.6462241	-0.1512136	0.009966318	-0.00119748	
-0.004013717	-0.004449869	-0.04900377	0.214996	0.009966318	-0.00119748	-0.6243036	-0.140235	

3.456e+10	-0.5233802	0.003197188	0.001169478	-0.007325031	-0.0171909	0.2088738	-0.005977914	-0.001383407	
0.001169478	-0.007325031	-0.5353101	-0.01224136	-0.005994377	0.0005761369	-0.04819357	0.2150766	
-0.0171909	0.2088738	-0.005994377	0.0005761369	-0.6475574	-0.1443903	0.007476219	-0.006675828	
-0.005977914	-0.001383407	-0.04819357	0.2150766	0.007476219	-0.006675828	-0.6247868	-0.1397709	

3.458e+10	-0.5186738	0.002534739	-0.003300029	-0.006590006	-0.01727824	0.2015006	-0.00581549	0.002375626	
-0.003300029	-0.006590006	-0.5359139	-0.01066435	-0.004669997	0.003971669	-0.04768736	0.2152816	
-0.01727824	0.2015006	-0.004669997	0.003971669	-0.6476883	-0.1371979	0.002311186	-0.00975495	
-0.00581549	0.002375626	-0.04768736	0.2152816	0.002311186	-0.00975495	-0.6259178	-0.138648	

3.46e+10	-0.5144395	0.0007182935	-0.00647983	-0.003406316	-0.01942631	0.1941807	-0.003430997	0.005431498	
-0.00647983	-0.003406316	-0.5359039	-0.008418651	-0.001556849	0.006041634	-0.04717782	0.215834	
-0.01942631	0.1941807	-0.001556849	0.006041634	-0.6463841	-0.1302165	-0.003698229	-0.009350194	
-0.003430997	0.005431498	-0.04717782	0.215834	-0.003698229	-0.009350194	-0.6269018	-0.1366867	

3.462e+10	-0.5111647	-0.002319608	-0.007196696	0.001012711	-0.02373981	0.1876039	0.0003950953	0.006551698	
-0.007196696	0.001012711	-0.5351312	-0.006444774	0.002266954	0.005917963	-0.0464746	0.2166002	
-0.02373981	0.1876039	0.002266954	0.005917963	-0.643725	-0.1238454	-0.008445321	-0.005568663	
0.0003950953	0.006551698	-0.0464746	0.2166002	-0.008445321	-0.005568663	-0.6271365	-0.1345609	

3.464e+10	-0.5089962	-0.005863475	-0.00518971	0.004990682	-0.02983587	0.1824364	0.00425602	0.005171603	
-0.00518971	0.004990682	-0.5340854	-0.005127009	0.005358242	0.003536331	-0.04535407	0.2172871	
-0.02983587	0.1824364	0.005358242	0.003536331	-0.6399633	-0.1183791	-0.01019174	0.0003274108	
0.00425602	0.005171603	-0.04535407	0.2172871	-0.01019174	0.0003274108	-0.6268018	-0.1327735	

3.466e+10	-0.5078847	-0.00984056	-0.001263193	0.006992519	-0.03728548	0.1791001	0.006607711	0.001678636	
-0.001263193	0.006992519	-0.5334605	-0.004562326	0.006478227	-0.0002614269	-0.04414776	0.2175762	
-0.03728548	0.1791001	0.006478227	-0.0002614269	-0.6353189	-0.1138541	-0.008183911	0.0062277	
0.006607711	0.001678636	-0.04414776	0.2175762	-0.008183911	0.0062277	-0.6264973	-0.1317953	

3.468e+10	-0.5077969	-0.01400666	0.003010554	0.006302697	-0.04556386	0.1778461	0.006388496	-0.002624282	
0.003010554	0.006302697	-0.5335857	-0.003911457	0.00513203	-0.004031408	-0.04315323	0.2175412	
-0.04556386	0.1778461	0.00513203	-0.004031408	-0.629763	-0.1104776	-0.00304861	0.009909662	
0.006388496	-0.002624282	-0.04315323	0.2175412	-0.00304861	0.009909662	-0.626759	-0.1309368	

3.47e+10	-0.5088373	-0.01812467	0.005998049	0.003313013	-0.05425311	0.1789047	0.003570058	-0.005961353	
0.005998049	0.003313013	-0.5341236	-0.002610241	0.00179839	-0.006291621	-0.04264992	0.2175895	
-0.05425311	0.1789047	0.00179839	-0.006291621	-0.6234553	-0.1086982	0.003346187	0.009895552	
0.003570058	-0.005961353	-0.04264992	0.2175895	0.003346187	0.009895552	-0.6275025	-0.1300637	

3.472e+10	-0.5110609	-0.02213467	0.006684536	-0.0007546584	-0.06269749	0.1825005	-0.0007073437	-0.006902552	
0.006684536	-0.0007546584	-0.5343696	-0.000652856	-0.002230029	-0.006140288	-0.04227403	0.2180906	
-0.06269749	0.1825005	-0.002230029	-0.006140288	-0.6169644	-0.1091206	0.008574007	0.00608355	
-0.0007073437	-0.006902552	-0.04227403	0.2180906	0.008574007	0.00608355	-0.6283727	-0.128415	

3.474e+10	-0.5143775	-0.02551723	0.004936275	-0.004406723	-0.06995927	0.1885175	-0.004651987	-0.005074974	
0.004936275	-0.004406723	-0.5338779	0.001490872	-0.005369986	-0.003649439	-0.04156129	0.2189096	
-0.06995927	0.1885175	-0.005369986	-0.003649439	-0.6112595	-0.1116358	0.01055997	-0.0001476149	
-0.004651987	-0.005074974	-0.04156129	0.2189096	0.01055997	-0.0001476149	-0.6288686	-0.1265737	

3.476e+10	-0.5185752	-0.02835736	0.00145394	-0.006349255	-0.07537553	0.19636	-0.006671409	-0.001301625	
0.00145394	-0.006349255	-0.5328012	0.003068748	-0.006427569	0.0001615765	-0.04038297	0.2195978	
-0.07537553	0.19636	-0.006427569	0.0001615765	-0.6070142	-0.1157942	0.008437881	-0.006382677	
-0.006671409	-0.001301625	-0.04038297	0.2195978	0.008437881	-0.006382677	-0.6288784	-0.1246353	

3.478e+10	-0.5235498	-0.03037106	-0.00244971	-0.005914122	-0.07860448	0.205307	-0.006049358	0.002850482	
-0.00244971	-0.005914122	-0.5318957	0.003899069	-0.005082262	0.003814483	-0.03915588	0.2198199	
-0.07860448	0.205307	-0.005082262	0.003814483	-0.6044773	-0.1210059	0.002988951	-0.01012817	
-0.006049358	0.002850482	-0.03915588	0.2198199	0.002988951	-0.01012817	-0.6285787	-0.1232083	

3.48e+10	-0.5292613	-0.03153661	-0.005311443	-0.003340911	-0.07967313	0.2146933	-0.003147769	0.005749518	
-0.005311443	-0.003340911	-0.5317221	0.00436184	-0.001926394	0.005971357	-0.03824867	0.2197664	
-0.07967313	0.2146933	-0.001926394	0.005971357	-0.6037457	-0.126569	-0.003601891	-0.009858621	
-0.003147769	0.005749518	-0.03824867	0.2197664	-0.003601891	-0.009858621	-0.6284475	-0.1221578	

3.482e+10	-0.5356067	-0.03163328	-0.006133738	0.0003203821	-0.07856879	0.2241064	0.0007930701	0.006351781	
-0.006133738	0.0003203821	-0.5321837	0.005294538	0.001829417	0.005916837	-0.03771878	0.2198782	
-0.07856879	0.2241064	0.001829417	0.005916837	-0.6049032	-0.1326646	-0.008665395	-0.005718116	
0.0007930701	0.006351781	-0.03771878	0.2198782	-0.008665395	-0.005718116	-0.6288516	-0.1214392	

3.484e+10	-0.5423184	-0.03022536	-0.004744361	0.00370137	-0.07549347	0.2330368	0.004215639	0.00459251	
-0.004744361	0.00370137	-0.5325819	0.007157818	0.004818174	0.003761527	-0.03720858	0.2204114	
-0.07549347	0.2330368	0.004818174	0.003761527	-0.6081811	-0.1381754	-0.01021417	0.0005317268	
0.004215639	0.00459251	-0.03720858	0.2204114	-0.01021417	0.0005317268	-0.6297528	-0.1202457	

3.486e+10	-0.5490357	-0.02762081	-0.001743911	0.005644125	-0.07055391	0.2409633	0.005928375	0.001308211	
-0.001743911	0.005644125	-0.5322689	0.009290789	0.006029305	0.000354194	-0.03639032	0.2210851	
-0.07055391	0.2409633	0.006029305	0.000354194	-0.6132889	-0.142604	-0.007782207	0.006356065	
0.005928375	0.001308211	-0.03639032	0.2210851	-0.007782207	0.006356065	-0.63056	-0.1183478	

3.488e+10	-0.5554659	-0.0236694	0.001767013	0.005532783	-0.06417991	0.2474525	0.005490942	-0.002236118	
0.001767013	0.005532783	-0.5312654	0.01103566	0.005125814	-0.003086601	-0.0352794	0.2215689	
-0.06417991	0.2474525	0.005125814	-0.003086601	-0.6195797	-0.1454352	-0.002491205	0.009536585	
0.005490942	-0.002236118	-0.0352794	0.2215689	-0.002491205	0.009536585	-0.6307025	-0.1163246	

3.49e+10	-0.5614044	-0.01852561	0.004537558	0.003463582	-0.05701296	0.2523702	0.003209731	-0.004849742	
0.004537558	0.003463582	-0.5302235	0.01203245	0.002478725	-0.005406025	-0.03421707	0.2217456	
-0.05701296	0.2523702	0.002478725	-0.005406025	-0.6264458	-0.1468162	0.003522316	0.008988815	
0.003209731	-0.004849742	-0.03421707	0.2217456	0.003522316	0.008988815	-0.6302666	-0.1146525	

3.492e+10	-0.5667151	-0.01236577	0.005598448	0.0002448447	-0.04945312	0.2558443	-6.709638e-05	-0.005729007	
0.005598448	0.0002448447	-0.5298107	0.0125782	-0.0009923596	-0.005845464	-0.03343032	0.2218857	
-0.04945312	0.2558443	-0.0009923596	-0.005845464	-0.6336633	-0.1466422	0.007944987	0.005095893	
-6.709638e-05	-0.005729007	-0.03343032	0.2218857	0.007944987	0.005095893	-0.6299242	-0.1136818	

3.494e+10	-0.5712565	-0.005184702	0.004653185	-0.002929586	-0.04168879	0.2579935	-0.003226579	-0.004658034	
0.004653185	-0.002929586	-0.5300902	0.013418	-0.004106985	-0.004270771	-0.03275983	0.222198	
-0.04168879	0.2579935	-0.004106985	-0.004270771	-0.6411062	-0.1451851	0.009195279	-0.0005006865	
-0.003226579	-0.004658034	-0.03275983	0.222198	0.009195279	-0.0005006865	-0.6302791	-0.1129509	

3.496e+10	-0.5748121	0.003009737	0.002133258	-0.004964577	-0.03383766	0.2588376	-0.005239782	-0.002052393	
0.002133258	-0.004964577	-0.5304879	0.01500319	-0.005806925	-0.001225828	-0.03196779	0.2226669	
-0.03383766	0.2588376	-0.005806925	-0.001225828	-0.6485414	-0.1421165	0.007007259	-0.005609056	
-0.005239782	-0.002052393	-0.03196779	0.2226669	0.007007259	-0.005609056	-0.6311742	-0.1118611	

3.498e+10	-0.5772096	0.01178846	-0.001033541	-0.005224551	-0.02617615	0.2583272	-0.005488199	0.001207663	
-0.001033541	-0.005224551	-0.5303064	0.01703615	-0.005518326	0.002258731	-0.03104732	0.2230597	
-0.02617615	0.2583272	-0.005518326	0.002258731	-0.6555212	-0.1376621	0.002406972	-0.008416279	
-0.005488199	0.001207663	-0.03104732	0.2230597	0.002406972	-0.008416279	-0.6319467	-0.1100651	

3.5e+10	-0.5784323	0.02090688	-0.003762984	-0.003681128	-0.0189629	0.2565702	-0.003906003	0.004075989	
-0.003762984	-0.003681128	-0.5294642	0.01885939	-0.003319875	0.005010083	-0.03011316	0.2233088	
-0.0189629	0.2565702	-0.003319875	0.005010083	-0.6617193	-0.1318643	-0.002816992	-0.008075683	
-0.003906003	0.004075989	-0.03011316	0.2233088	-0.002816992	-0.008075683	-0.6320725	-0.1080421	

3.502e+10	-0.5784455	0.03051752	-0.00513489	-0.0008897185	-0.01243044	0.2537958	-0.0009751263	0.005617899	
-0.00513489	-0.0008897185	-0.5284308	0.02002317	8.131359e-05	0.006073856	-0.02932049	0.2235252	
-0.01243044	0.2537958	8.131359e-05	0.006073856	-0.6670986	-0.1248441	-0.006803752	-0.004876398	
-0.0009751263	0.005617899	-0.02932049	0.2235252	-0.006803752	-0.004876398	-0.6317035	-0.1063911	

3.504e+10	-0.5772305	0.04036389	-0.004689161	0.002157765	-0.006649759	0.2502717	0.002374236	0.005272819	
-0.004689161	0.002157765	-0.5278327	0.02073861	0.003541253	0.005028613	-0.02859115	0.2239019	
-0.006649759	0.2502717	0.003541253	0.005028613	-0.6715392	-0.1172023	-0.008201094	-8.159027e-05	
0.002374236	0.005272819	-0.02859115	0.2239019	-0.008201094	-8.159027e-05	-0.6314457	-0.1053279	

3.506e+10	-0.5746262	0.05037434	-0.002614855	0.004395176	-0.001537504	0.2460652	0.005016638	0.003073718	
-0.002614855	0.004395176	-0.5278532	0.02147761	0.005847055	0.002172177	-0.02770496	0.224376	
-0.001537504	0.2460652	0.005847055	0.002172177	-0.6750488	-0.1086087	-0.006631317	0.004547361	
0.005016638	0.003073718	-0.02770496	0.224376	-0.006631317	0.004547361	-0.631712	-0.1045792	

3.508e+10	-0.5705158	0.06026566	0.0003272041	0.00506394	0.002811806	0.2411636	0.005995554	-0.0003068376	
0.0003272041	0.00506394	-0.5281289	0.02278156	0.006146276	-0.001548743	-0.02665755	0.2247244	
0.002811806	0.2411636	0.006146276	-0.001548743	-0.6773182	-0.09917225	-0.002785969	0.007384545	
0.005995554	-0.0003068376	-0.02665755	0.2247244	-0.002785969	0.007384545	-0.6324231	-0.1033366	

3.51e+10	-0.5648171	0.0698512	0.003115899	0.003971711	0.006174019	0.2356191	0.004869389	-0.003745063	
0.003115899	0.003971711	-0.5280661	0.02462586	0.004256087	-0.004854846	-0.02567004	0.2248494	
0.006174019	0.2356191	0.004256087	-0.004854846	-0.67811	-0.08903408	0.001890926	0.007533099	
0.004869389	-0.003745063	-0.02567004	0.2248494	0.001890926	0.007533099	-0.6330173	-0.1017329	

3.512e+10	-0.5574721	0.07884376	0.00480721	0.001507041	0.008356958	0.229658	0.001898203	-0.006005343	
0.00480721	0.001507041	-0.5274376	0.02644197	0.0007390512	-0.006547522	-0.02492034	0.2249338	
0.008356958	0.229658	0.0007390512	-0.006547522	-0.6772381	-0.0784789	0.005771622	0.005047515	
0.001898203	-0.006005343	-0.02492034	0.2249338	0.005771622	0.005047515	-0.6331903	-0.09994766	

3.514e+10	-0.5484375	0.08715836	0.004818553	-0.001489103	0.009306258	0.2236264	-0.001953854	-0.006159327	
0.004818553	-0.001489103	-0.5264929	0.02786876	-0.003214518	-0.005913021	-0.02436004	0.2252265	
0.009306258	0.2236264	-0.003214518	-0.005913021	-0.6746384	-0.06793252	0.007547218	0.000847023	
-0.001953854	-0.006159327	-0.02436004	0.2252265	0.007547218	0.000847023	-0.6330275	-0.09833725	

3.516e+10	-0.537653	0.09412559	0.003116674	-0.003983426	0.00923152	0.2177144	-0.005294177	-0.003990897	
0.003116674	-0.003983426	-0.5257445	0.0287494	-0.006160589	-0.003050106	-0.02361867	0.225778	
0.00923152	0.2177144	-0.006160589	-0.003050106	-0.6702216	-0.05745826	0.006635393	-0.003589989	
-0.005294177	-0.003990897	-0.02361867	0.225778	0.006635393	-0.003589989	-0.6328818	-0.09718369	

3.518e+10	-0.5251401	0.09932118	0.0002733702	-0.005068934	0.008133889	0.211924	-0.006799011	-0.000168539	
0.0002733702	-0.005068934	-0.5254942	0.02947169	-0.006937166	0.001087572	-0.02256755	0.2262975	
0.008133889	0.211924	-0.006937166	0.001087572	-0.6637453	-0.04746141	0.003367168	-0.006712956	
-0.006799011	-0.000168539	-0.02256755	0.2262975	0.003367168	-0.006712956	-0.6330505	-0.09607896	

3.52e+10	-0.5111552	0.1021389	-0.002703814	-0.004318617	0.005843379	0.2063573	-0.005754066	0.003941367	
-0.002703814	-0.004318617	-0.5255911	0.03058151	-0.005136543	0.005010792	-0.02140249	0.2265412	
0.005843379	0.2063573	-0.005136543	0.005010792	-0.655092	-0.03811653	-0.001093306	-0.007412809	
-0.005754066	0.003941367	-0.02140249	0.2265412	-0.001093306	-0.007412809	-0.6335174	-0.09479285	

3.522e+10	-0.4962466	0.1020453	-0.004720738	-0.001971824	0.002206996	0.2013479	-0.002383908	0.006735684	
-0.004720738	-0.001971824	-0.5255978	0.03214694	-0.001295348	0.007220935	-0.02044042	0.2265297	
0.002206996	0.2013479	-0.001295348	0.007220935	-0.6441834	-0.03060429	-0.005165907	-0.00542853	
-0.002383908	0.006735684	-0.02044042	0.2265297	-0.005165907	-0.00542853	-0.6339682	-0.09339017	

3.524e+10	-0.4811602	0.09850549	-0.00501031	0.001140154	-0.002639407	0.1974124	0.002119403	0.006988492	
-0.00501031	0.001140154	-0.5251631	0.03396077	0.003236624	0.006763229	-0.01977525	0.2265787	
-0.002639407	0.1974124	0.003236624	0.006763229	-0.631371	-0.02535848	-0.007374759	-0.00143618	
0.002119403	0.006988492	-0.01977525	0.2265787	-0.007374759	-0.00143618	-0.6342106	-0.09173013	

3.526e+10	-0.4667544	0.09140438	-0.003406215	0.003870397	-0.008273285	0.1948745	0.005974436	0.004429732	
-0.003406215	0.003870397	-0.5243317	0.03546954	0.006726653	0.003648475	-0.01918185	0.2269107	
-0.008273285	0.1948745	0.006726653	0.003648475	-0.6172352	-0.02317237	-0.006855803	0.00314752	
0.005974436	0.004429732	-0.01918185	0.2269107	-0.006855803	0.00314752	-0.634215	-0.09014923	

3.528e+10	-0.4542035	0.08066062	-0.0004704639	0.005133788	-0.01432119	0.1937214	0.007543654	-2.630873e-05	
-0.0004704639	0.005133788	-0.5234981	0.03651474	0.00772411	-0.001038425	-0.01840536	0.2274164	
-0.01432119	0.1937214	0.00772411	-0.001038425	-0.60247	-0.02430302	-0.00370063	0.006602544	
0.007543654	-2.630873e-05	-0.01840536	0.2274164	-0.00370063	0.006602544	-0.6341647	-0.08878746	

3.53e+10	-0.4445917	0.06692072	0.002649415	0.004384715	-0.02060473	0.1939888	0.006076477	-0.004593937	
0.002649415	0.004384715	-0.5230346	0.03739983	0.005699402	-0.005493477	-0.01739417	0.2278771	
-0.02060473	0.1939888	0.005699402	-0.005493477	-0.5879468	-0.02937259	0.0009417301	0.007513613	
0.006076477	-0.004593937	-0.01739417	0.2278771	0.0009417301	0.007513613	-0.6342296	-0.08766818	

3.532e+10	-0.4389547	0.05102172	0.004671151	0.001927217	-0.02691507	0.1958492	0.002104261	-0.007359271	
0.004671151	0.001927217	-0.5229518	0.03840318	0.001344792	-0.007900566	-0.01632104	0.2281369	
-0.02691507	0.1958492	0.001344792	-0.007900566	-0.5748234	-0.03817973	0.005222714	0.00543897	
0.002104261	-0.007359271	-0.01632104	0.2281369	0.005222714	0.00543897	-0.6345057	-0.08646523	

3.534e+10	-0.4377684	0.03429937	0.004803993	-0.001194208	-0.03275015	0.1994693	-0.002744151	-0.007141306	
0.004803993	-0.001194208	-0.5229193	0.03977744	-0.003649213	-0.007214825	-0.01532813	0.2282459	
-0.03275015	0.1994693	-0.003649213	-0.007214825	-0.5643979	-0.05047046	0.007369058	0.001206056	
-0.002744151	-0.007141306	-0.01532813	0.2282459	0.007369058	0.001206056	-0.6348638	-0.08516007	

3.536e+10	-0.4410088	0.01809823	0.00308693	-0.003704786	-0.03744806	0.2046418	-0.006447158	-0.004036459	
0.00308693	-0.003704786	-0.5225752	0.04149466	-0.007263643	-0.003640534	-0.01445687	0.2283228	
-0.03744806	0.2046418	-0.007263643	-0.003640534	-0.5578059	-0.06542843	0.006506662	-0.003417812	
-0.006447158	-0.004036459	-0.01445687	0.2283228	0.006506662	-0.003417812	-0.6351394	-0.08361769	

3.538e+10	-0.4481336	0.003832583	0.0003080214	-0.004667046	-0.04066859	0.2107927	-0.007500242	0.0006245402	
0.0003080214	-0.004667046	-0.5218817	0.04299819	-0.008010224	0.001400889	-0.01373055	0.2284177	
-0.04066859	0.2107927	-0.008010224	0.001400889	-0.5556863	-0.08156118	0.003063581	-0.006503663	
-0.007500242	0.0006245402	-0.01373055	0.2284177	0.003063581	-0.006503663	-0.6351931	-0.08204629	

3.54e+10	-0.4583243	-0.007760032	-0.002398938	-0.003827203	-0.04249954	0.2174253	-0.00556368	0.004903318	
-0.002398938	-0.003827203	-0.5210875	0.04421492	-0.005586904	0.005870929	-0.01309781	0.2286852	
-0.04249954	0.2174253	-0.005586904	0.005870929	-0.558094	-0.09740299	-0.001433465	-0.00683776	
-0.00556368	0.004903318	-0.01309781	0.2286852	-0.001433465	-0.00683776	-0.6351494	-0.08057592	

3.542e+10	-0.4704846	-0.01610083	-0.004021093	-0.001653271	-0.04292663	0.2243909	-0.001541457	0.007117494	
-0.004021093	-0.001653271	-0.5205235	0.04517375	-0.001010827	0.007980236	-0.01239509	0.229165	
-0.04292663	0.2243909	-0.001010827	0.007980236	-0.5645103	-0.111776	-0.005075438	-0.004441645	
-0.001541457	0.007117494	-0.01239509	0.229165	-0.005075438	-0.004441645	-0.6351998	-0.07945609	

3.544e+10	-0.483593	-0.02102956	-0.004066245	0.0009365243	-0.04194916	0.2315203	0.002892918	0.006525166	
-0.004066245	0.0009365243	-0.5202366	0.04615532	0.003854592	0.006961604	-0.01139582	0.2297175	
-0.04194916	0.2315203	0.003854592	0.006961604	-0.5742813	-0.1236395	-0.006450678	-0.0004918228	
0.002892918	0.006525166	-0.01139582	0.2297175	-0.006450678	-0.0004918228	-0.6354839	-0.0781402	

3.546e+10	-0.4967123	-0.02290307	-0.002678361	0.002968364	-0.0393304	0.2384279	0.006041036	0.003522887	
-0.002678361	0.002968364	-0.5200525	0.04742001	0.007116437	0.00333116	-0.0101357	0.2300268	
-0.0393304	0.2384279	0.007116437	0.00333116	-0.5864123	-0.1324764	-0.005221387	0.003290629	
0.006041036	0.003522887	-0.0101357	0.2300268	-0.005221387	0.003290629	-0.6358184	-0.0767173	

3.548e+10	-0.5092326	-0.02205548	-0.0004927182	0.003797872	-0.03526212	0.2446115	0.006829011	-0.0006417678	
-0.0004927182	0.003797872	-0.5197289	0.0488543	0.007622745	-0.001432618	-0.008957438	0.2299256	
-0.03526212	0.2446115	0.007622745	-0.001432618	-0.5998597	-0.137827	-0.002148687	0.005457553	
0.006829011	-0.0006417678	-0.008957438	0.2299256	-0.002148687	0.005457553	-0.6359742	-0.07515995	

3.55e+10	-0.5207134	-0.01900269	0.001666729	0.0032734	-0.03011385	0.2497611	0.005100478	-0.00440308	
0.001666729	0.0032734	-0.5191923	0.05026692	0.005303692	-0.005527162	-0.008221033	0.2296729	
-0.03011385	0.2497611	0.005303692	-0.005527162	-0.6135786	-0.1399648	0.001393165	0.005383868	
0.005100478	-0.00440308	-0.008221033	0.2296729	0.001393165	0.005383868	-0.6359216	-0.0738036	

3.552e+10	-0.5308407	-0.01417869	0.003091142	0.001703588	-0.02421409	0.2538879	0.001593402	-0.006435267	
0.003091142	0.001703588	-0.5185026	0.05166205	0.001112777	-0.007488675	-0.00787502	0.2297651	
-0.02421409	0.2538879	0.001112777	-0.007488675	-0.6268356	-0.1388513	0.004050655	0.003360889	
0.001593402	-0.006435267	-0.00787502	0.2297651	0.004050655	0.003360889	-0.6358959	-0.07245119	

3.554e+10	-0.5395392	-0.008099001	0.003381523	-0.0003077665	-0.01767187	0.2569731	-0.002368641	-0.006090951	
0.003381523	-0.0003077665	-0.517876	0.05269524	-0.003374022	-0.006688128	-0.007405682	0.230401	
-0.01767187	0.2569731	-0.003374022	-0.006688128	-0.638962	-0.1353494	0.00495952	0.0003506396	
-0.002368641	-0.006090951	-0.007405682	0.230401	0.00495952	0.0003506396	-0.6360413	-0.07134346	

3.556e+10	-0.5467788	-0.001145173	0.002531407	-0.002061771	-0.01054726	0.2588852	-0.005373588	-0.003586448	
0.002531407	-0.002061771	-0.517397	0.05383287	-0.006547366	-0.003506254	-0.006361426	0.2312125	
-0.01054726	0.2588852	-0.006547366	-0.003506254	-0.6496149	-0.1299238	0.00399573	-0.002442451	
-0.005373588	-0.003586448	-0.006361426	0.2312125	0.00399573	-0.002442451	-0.6363881	-0.07003306	

3.558e+10	-0.5526655	0.00617359	0.0009206045	-0.002993959	-0.003069495	0.2593818	-0.006408775	0.00013984	
0.0009206045	-0.002993959	-0.5170349	0.05498129	-0.007336042	0.0008695762	-0.004863018	0.2315789	
-0.003069495	0.2593818	-0.007336042	0.0008695762	-0.6586097	-0.1230175	0.001736261	-0.004037176	
-0.006408775	0.00013984	-0.004863018	0.2315789	0.001736261	-0.004037176	-0.6366786	-0.06837851	

3.56e+10	-0.5574188	0.01381771	-0.0008437007	-0.002877772	0.00439646	0.2583326	-0.005147911	0.003777368	
-0.0008437007	-0.002877772	-0.5167002	0.05622285	-0.005509846	0.004903921	-0.00350873	0.2313234	
0.00439646	0.2583326	-0.005509846	0.004903921	-0.6658397	-0.1151302	-0.0008378214	-0.004020941	
-0.005147911	0.003777368	-0.00350873	0.2313234	-0.0008378214	-0.004020941	-0.6366847	-0.06680591	

3.562e+10	-0.5611798	0.02146027	-0.002177129	-0.001870644	0.01143706	0.2558045	-0.002029529	0.006044579	
-0.002177129	-0.001870644	-0.516243	0.05763224	-0.001704765	0.007189241	-0.002796485	0.2308631	
0.01143706	0.2558045	-0.001704765	0.007189241	-0.6713265	-0.1068082	-0.002772816	-0.002631304	
-0.002029529	0.006044579	-0.002796485	0.2308631	-0.002772816	-0.002631304	-0.6365049	-0.06543957	

3.564e+10	-0.5641314	0.02907125	-0.002724762	-0.000391188	0.0177781	0.2519636	0.001837054	0.006101548	
-0.002724762	-0.000391188	-0.5156532	0.0589336	0.002744706	0.00689014	-0.002590989	0.2308655	
0.0177781	0.2519636	0.002744706	0.00689014	-0.6751831	-0.09849857	-0.003497028	-0.0005632636	
0.001837054	0.006101548	-0.002590989	0.2308655	-0.003497028	-0.0005632636	-0.6364391	-0.06431046	

3.566e+10	-0.566573	0.03653933	-0.002422703	0.001071066	0.02320247	0.2468821	0.005029306	0.003899724	
-0.002422703	0.001071066	-0.5150408	0.06013889	0.006245956	0.004068737	-0.002226727	0.2315393	
0.02320247	0.2468821	0.006245956	0.004068737	-0.6777576	-0.09055257	-0.002963487	0.001366813	
0.005029306	0.003899724	-0.002226727	0.2315393	-0.002963487	0.001366813	-0.6366896	-0.0632134	

3.568e+10	-0.568676	0.04405676	-0.001456735	0.002105362	0.02737614	0.2406881	0.006345175	0.0002525747	
-0.001456735	0.002105362	-0.5144654	0.06134628	0.007492507	-0.0002895487	-0.001204825	0.2324269	
0.02737614	0.2406881	0.007492507	-0.0002895487	-0.6794911	-0.08306989	-0.00158262	0.00253469	
0.006345175	0.0002525747	-0.001204825	0.2324269	-0.00158262	0.00253469	-0.6371599	-0.0618005	

3.57e+10	-0.5705422	0.05192341	-0.0001676795	0.002489058	0.02992292	0.233682	0.005295306	-0.00347334	
-0.0001676795	0.002489058	-0.5139873	0.06247238	0.005978367	-0.004605791	0.0003332621	0.2328598	
0.02992292	0.233682	0.005978367	-0.004605791	-0.6807543	-0.07623852	1.378178e-05	0.002722865	
0.005295306	-0.00347334	0.0003332621	0.2328598	1.378178e-05	0.002722865	-0.6374583	-0.06025755	

3.572e+10	-0.5720678	0.06032865	0.001093012	0.002211542	0.03059461	0.2263719	0.002278682	-0.005886979	
0.001093012	0.002211542	-0.5135057	0.06368749	0.002204854	-0.0072698	0.001774272	0.2326232	
0.03059461	0.2263719	0.002204854	-0.0072698	-0.6818051	-0.06961594	0.001286541	0.002125336	
0.002278682	-0.005886979	0.001774272	0.2326232	0.001286541	0.002125336	-0.6373552	-0.05845254	

3.574e+10	-0.5729479	0.06943577	0.002069367	0.001386471	0.02937038	0.2193323	-0.001570702	-0.006086599	
0.002069367	0.001386471	-0.5129914	0.06489684	-0.002458677	-0.00723473	0.002600965	0.2321154	
0.02937038	0.2193323	-0.002458677	-0.00723473	-0.6826621	-0.06296815	0.001998601	0.001126476	
-0.001570702	-0.006086599	0.002600965	0.2321154	0.001998601	0.001126476	-0.6369683	-0.05695996	

3.576e+10	-0.5729423	0.07919657	0.002569671	0.0001655787	0.02648768	0.2130195	-0.004794254	-0.004007197	
0.002569671	0.0001655787	-0.5124957	0.0660159	-0.006247685	-0.004456431	0.002866488	0.2319623	
0.02648768	0.2130195	-0.006247685	-0.004456431	-0.6833046	-0.05617786	0.002172794	4.688317e-05	
-0.004794254	-0.004007197	0.002866488	0.2319623	0.002172794	4.688317e-05	-0.6367683	-0.05604598	

3.578e+10	-0.5717167	0.08963069	0.002411311	-0.001240523	0.02224739	0.2077623	-0.006181986	-0.0004669961	
0.002411311	-0.001240523	-0.5120354	0.06722891	-0.007694321	3.491596e-05	0.003140712	0.2324788	
0.02224739	0.2077623	-0.007694321	3.491596e-05	-0.6836687	-0.04924586	0.001907877	-0.0009479501	
-0.006181986	-0.0004669961	0.003140712	0.2324788	0.001907877	-0.0009479501	-0.6370953	-0.05529046	

3.58e+10	-0.5689496	0.1006284	0.00148211	-0.002477406	0.01691864	0.2037387	-0.005264884	0.003174728	
0.00148211	-0.002477406	-0.5115186	0.06861465	-0.006236289	0.004529266	0.003983444	0.233346	
0.01691864	0.2037387	-0.006236289	0.004529266	-0.68355	-0.04168796	0.001253835	-0.001756255	
-0.005264884	0.003174728	0.003983444	0.233346	0.001253835	-0.001756255	-0.6377871	-0.05389279	

3.582e+10	-0.5643729	0.1117488	-0.0001043124	-0.003087538	0.01073405	0.2011238	-0.002449614	0.005593633	
-0.0001043124	-0.003087538	-0.5108814	0.06989121	-0.002425301	0.007329142	0.005423392	0.2339471	
0.01073405	0.2011238	-0.002425301	0.007329142	-0.6825924	-0.03362318	0.0002545792	-0.002227499	
-0.002449614	0.005593633	0.005423392	0.2339471	0.0002545792	-0.002227499	-0.6382024	-0.05190913	

3.584e+10	-0.5577617	0.1224278	-0.001927129	-0.00268881	0.003953539	0.2000809	0.001219805	0.005959852	
-0.001927129	-0.00268881	-0.5101024	0.07114557	0.002316361	0.00738023	0.006969881	0.2338762	
0.003953539	0.2000809	0.002316361	0.00738023	-0.6804107	-0.02554411	-0.000950212	-0.002166698	
0.001219805	0.005959852	0.006969881	0.2338762	-0.000950212	-0.002166698	-0.6379249	-0.04998173	

3.586e+10	-0.5491181	0.1323385	-0.003326363	-0.001204127	-0.003083485	0.2007463	0.004434086	0.004158062	
-0.003326363	-0.001204127	-0.50945	0.07205195	0.006208097	0.004639351	0.008026158	0.233342	
-0.003083485	0.2007463	0.006208097	0.004639351	-0.676911	-0.01760732	-0.002066307	-0.001439868	
0.004434086	0.004158062	0.008026158	0.233342	-0.002066307	-0.001439868	-0.6372605	-0.04858702	

3.588e+10	-0.5387171	0.1408274	-0.003638136	0.000992552	-0.009991194	0.2031945	0.006028701	0.0008206524	
-0.003638136	0.000992552	-0.509093	0.07299866	0.007758351	0.0001213605	0.008433684	0.2329974	
-0.009991194	0.2031945	0.007758351	0.0001213605	-0.6722725	-0.01020882	-0.002683584	-0.0001040311	
0.006028701	0.0008206524	0.008433684	0.2329974	-0.002683584	-0.0001040311	-0.636942	-0.04789191	

3.59e+10	-0.5268176	0.1475858	-0.002515732	0.00310778	-0.01642931	0.20732	0.005389749	-0.002839769	
-0.002515732	0.00310778	-0.5088705	0.07432688	0.006355372	-0.00445256	0.008622585	0.2332607	
-0.01642931	0.20732	0.006355372	-0.00445256	-0.6666802	-0.003607122	-0.002432847	0.001489683	
0.005389749	-0.002839769	0.008622585	0.2332607	-0.002432847	0.001489683	-0.637399	-0.04714321	

3.592e+10	-0.513757	0.1522793	-0.0001999212	0.004206552	-0.0221291	0.213084	0.002730362	-0.005453596	
-0.0001999212	0.004206552	-0.50844	0.07580543	0.00253008	-0.007328766	0.009225209	0.2340683	
-0.0221291	0.213084	0.00253008	-0.007328766	-0.6602567	0.002074265	-0.001223008	0.00274563	
0.002730362	-0.005453596	0.009225209	0.2340683	-0.001223008	0.00274563	-0.6382544	-0.04586261	

3.594e+10	-0.499886	0.154645	0.002459347	0.003652729	-0.02677739	0.2204698	-0.0009663714	-0.006030562	
0.002459347	0.003652729	-0.5075666	0.077306	-0.002255263	-0.007404356	0.01049089	0.2348258	
-0.02677739	0.2204698	-0.002255263	-0.007404356	-0.6531154	0.006725656	0.0006002419	0.003078224	
-0.0009663714	-0.006030562	0.01049089	0.2348258	0.0006002419	0.003078224	-0.6387198	-0.04365555	

3.596e+10	-0.4858289	0.1544874	0.004315471	0.001494113	-0.02986635	0.2293939	-0.004320055	-0.004333648	
0.004315471	0.001494113	-0.5065263	0.07841442	-0.006159108	-0.004647966	0.012106	0.2349984	
-0.02986635	0.2293939	-0.006159108	-0.004647966	-0.6455738	0.009916082	0.00234762	0.002236624	
-0.004320055	-0.004333648	0.012106	0.2349984	0.00234762	0.002236624	-0.6383376	-0.04172697	

3.598e+10	-0.4721461	0.1517713	0.00446609	-0.0014575	-0.03085333	0.239521	-0.006052974	-0.0009706129	
0.00446609	-0.0014575	-0.5057999	0.0791157	-0.007674023	-0.0001285915	0.01343346	0.2345456	
-0.03085333	0.239521	-0.007674023	-0.0001285915	-0.6380766	0.01202889	0.003293106	0.0004673239	
-0.006052974	-0.0009706129	0.01343346	0.2345456	0.003293106	0.0004673239	-0.6375424	-0.04022248	

3.6e+10	-0.4593918	0.1468757	0.00272667	-0.003943544	-0.02936346	0.250223	-0.005460288	0.002789362	
0.00272667	-0.003943544	-0.5055425	0.07997962	-0.006229174	0.004376313	0.01406356	0.2339577	
-0.02936346	0.250223	-0.006229174	0.004376313	-0.6308616	0.01321467	0.003003065	-0.001569564	
-0.005460288	0.002789362	0.01406356	0.2339577	0.003003065	-0.001569564	-0.6371251	-0.03952635	

3.602e+10	-0.4478274	0.1399973	-0.0002258638	-0.004854248	-0.02533062	0.2608731	-0.002740147	0.005464799	
-0.0002258638	-0.004854248	-0.505464	0.08123369	-0.002446321	0.007124824	0.01419302	0.2339298	
-0.02533062	0.2608731	-0.002446321	0.007124824	-0.6238691	0.01372181	0.001535692	-0.003063767	
-0.002740147	0.005464799	0.01419302	0.2339298	0.001535692	-0.003063767	-0.6375287	-0.03899292	

3.604e+10	-0.4376158	0.1313743	-0.003147068	-0.003745217	-0.01874586	0.2709323	0.001027344	0.005985676	
-0.003147068	-0.003745217	-0.5050241	0.0828819	0.002159565	0.007122713	0.01451858	0.2346212	
-0.01874586	0.2709323	0.002159565	0.007122713	-0.616886	0.01378366	-0.0005490771	-0.003394985	
0.001027344	0.005985676	0.01451858	0.2346212	-0.0005490771	-0.003394985	-0.6383876	-0.03770359	

3.606e+10	-0.4290087	0.1212355	-0.00477201	-0.001064047	-0.009620112	0.2798247	0.004330845	0.004173055	
-0.00477201	-0.001064047	-0.5040857	0.08444546	0.005834896	0.004469835	0.01557539	0.2355556	
-0.009620112	0.2798247	0.005834896	0.004469835	-0.6098072	0.01319956	-0.002413024	-0.002424845	
0.004330845	0.004173055	0.01557539	0.2355556	-0.002413024	-0.002424845	-0.6389384	-0.03561034	

3.608e+10	-0.4222017	0.1098966	-0.004400971	0.002030738	0.001942295	0.2868134	0.005892908	0.0007935584	
-0.004400971	0.002030738	-0.502961	0.08552103	0.00725651	0.0002406852	0.01725814	0.2359697	
0.001942295	0.2868134	0.00725651	0.0002406852	-0.6025349	0.01177966	-0.003330095	-0.000572215	
0.005892908	0.0007935584	0.01725814	0.2359697	-0.003330095	-0.000572215	-0.6386777	-0.03358345	

3.61e+10	-0.4172955	0.09756846	-0.002240815	0.004207271	0.01545968	0.2910998	0.00515736	-0.002811884	
-0.002240815	0.004207271	-0.5021112	0.08627849	0.005983169	-0.00396498	0.0188424	0.2355777	
0.01545968	0.2910998	0.005983169	-0.00396498	-0.5950216	0.009658978	-0.003007941	0.001416071	
0.00515736	-0.002811884	0.0188424	0.2355777	-0.003007941	0.001416071	-0.6378745	-0.03186688	

3.612e+10	-0.4143808	0.08430672	0.0007201614	0.004598854	0.0301595	0.2920469	0.002454423	-0.005248452	
0.0007201614	0.004598854	-0.5017485	0.08702779	0.00256304	-0.00662746	0.01966457	0.234818	
0.0301595	0.2920469	0.00256304	-0.00662746	-0.5870756	0.006353018	-0.001646966	0.002821835	
0.002454423	-0.005248452	0.01966457	0.234818	-0.001646966	0.002821835	-0.6372583	-0.03116713	

3.614e+10	-0.4137413	0.07005338	0.003224653	0.003164767	0.0450832	0.2893489	-0.001121003	-0.005584703	
0.003224653	0.003164767	-0.5016538	0.08809403	-0.00171958	-0.006835834	0.01976484	0.2345387	
0.0450832	0.2893489	-0.00171958	-0.006835834	-0.5787285	0.001313096	0.0002191798	0.00320762	
-0.001121003	-0.005584703	0.01976484	0.2345387	0.0002191798	0.00320762	-0.6374051	-0.03061676	

3.616e+10	-0.4158243	0.05533509	0.00431686	0.0006196082	0.05924459	0.2828725	-0.004124235	-0.003750134	
0.00431686	0.0006196082	-0.5013548	0.08966606	-0.005319685	-0.004565968	0.01990877	0.2351186	
0.05924459	0.2828725	-0.005319685	-0.004565968	-0.5705155	-0.006273398	0.001942067	0.002505323	
-0.004124235	-0.003750134	0.01990877	0.2351186	0.001942067	0.002505323	-0.6382116	-0.02965076	

3.618e+10	-0.4212388	0.04048649	0.003705579	-0.001948196	0.07152864	0.2727673	-0.00540274	-0.0005707112	
0.003705579	-0.001948196	-0.5005666	0.09132941	-0.00696164	-0.0006519398	0.02081513	0.2361143	
0.07152864	0.2727673	-0.00696164	-0.0006519398	-0.5634377	-0.01652559	0.002970739	0.001003344	
-0.00540274	-0.0005707112	0.02081513	0.2361143	0.002970739	0.001003344	-0.6389561	-0.0277857	

3.62e+10	-0.4302821	0.02654332	0.001809569	-0.003567164	0.08070263	0.259553	-0.004572472	0.002642046	
0.001809569	-0.003567164	-0.4993888	0.09264641	-0.006047841	0.003505811	0.02246006	0.2366767	
0.08070263	0.259553	-0.006047841	0.003505811	-0.5587326	-0.02967309	0.003017719	-0.0007863943	
-0.004572472	0.002642046	0.02246006	0.2366767	0.003017719	-0.0007863943	-0.6389538	-0.02543964	

3.622e+10	-0.4429115	0.01453811	-0.0005148649	-0.003775758	0.08567862	0.2443862	-0.002093755	0.004678458	
-0.0005148649	-0.003775758	-0.4982926	0.09334295	-0.002869808	0.006376681	0.02414503	0.2363901	
0.08567862	0.2443862	-0.002869808	0.006376681	-0.5575981	-0.04486328	0.002105856	-0.002314711	
-0.002093755	0.004678458	0.02414503	0.2363901	0.002105856	-0.002314711	-0.6381829	-0.02362417	

3.624e+10	-0.4586148	0.005683371	-0.002416731	-0.002718205	0.08595785	0.2288812	0.001000347	0.004865121	
-0.002416731	-0.002718205	-0.4976705	0.09394586	0.001411545	0.006837724	0.02514027	0.2356327	
0.08595785	0.2288812	0.001411545	0.006837724	-0.5608417	-0.06072883	0.0004999113	-0.003131549	
0.001000347	0.004865121	0.02514027	0.2356327	0.0004999113	-0.003131549	-0.6372998	-0.0225891	

3.626e+10	-0.476369	0.0009977063	-0.003374826	-0.0009219819	0.08187179	0.2148172	0.00352185	0.003265496	
-0.003374826	-0.0009219819	-0.4975714	0.09473683	0.005135083	0.004676336	0.02536772	0.2351959	
0.08187179	0.2148172	0.005135083	0.004676336	-0.5687924	-0.0760952	-0.001346904	-0.002943251	
0.00352185	0.003265496	0.02536772	0.2351959	-0.001346904	-0.002943251	-0.6371216	-0.02224878	

3.628e+10	-0.4948195	0.0006908988	-0.003253414	0.00101208	0.07446086	0.2034629	0.004595123	0.0006120102	
-0.003253414	0.00101208	-0.4974915	0.096162	0.006839515	0.0007562736	0.02548766	0.2355752	
0.07446086	0.2034629	0.006839515	0.0007562736	-0.5811257	-0.08892472	-0.002827707	-0.001715894	
0.004595123	0.0006120102	0.02548766	0.2355752	-0.002827707	-0.001715894	-0.637838	-0.02149361	

3.63e+10	-0.5125455	0.005009699	-0.002178622	0.002564402	0.06509143	0.195467	0.003976553	-0.00205509	
-0.002178622	0.002564402	-0.4969296	0.09794414	0.005907879	-0.003360372	0.02621612	0.236441	
0.06509143	0.195467	0.005907879	-0.003360372	-0.5968386	-0.09805697	-0.003365975	0.0001946703	
0.003976553	-0.00205509	0.02621612	0.236441	-0.003365975	0.0001946703	-0.6387781	-0.01996281	

3.632e+10	-0.5282877	0.01309559	-0.0004619087	0.003332642	0.05508911	0.1908482	0.002041487	-0.003825454	
-0.0004619087	0.003332642	-0.4957046	0.09959149	0.002784934	-0.006093779	0.02767138	0.2370907	
0.05508911	0.1908482	0.002784934	-0.006093779	-0.6142353	-0.1025673	-0.002698201	0.002107308	
0.002041487	-0.003825454	0.02767138	0.2370907	-0.002698201	0.002107308	-0.63904	-0.01751515	

3.634e+10	-0.5413276	0.02401353	0.001426123	0.003083586	0.0454809	0.1891797	-0.0004650301	-0.004195406	
0.001426123	0.003083586	-0.494321	0.1004809	-0.001274046	-0.006469952	0.02932823	0.2370123	
0.0454809	0.1891797	-0.001274046	-0.006469952	-0.6317333	-0.1026579	-0.001029311	0.00331288	
-0.0004650301	-0.004195406	0.02932823	0.2370123	-0.001029311	0.00331288	-0.6383321	-0.01548902	

3.636e+10	-0.5514314	0.03652937	0.002924759	0.001838114	0.03692745	0.1897807	-0.002693215	-0.003128942	
0.002924759	0.001838114	-0.4934219	0.1008363	-0.004717325	-0.004443828	0.03051406	0.2363988	
0.03692745	0.1897807	-0.004717325	-0.004443828	-0.6481875	-0.09883932	0.001059229	0.00334783	
-0.002693215	-0.003128942	0.03051406	0.2363988	0.001059229	0.00334783	-0.6372734	-0.01412791	

3.638e+10	-0.5587118	0.05006029	0.00352768	-7.608722e-05	0.02979092	0.1919722	-0.003914403	-0.001035692	
0.00352768	-7.608722e-05	-0.4932964	0.1013489	-0.00630335	-0.0008757835	0.0310069	0.2358707	
0.02979092	0.1919722	-0.00630335	-0.0008757835	-0.6628824	-0.09210046	0.002813725	0.002162951	
-0.003914403	-0.001035692	0.0310069	0.2358707	0.002813725	0.002162951	-0.6368008	-0.01378385	

3.64e+10	-0.56338	0.06379066	0.002966207	-0.002069332	0.02411562	0.1950549	-0.003743758	0.001340459	
0.002966207	-0.002069332	-0.4934095	0.1026293	-0.005560324	0.002862527	0.03121068	0.2359548	
0.02411562	0.1950549	-0.005560324	0.002862527	-0.6755621	-0.08306828	0.003574763	0.0001613037	
-0.003743758	0.001340459	0.03121068	0.2359548	0.003574763	0.0001613037	-0.6373302	-0.01335016	

3.642e+10	-0.5658134	0.07730559	0.001340614	-0.003466713	0.01968956	0.198526	-0.002283536	0.003169698	
0.001340614	-0.003466713	-0.4930594	0.1044433	-0.002873063	0.005451555	0.03175395	0.2365987	
0.01968956	0.198526	-0.002873063	0.005451555	-0.6859987	-0.07222242	0.003039065	-0.00192456	
-0.002283536	0.003169698	0.03175395	0.2365987	0.003039065	-0.00192456	-0.6383287	-0.01192219	

3.644e+10	-0.5662186	0.09059218	-0.0008688545	-0.003727785	0.01622426	0.2020898	-8.414927e-05	0.003838078	
-0.0008688545	-0.003727785	-0.4918259	0.1063365	0.0007541089	0.006047463	0.03291381	0.2372579	
0.01622426	0.2020898	0.0007541089	0.006047463	-0.694121	-0.06023945	0.00140046	-0.003326523	
-8.414927e-05	0.003838078	0.03291381	0.2372579	0.00140046	-0.003326523	-0.6388346	-0.009812567	

3.646e+10	-0.5650208	0.1029873	-0.002917287	-0.002656389	0.01347175	0.2056492	0.002068432	0.003156805	
-0.002917287	-0.002656389	-0.4902653	0.1072537	0.004047782	0.004490786	0.03443791	0.2374558	
0.01347175	0.2056492	0.004047782	0.004490786	-0.6999354	-0.04771681	-0.0007437989	-0.003544908	
0.002068432	0.003156805	0.03443791	0.2374558	-0.0007437989	-0.003544908	-0.6383364	-0.007464858	

3.648e+10	-0.5624653	0.1148439	-0.004032066	-0.0005265366	0.01128719	0.2091557	0.003431302	0.001408399	
-0.004032066	-0.0005265366	-0.489128	0.1076313	0.005854658	0.001346489	0.03581421	0.2370903	
0.01128719	0.2091557	0.005854658	0.001346489	-0.7037185	-0.03503318	-0.002637158	-0.002507823	
0.003431302	0.001408399	0.03581421	0.2370903	-0.002637158	-0.002507823	-0.6372427	-0.00589482	

3.65e+10	-0.5588227	0.1260386	-0.003707985	0.001944259	0.0095624	0.212545	0.003564819	-0.0007579208	
-0.003707985	0.001944259	-0.4888672	0.1079318	0.005536301	-0.002245358	0.03665844	0.2365261	
0.0095624	0.212545	0.005536301	-0.002245358	-0.7056977	-0.02230073	-0.00361869	-0.0005744391	
0.003564819	-0.0007579208	0.03665844	0.2365261	-0.00361869	-0.0005744391	-0.6364777	-0.005332268	

3.652e+10	-0.5542477	0.1365466	-0.001956631	0.003836793	0.008080828	0.2157487	0.002484358	-0.002582803	
-0.001956631	0.003836793	-0.4890886	0.1089658	0.00323117	-0.004995011	0.03704023	0.2362641	
0.008080828	0.2157487	0.00323117	-0.004995011	-0.7059529	-0.009734367	-0.003334483	0.001593325	
0.002484358	-0.002582803	0.03704023	0.2362641	-0.003334483	0.001593325	-0.6366704	-0.0050005	

3.654e+10	-0.5485585	0.146678	0.0006528856	0.004378491	0.006598857	0.2188605	0.0006131867	-0.003481107	
0.0006528856	0.004378491	-0.4888616	0.1108872	-0.0002234597	-0.005932893	0.03739431	0.2365526	
0.006598857	0.2188605	-0.0002234597	-0.005932893	-0.7045057	0.002459199	-0.001857049	0.003238657	
0.0006131867	-0.003481107	0.03739431	0.2365526	-0.001857049	0.003238657	-0.6375874	-0.004006133	

3.656e+10	-0.5417306	0.1560553	0.003170518	0.003261112	0.004973647	0.2220743	-0.001409628	-0.003209701	
0.003170518	0.003261112	-0.4877792	0.1127024	-0.003600941	-0.0047252	0.03818537	0.2372061	
0.004973647	0.2220743	-0.003600941	-0.0047252	-0.7013687	0.01407926	0.0003181937	0.003763272	
-0.001409628	-0.003209701	0.03818537	0.2372061	0.0003181937	0.003763272	-0.6383568	-0.002005464	

3.658e+10	-0.5337147	0.164702	0.004597431	0.0007981556	0.003202185	0.2256573	-0.002948277	-0.001888403	
0.004597431	0.0007981556	-0.4861473	0.1139353	-0.005683027	-0.001774419	0.03953342	0.2376948	
0.003202185	0.2256573	-0.005683027	-0.001774419	-0.6967581	0.02481836	0.002436671	0.002950249	
-0.002948277	-0.001888403	0.03953342	0.2376948	0.002436671	0.002950249	-0.6382098	0.0004455546	

3.66e+10	-0.5245382	0.1723579	0.004279081	-0.002118758	0.001379876	0.2298259	-0.00352299	7.072044e-05	
0.004279081	-0.002118758	-0.4848198	0.1143385	-0.005663857	0.001866564	0.04109579	0.2376225	
0.001379876	0.2298259	-0.005663857	0.001866564	-0.6909044	0.03439526	0.003742293	0.00104367	
-0.00352299	7.072044e-05	0.04109579	0.2376225	0.003742293	0.00104367	-0.6371861	0.002224208	

3.662e+10	-0.5143189	0.1787023	0.002232151	-0.00432675	-0.0003604578	0.2346897	-0.00291657	0.002058939	
0.002232151	-0.00432675	-0.4843609	0.1144981	-0.003507919	0.004821154	0.04229751	0.2370256	
-0.0003604578	0.2346897	-0.003507919	0.004821154	-0.6840151	0.04291473	0.003725864	-0.001316764	
-0.00291657	0.002058939	0.04229751	0.2370256	0.003725864	-0.001316764	-0.6361019	0.003219628	

3.664e+10	-0.5031205	0.1836183	-0.0007890884	-0.004885485	-0.001901376	0.2404825	-0.00125839	0.003407353	
-0.0007890884	-0.004885485	-0.4844327	0.1154081	-2.533734e-05	0.005949646	0.04284003	0.2364606	
-0.001901376	0.2404825	-2.533734e-05	0.005949646	-0.676193	0.05001249	0.002316855	-0.003284473	
-0.00125839	0.003407353	0.04284003	0.2364606	0.002316855	-0.003284473	-0.6358913	0.003329549	

3.666e+10	-0.4913302	0.1865407	-0.003594188	-0.003501303	-0.002936252	0.2473926	0.0009402603	0.003577191	
-0.003594188	-0.003501303	-0.48437	0.116913	0.003453271	0.004820278	0.04302698	0.2364572	
-0.002936252	0.2473926	0.003453271	0.004820278	-0.6677094	0.05571706	-2.933156e-05	-0.004078995	
0.0009402603	0.003577191	0.04302698	0.2364572	-2.933156e-05	-0.004078995	-0.6366767	0.004111536	

3.668e+10	-0.4794106	0.187493	-0.005031364	-0.0006686462	-0.002952579	0.2555329	0.002884444	0.002408692	
-0.005031364	-0.0006686462	-0.4835167	0.1188526	0.005599106	0.00186518	0.04352889	0.237077	
-0.002952579	0.2555329	0.005599106	0.00186518	-0.6589582	0.05962203	-0.002435922	-0.003324612	
0.002884444	0.002408692	0.04352889	0.237077	-0.002435922	-0.003324612	-0.6376437	0.00578723	

3.67e+10	-0.4679297	0.1864011	-0.004463164	0.002503587	-0.001404439	0.2646963	0.003793863	0.0002761475	
-0.004463164	0.002503587	-0.4820316	0.1202733	0.005584845	-0.001776553	0.04473115	0.2377792	
-0.001404439	0.2646963	0.005584845	-0.001776553	-0.650477	0.06194639	-0.003944073	-0.001273901	
0.003793863	0.0002761475	0.04473115	0.2377792	-0.003944073	-0.001273901	-0.6378282	0.008126948	

3.672e+10	-0.4572048	0.1837025	-0.00206356	0.00470092	0.0021749	0.2744714	0.003261449	-0.002018797	
-0.00206356	0.00470092	-0.480518	0.1209653	0.003421382	-0.004679179	0.04638116	0.2379009	
0.0021749	0.2744714	0.003421382	-0.004679179	-0.6425476	0.06311557	-0.003949301	0.001280158	
0.003261449	-0.002018797	0.04638116	0.2379009	-0.003949301	0.001280158	-0.6369761	0.01034002	

3.674e+10	-0.4474875	0.1796167	0.001181402	0.004982144	0.007962161	0.2843385	0.001454254	-0.003568882	
0.001181402	0.004982144	-0.4796366	0.1211886	2.688559e-06	-0.005705299	0.04780492	0.2373639	
0.007962161	0.2843385	2.688559e-06	-0.005705299	-0.6352932	0.06341069	-0.002450107	0.003343972	
0.001454254	-0.003568882	0.04780492	0.2373639	-0.002450107	0.003343972	-0.6357353	0.01154077	

3.676e+10	-0.4388598	0.1745548	0.00390683	0.003240749	0.01615371	0.2938063	-0.0009372267	-0.003739542	
0.00390683	0.003240749	-0.4795095	0.1216908	-0.003283931	-0.004521603	0.04851668	0.2366274	
0.01615371	0.2938063	-0.003283931	-0.004521603	-0.6286531	0.06308038	-3.204281e-05	0.004125576	
-0.0009372267	-0.003739542	0.04851668	0.2366274	-3.204281e-05	0.004125576	-0.6351192	0.01186225	

3.678e+10	-0.4314977	0.168581	0.005002958	0.0002499986	0.02680616	0.3022637	-0.002956506	-0.002443228	
0.005002958	0.0002499986	-0.4796099	0.1228753	-0.00518183	-0.001709714	0.0487095	0.2364142	
0.02680616	0.3022637	-0.00518183	-0.001709714	-0.6226144	0.06236468	0.002360235	0.003339778	
-0.002956506	-0.002443228	0.0487095	0.2364142	0.002360235	0.003339778	-0.6356028	0.0122042	

3.68e+10	-0.4252035	0.1622844	0.004095248	-0.002741012	0.03989823	0.3090149	-0.003785913	-0.0002129911	
0.004095248	-0.002741012	-0.4791225	0.1248021	-0.005082892	0.001577307	0.04907484	0.2368902	
0.03989823	0.3090149	-0.005082892	0.001577307	-0.6169743	0.06158222	0.003811732	0.001330295	
-0.003785913	-0.0002129911	0.04907484	0.2368902	0.003811732	0.001330295	-0.6366456	0.01355816	

3.682e+10	-0.4197759	0.1556964	0.00163005	-0.004554808	0.05501129	0.3133275	-0.003128092	0.002030631	
0.00163005	-0.004554808	-0.477796	0.1265068	-0.003161834	0.004119094	0.05008917	0.2375874	
0.05501129	0.3133275	-0.003161834	0.004119094	-0.6114133	0.06081161	0.003823333	-0.001091558	
-0.003128092	0.002030631	0.05008917	0.2375874	0.003823333	-0.001091558	-0.6371943	0.01579525	

3.684e+10	-0.4148753	0.148792	-0.001365157	-0.00453592	0.07166395	0.314642	-0.001308608	0.0034126	
-0.001365157	-0.00453592	-0.4760469	0.1275564	-0.0002141746	0.005065674	0.05163583	0.2378803	
0.07166395	0.314642	-0.0002141746	0.005065674	-0.6054548	0.05979214	0.002477511	-0.003034591	
-0.001308608	0.0034126	0.05163583	0.2378803	0.002477511	-0.003034591	-0.6366291	0.01822747	

3.686e+10	-0.4104233	0.1411598	-0.003693964	-0.002777542	0.08917038	0.3125174	0.000919724	0.003454151	
-0.003693964	-0.002777542	-0.4747959	0.1276654	0.002658869	0.004179542	0.0531373	0.2375084	
0.08917038	0.3125174	0.002658869	0.004179542	-0.5988298	0.05808271	0.0003163576	-0.003858653	
0.000919724	0.003454151	0.0531373	0.2375084	0.0003163576	-0.003858653	-0.6353098	0.01985442	

3.688e+10	-0.4066229	0.1325122	-0.00449134	-6.42831e-05	0.1068769	0.3065639	0.00269873	0.002209593	
-0.00449134	-6.42831e-05	-0.4744586	0.1278411	0.004464986	0.001884798	0.05409553	0.2368202	
0.1068769	0.3065639	0.004464986	0.001884798	-0.5916009	0.0551936	-0.001901035	-0.003339637	
0.00269873	0.002209593	0.05409553	0.2368202	-0.001901035	-0.003339637	-0.6343028	0.02037704	

3.69e+10	-0.403933	0.1225702	-0.003567188	0.002496844	0.1238934	0.2964092	0.003385537	0.0002140915	
-0.003567188	0.002496844	-0.4746915	0.128704	0.004662019	-0.0009503629	0.05449474	0.2364003	
0.1238934	0.2964092	0.004662019	-0.0009503629	-0.5841895	0.05028814	-0.003441944	-0.001683957	
0.003385537	0.0002140915	0.05449474	0.2364003	-0.003441944	-0.001683957	-0.6344291	0.02049195	

3.692e+10	-0.4029915	0.1112294	-0.001408391	0.003974968	0.1389199	0.2818876	0.002789157	-0.00173603	
-0.001408391	0.003974968	-0.4744734	0.1306027	0.003277419	-0.003366245	0.05479642	0.2365769	
0.1389199	0.2818876	0.003277419	-0.003366245	-0.577368	0.04290585	-0.003800235	0.0005455913	
0.002789157	-0.00173603	0.05479642	0.2365769	-0.003800235	0.0005455913	-0.6354493	0.02141312	

3.694e+10	-0.4046643	0.09879619	0.001105259	0.003934194	0.1504795	0.2633378	0.001232808	-0.00291818	
0.001105259	0.003934194	-0.473302	0.1325046	0.0008072332	-0.00460011	0.05554264	0.2371423	
0.1504795	0.2633378	0.0008072332	-0.00460011	-0.5722495	0.0329957	-0.002850488	0.002610161	
0.001232808	-0.00291818	0.05554264	0.2371423	-0.002850488	0.002610161	-0.6362783	0.02344247	

3.696e+10	-0.4098702	0.08592502	0.003064354	0.002511094	0.1570992	0.2418561	-0.0006260786	-0.00298127	
0.003064354	0.002511094	-0.4714939	0.133686	-0.001937881	-0.004244436	0.05685241	0.2375927	
0.1570992	0.2418561	-0.001937881	-0.004244436	-0.5701395	0.02110535	-0.0008828604	0.003808921	
-0.0006260786	-0.00298127	0.05685241	0.2375927	-0.0008828604	0.003808921	-0.6360346	0.02610175	

3.698e+10	-0.4190301	0.07426342	0.003830484	0.000312379	0.1578292	0.2192386	-0.002109364	-0.002032724	
0.003830484	0.000312379	-0.4699411	0.1339549	-0.00401518	-0.002384987	0.0583885	0.2375185	
0.1578292	0.2192386	-0.00401518	-0.002384987	-0.5721414	0.008188875	0.001466782	0.003689422	
-0.002109364	-0.002032724	0.0583885	0.2375185	0.001466782	0.003689422	-0.6347806	0.02804813	

3.7e+10	-0.4319298	0.06524614	0.00324522	-0.00184879	0.1526077	0.1974869	-0.002781758	-0.0005065343	
0.00324522	-0.00184879	-0.4693655	0.133968	-0.004658216	0.0003453478	0.05963412	0.2369408	
0.1526077	0.1974869	-0.004658216	0.0003453478	-0.5785786	-0.003635364	0.003377027	0.002211296	
-0.002781758	-0.0005065343	0.05963412	0.2369408	0.003377027	0.002211296	-0.6335172	0.02876785	

3.702e+10	-0.4472406	0.06046931	0.001620038	-0.003266981	0.1422853	0.1784995	-0.002535859	0.001066498	
0.001620038	-0.003266981	-0.4695187	0.1346323	-0.003614323	0.002953026	0.06029586	0.2363088	
0.1422853	0.1784995	-0.003614323	0.002953026	-0.5886965	-0.01253702	0.004094194	-0.0001595016	
-0.002535859	0.001066498	0.06029586	0.2363088	0.004094194	-0.0001595016	-0.6332474	0.0287556	

3.704e+10	-0.4632276	0.06040942	-0.0004554884	-0.00356008	0.1283413	0.1634681	-0.001528919	0.002233767	
-0.0004554884	-0.00356008	-0.4695064	0.1362265	-0.001269273	0.0044915	0.06059599	0.2361598	
0.1283413	0.1634681	-0.001269273	0.0044915	-0.6008177	-0.01741204	0.003269496	-0.002544409	
-0.001528919	0.002233767	0.06059599	0.2361598	0.003269496	-0.002544409	-0.6340712	0.0293475	

3.706e+10	-0.4782259	0.06482867	-0.002336151	-0.002694075	0.1122718	0.1526607	-7.604341e-05	0.002695428	
-0.002336151	-0.002694075	-0.4685477	0.1382566	0.001542557	0.004416462	0.06107539	0.2365527	
0.1122718	0.1526607	0.001542557	0.004416462	-0.6131463	-0.01798354	0.001174741	-0.004002257	
-7.604341e-05	0.002695428	0.06107539	0.2365527	0.001174741	-0.004002257	-0.6350455	0.03117001	

3.708e+10	-0.4909449	0.07284669	-0.003446963	-0.0009391037	0.09533843	0.1459146	0.001414201	0.002320292	
-0.003446963	-0.0009391037	-0.4667871	0.1396877	0.003822905	0.002733602	0.06211171	0.2371098	
0.09533843	0.1459146	0.003822905	0.002733602	-0.6242662	-0.01514772	-0.001387477	-0.003950957	
0.001414201	0.002320292	0.06211171	0.2371098	-0.001387477	-0.003950957	-0.6351449	0.03373118	

3.71e+10	-0.5007068	0.08343028	-0.00340595	0.001164125	0.07839278	0.1428084	0.002499181	0.001180824	
-0.00340595	0.001164125	-0.4651063	0.1400696	0.004725174	1.559511e-05	0.06362083	0.2373202	
0.07839278	0.1428084	0.004725174	1.559511e-05	-0.633357	-0.009617862	-0.00343969	-0.002409392	
0.002499181	0.001180824	0.06362083	0.2373202	-0.00343969	-0.002409392	-0.6341447	0.03589831	

3.712e+10	-0.5071834	0.09546663	-0.002172874	0.002916197	0.06185346	0.1428323	0.002798997	-0.0004224641	
-0.002172874	0.002916197	-0.4642095	0.1400647	0.003870678	-0.002750138	0.06509978	0.2369084	
0.06185346	0.1428323	0.003870678	-0.002750138	-0.6400248	-0.002569238	-0.004212945	4.632562e-05	
0.002798997	-0.0004224641	0.06509978	0.2369084	-0.004212945	4.632562e-05	-0.6327569	0.03703858	

3.714e+10	-0.5102767	0.1079973	-0.0001285865	0.003678553	0.04604674	0.1456338	0.002125529	-0.001985906	
-0.0001285865	0.003678553	-0.4641637	0.1404929	0.001543855	-0.004511029	0.06605026	0.2361676	
0.04604674	0.1456338	0.001543855	-0.004511029	-0.6439774	0.005395099	-0.003406971	0.002507249	
0.002125529	-0.001985906	0.06605026	0.2361676	-0.003406971	0.002507249	-0.6320751	0.03722007	

3.716e+10	-0.5102192	0.1199527	0.002029638	0.003133623	0.03112299	0.1510571	0.0006151603	-0.002925217	
0.002029638	0.003133623	-0.4642303	0.1417523	-0.00139742	-0.004579328	0.06641686	0.2357011	
0.03112299	0.1510571	-0.00139742	-0.004579328	-0.6451931	0.01328956	-0.001297674	0.004044206	
0.0006151603	-0.002925217	0.06641686	0.2357011	-0.001297674	0.004044206	-0.6325347	0.03757948	

3.718e+10	-0.5075114	0.1304956	0.003523199	0.001410891	0.01738816	0.1590524	-0.001230925	-0.002804125	
0.003523199	0.001410891	-0.4635465	0.1436689	-0.003842178	-0.002891086	0.06669877	0.2358813	
0.01738816	0.1590524	-0.003842178	-0.002891086	-0.6440091	0.02001378	0.001332627	0.004045354	
-0.001230925	-0.002804125	0.06669877	0.2358813	0.001332627	0.004045354	-0.6335194	0.03885869	

3.72e+10	-0.5029003	0.1390886	0.003745638	-0.000924732	0.005197697	0.1695403	-0.002695521	-0.001575135	
0.003745638	-0.000924732	-0.4620058	0.1453153	-0.004821061	-4.796332e-05	0.0674835	0.2364796	
0.005197697	0.1695403	-0.004821061	-4.796332e-05	-0.6411684	0.02485535	0.003466526	0.002477765	
-0.002695521	-0.001575135	0.0674835	0.2364796	0.003466526	0.002477765	-0.6339714	0.04121932	

3.722e+10	-0.4972717	0.1453182	0.00251229	-0.002996472	-0.004902239	0.1823441	-0.003147819	0.0003302936	
0.00251229	-0.002996472	-0.4602322	0.1460827	-0.003886541	0.002839313	0.06889739	0.236884	
-0.004902239	0.1823441	-0.003886541	0.002839313	-0.6376318	0.02739362	0.004248291	-5.892072e-05	
-0.003147819	0.0003302936	0.06889739	0.236884	0.004248291	-5.892072e-05	-0.6333196	0.04361962	

3.724e+10	-0.4914482	0.1493134	0.0002380827	-0.003930897	-0.01240268	0.1970801	-0.002352283	0.002155471	
0.0002380827	-0.003930897	-0.4589992	0.1461323	-0.00138797	0.004565481	0.070505	0.2366401	
-0.01240268	0.1970801	-0.00138797	0.004565481	-0.6343705	0.02758628	0.003358772	-0.00255481	
-0.002352283	0.002155471	0.070505	0.2366401	0.003358772	-0.00255481	-0.6319764	0.04518977	

3.726e+10	-0.4862361	0.1512595	-0.002154442	-0.003292333	-0.01684646	0.2132456	-0.0005983602	0.003139691	
-0.002154442	-0.003292333	-0.4586272	0.1462784	0.001609743	0.004407646	0.07167674	0.2359011	
-0.01684646	0.2132456	0.001609743	0.004407646	-0.6322723	0.02583681	0.001162007	-0.004006701	
-0.0005983602	0.003139691	0.07167674	0.2359011	0.001162007	-0.004006701	-0.6309194	0.04566761	

3.728e+10	-0.4822958	0.1516972	-0.003662985	-0.001341187	-0.01785119	0.2301588	0.00139556	0.002854743	
-0.003662985	-0.001341187	-0.4586759	0.1471764	0.003838339	0.002497793	0.07218618	0.2352437	
-0.01785119	0.2301588	0.003838339	0.002497793	-0.6321012	0.02273623	-0.001431939	-0.003840108	
0.00139556	0.002854743	0.07218618	0.2352437	-0.001431939	-0.003840108	-0.6309034	0.04588784	

3.73e+10	-0.4800534	0.1513603	-0.003686082	0.001089768	-0.01527271	0.246878	0.002787559	0.001427694	
-0.003686082	0.001089768	-0.4583141	0.1489153	0.004434535	-0.0002805436	0.07242312	0.2351813	
-0.01527271	0.246878	0.004434535	-0.0002805436	-0.6342708	0.01915712	-0.003351529	-0.002179004	
0.002787559	0.001427694	0.07242312	0.2351813	-0.003351529	-0.002179004	-0.6317644	0.04672646	

3.732e+10	-0.4795076	0.1510962	-0.002273087	0.00300665	-0.009322471	0.2624945	0.003018895	-0.0005077684	
-0.002273087	0.00300665	-0.4571165	0.150646	0.003282547	-0.00276377	0.07301879	0.2356672	
-0.009322471	0.2624945	0.003282547	-0.00276377	-0.6388125	0.01628162	-0.003866118	0.0002222419	
0.003018895	-0.0005077684	0.07301879	0.2356672	-0.003866118	0.0002222419	-0.6325203	0.04866978	

3.734e+10	-0.480258	0.1516091	-5.07904e-05	0.003678749	-0.000588134	0.2762094	0.002069162	-0.002135061	
-5.07904e-05	0.003678749	-0.4552957	0.1517215	0.0009740447	-0.004009069	0.07423479	0.2361467	
-0.000588134	0.2762094	0.0009740447	-0.004009069	-0.6452187	0.0148674	-0.002889621	0.002361761	
0.002069162	-0.002135061	0.07423479	0.2361467	-0.002889621	0.002361761	-0.6323088	0.05109651	

3.736e+10	-0.4818091	0.1533018	0.002065606	0.002916388	0.01019538	0.2876394	0.0004060197	-0.002847499	
0.002065606	0.002916388	-0.4537009	0.1519823	-0.00149952	-0.003652575	0.07579702	0.2361225	
0.01019538	0.2876394	-0.00149952	-0.003652575	-0.6527488	0.01538288	-0.0009372424	0.003461561	
0.0004060197	-0.002847499	0.07579702	0.2361225	-0.0009372424	0.003461561	-0.6310796	0.05310416	

3.738e+10	-0.4836314	0.1563951	0.003269824	0.00111932	0.02234759	0.2966595	-0.001283136	-0.002462781	
0.003269824	0.00111932	-0.4529936	0.1519213	-0.003188313	-0.002000025	0.07714916	0.2355369	
0.02234759	0.2966595	-0.003188313	-0.002000025	-0.6607219	0.01810941	0.00118089	0.003232876	
-0.001283136	-0.002462781	0.07714916	0.2355369	0.00118089	0.003232876	-0.6297201	0.05398606	

3.74e+10	-0.4853658	0.1606134	0.003197386	-0.0009460163	0.03531493	0.3032708	-0.002383743	-0.0012235	
0.003197386	-0.0009460163	-0.4530238	0.1524594	-0.003576692	0.0001874465	0.07793681	0.2347928	
0.03531493	0.3032708	-0.003576692	0.0001874465	-0.6685286	0.02287826	0.002703081	0.001897503	
-0.002383743	-0.0012235	0.07793681	0.2347928	0.002703081	0.001897503	-0.6292524	0.05405659	

3.742e+10	-0.4865182	0.1660982	0.002007961	-0.00251596	0.04860564	0.3076136	-0.002560639	0.0003525854	
0.002007961	-0.00251596	-0.4529198	0.1539219	-0.002704085	0.002082425	0.07826862	0.2344505	
0.04860564	0.3076136	-0.002704085	0.002082425	-0.6756963	0.02950154	0.003170065	2.922954e-05	
-0.002560639	0.0003525854	0.07826862	0.2344505	0.003170065	2.922954e-05	-0.6299019	0.05455542	

3.744e+10	-0.4867746	0.1726628	0.0002166655	-0.003110162	0.06185949	0.3098861	-0.001837373	0.001687185	
0.0002166655	-0.003110162	-0.4519508	0.1557956	-0.001018181	0.003102287	0.07867944	0.2346716	
0.06185949	0.3098861	-0.001018181	0.003102287	-0.6817985	0.03787972	0.002535664	-0.00168884	
-0.001837373	0.001687185	0.07867944	0.2346716	0.002535664	-0.00168884	-0.6308325	0.05618932	

3.746e+10	-0.4858762	0.1799239	-0.001535258	-0.002613648	0.07480372	0.3103626	-0.0005434968	0.002348532	
-0.001535258	-0.002613648	-0.4501511	0.1571998	0.0008548552	0.00301838	0.07959859	0.2351639	
0.07480372	0.3103626	0.0008548552	0.00301838	-0.686547	0.04752642	0.001122588	-0.002711505	
-0.0005434968	0.002348532	0.07959859	0.2351639	0.001122588	-0.002711505	-0.6309805	0.05864537	

3.748e+10	-0.4836896	0.1876108	-0.002672638	-0.001262209	0.08729756	0.3092652	0.0008406801	0.002179806	
-0.002672638	-0.001262209	-0.4483672	0.1575433	0.002303705	0.001958805	0.08103376	0.2353925	
0.08729756	0.3092652	0.002303705	0.001958805	-0.6897521	0.05816258	-0.0005439085	-0.002785188	
0.0008406801	0.002179806	0.08103376	0.2353925	-0.0005439085	-0.002785188	-0.6299949	0.06088357	

3.75e+10	-0.4800645	0.1956176	-0.002853186	0.0004457767	0.09929764	0.3067905	0.00186216	0.001305158	
-0.002853186	0.0004457767	-0.4473697	0.157456	0.002901708	0.0003437684	0.08254779	0.2350354	
0.09929764	0.3067905	0.002901708	0.0003437684	-0.6913561	0.06949401	-0.001927327	-0.001972249	
0.00186216	0.001305158	0.08254779	0.2350354	-0.001927327	-0.001972249	-0.6285017	0.06217893	

3.752e+10	-0.4749908	0.2035813	-0.002073341	0.001923972	0.1107988	0.3030504	0.002223532	5.026486e-05	
-0.002073341	0.001923972	-0.4472219	0.157755	0.002533137	-0.001268058	0.08363505	0.2342791	
0.1107988	0.3030504	0.002533137	-0.001268058	-0.6913021	0.08133166	-0.002629534	-0.0005853616	
0.002223532	5.026486e-05	0.08363505	0.2342791	-0.002629534	-0.0005853616	-0.6276332	0.06242486	

3.754e+10	-0.4683345	0.2112644	-0.0006429949	0.002707393	0.1217702	0.2980765	0.001845593	-0.001171114	
-0.0006429949	0.002707393	-0.447212	0.1589812	0.001393735	-0.002383754	0.08413441	0.2336539	
0.1217702	0.2980765	0.001393735	-0.002383754	-0.6894935	0.09346827	-0.00247766	0.0009258661	
0.001845593	-0.001171114	0.08413441	0.2336539	-0.00247766	0.0009258661	-0.6279407	0.06256613	

3.756e+10	-0.4600054	0.2184266	0.0009565292	0.002583617	0.1321479	0.2919005	0.0008744632	-0.001971573	
0.0009565292	0.002583617	-0.4464669	0.160826	-0.0001241928	-0.002708855	0.08442118	0.233593	
0.1321479	0.2919005	-0.0001241928	-0.002708855	-0.685913	0.1055721	-0.001553901	0.002096148	
0.0008744632	-0.001971573	0.08442118	0.233593	-0.001553901	0.002096148	-0.6288752	0.06376793	

3.758e+10	-0.4500076	0.2246598	0.002222574	0.0016113	0.1419143	0.2844992	-0.0003631069	-0.002105012	
0.002222574	0.0016113	-0.4448405	0.1623485	-0.001561133	-0.002182176	0.08505341	0.2340127	
0.1419143	0.2844992	-0.001561133	-0.002182176	-0.6804447	0.1174109	-0.0001639198	0.002581701	
-0.0003631069	-0.002105012	0.08505341	0.2340127	-0.0001639198	0.002581701	-0.629335	0.06603473	

3.76e+10	-0.4384089	0.229487	0.002747606	9.650546e-05	0.1509918	0.2758607	-0.001461583	-0.001540187	
0.002747606	9.650546e-05	-0.4429687	0.1629807	-0.00248759	-0.000971872	0.08629986	0.2344299	
0.1509918	0.2758607	-0.00248759	-0.000971872	-0.6731039	0.1287667	0.001259085	0.002250193	
-0.001461583	-0.001540187	0.08629986	0.2344299	0.001259085	0.002250193	-0.6286871	0.06851933	

3.762e+10	-0.4252164	0.2326063	0.002337869	-0.001469216	0.1592666	0.2658307	-0.00206758	-0.0004667078	
0.002337869	-0.001469216	-0.4417195	0.1628714	-0.00261232	0.0005490737	0.08788833	0.2343197	
0.1592666	0.2658307	-0.00261232	0.0005490737	-0.6638299	0.139407	0.002285777	0.001209388	
-0.00206758	-0.0004667078	0.08788833	0.2343197	0.002285777	0.001209388	-0.6272411	0.07013467	

3.764e+10	-0.4106679	0.2334815	0.001110223	-0.002547378	0.1665117	0.2542822	-0.001981643	0.0007678329	
0.001110223	-0.002547378	-0.4413152	0.1629848	-0.001890156	0.00189809	0.08923699	0.2336274	
0.1665117	0.2542822	-0.001890156	0.00189809	-0.6526548	0.1488786	0.002599254	-0.0002321464	
-0.001981643	0.0007678329	0.08923699	0.2336274	0.002599254	-0.0002321464	-0.6260544	0.07066586	

3.766e+10	-0.3951153	0.2314421	-0.0005295919	-0.002752719	0.1723439	0.2410828	-0.001217018	0.001758909	
-0.0005295919	-0.002752719	-0.441302	0.1638558	-0.000542489	0.002647492	0.08995366	0.2328057	
0.1723439	0.2410828	-0.000542489	0.002647492	-0.6395856	0.1568606	0.002079081	-0.00164137	
-0.001217018	0.001758909	0.08995366	0.2328057	0.002079081	-0.00164137	-0.6259328	0.07076277	

3.768e+10	-0.37915	0.2259291	-0.002024951	-0.001987136	0.1762432	0.226207	-9.071999e-06	0.002156781	
-0.002024951	-0.001987136	-0.4407827	0.1655038	0.001022801	0.00254841	0.0902121	0.2324483	
0.1762432	0.226207	0.001022801	0.00254841	-0.624715	0.1628425	0.0008472075	-0.002565323	
-9.071999e-06	0.002156781	0.0902121	0.2324483	0.0008472075	-0.002565323	-0.6267003	0.07162509	

3.77e+10	-0.3636802	0.2164529	-0.002839122	-0.000475106	0.1775596	0.2097716	0.001231431	0.001792213	
-0.002839122	-0.000475106	-0.4393647	0.1671623	0.002319428	0.001586125	0.09061683	0.2327201	
0.1775596	0.2097716	0.002319428	0.001586125	-0.6082306	0.1663931	-0.0007368817	-0.002666142	
0.001231431	0.001792213	0.09061683	0.2327201	-0.0007368817	-0.002666142	-0.6273917	0.07347957	

3.772e+10	-0.3500678	0.202764	-0.002628683	0.001275286	0.1755074	0.1922052	0.002049867	0.0007676781	
-0.002628683	0.001275286	-0.4375305	0.1680398	0.002889895	5.441782e-06	0.09163397	0.233235	
0.1755074	0.1922052	0.002889895	5.441782e-06	-0.5905327	0.1669926	-0.002160447	-0.001845849	
0.002049867	0.0007676781	0.09163397	0.233235	-0.002160447	-0.001845849	-0.6271016	0.07599869	

3.774e+10	-0.3397766	0.1851753	-0.001403147	0.002602661	0.1693002	0.1742473	0.002127354	-0.0005551651	
-0.001403147	0.002602661	-0.4360172	0.1681576	0.002448381	-0.001695087	0.09318699	0.233362	
0.1693002	0.1742473	0.002448381	-0.001695087	-0.5722677	0.163987	-0.002910879	-0.0003105694	
0.002127354	-0.0005551651	0.09318699	0.233362	-0.002910879	-0.0003105694	-0.6258638	0.07795545	

3.776e+10	-0.334331	0.1647287	0.0004007392	0.002949198	0.1583256	0.1571692	0.00141926	-0.001686083	
0.0004007392	0.002949198	-0.4353228	0.1681517	0.001048119	-0.00288203	0.09473059	0.2328152	
0.1583256	0.1571692	0.001048119	-0.00288203	-0.5540895	0.1572094	-0.002647567	0.001454309	
0.00141926	-0.001686083	0.09473059	0.2328152	-0.002647567	0.001454309	-0.6244904	0.07878076	

3.778e+10	-0.334752	0.1430601	0.002067175	0.002144214	0.1424507	0.1426547	0.0001784314	-0.002197066	
0.002067175	0.002144214	-0.4351823	0.1687087	-0.0008587294	-0.003032665	0.09569222	0.2319025	
0.1424507	0.1426547	-0.0008587294	-0.003032665	-0.5369297	0.1462832	-0.001356942	0.00280447	
0.0001784314	-0.002197066	0.09569222	0.2319025	-0.001356942	0.00280447	-0.6239134	0.07903986	

3.78e+10	-0.3412542	0.1224555	0.002922885	0.0005062359	0.1224262	0.1326488	-0.001130358	-0.001884955	
0.002922885	0.0005062359	-0.4348381	0.1700611	-0.002548286	-0.001985215	0.09603304	0.231296	
0.1224262	0.1326488	-0.002548286	-0.001985215	-0.5217842	0.1312568	0.0005629944	0.003151711	
-0.001130358	-0.001884955	0.09603304	0.231296	0.0005629944	0.003151711	-0.6243838	0.07954239	

3.782e+10	-0.3530602	0.1048494	0.002636703	-0.00130933	0.0998462	0.1286375	-0.002002994	-0.0008655281	
0.002636703	-0.00130933	-0.4337035	0.1717154	-0.003294236	-6.612844e-05	0.09628865	0.2313414	
0.0998462	0.1286375	-0.003294236	-6.612844e-05	-0.5099107	0.1122978	0.00237237	0.002246578	
-0.002002994	-0.0008655281	0.09628865	0.2313414	0.00237237	0.002246578	-0.6251537	0.08108235	

3.784e+10	-0.3685824	0.09162464	0.001335669	-0.002586261	0.07700744	0.1313505	-0.002106528	0.0004596825	
0.001335669	-0.002586261	-0.4319873	0.1727826	-0.002694161	0.001964616	0.09707051	0.2318385	
0.07700744	0.1313505	-0.002694161	0.001964616	-0.5026425	0.09007743	0.003281627	0.0003864258	
-0.002106528	0.0004596825	0.09707051	0.2318385	0.003281627	0.0003864258	-0.625268	0.08320643	

3.786e+10	-0.3858936	0.08343314	-0.0004495699	-0.002829204	0.05620378	0.1404413	-0.001422511	0.001574324	
-0.0004495699	-0.002829204	-0.4302979	0.1731531	-0.0009358294	0.003202362	0.0984903	0.23213	
0.05620378	0.1404413	-0.0009358294	0.003202362	-0.5010647	0.06605539	0.002861077	-0.001661846	
-0.001422511	0.001574324	0.0984903	0.23213	0.002861077	-0.001661846	-0.6243198	0.08552117	

3.788e+10	-0.4034219	0.07980653	-0.001992502	-0.001971057	0.03941788	0.1546764	-0.0002399604	0.002068226	
-0.001992502	-0.001971057	-0.4293051	0.173102	0.001202135	0.0030667	0.1001101	0.2317846	
0.03941788	0.1546764	0.001202135	0.0030667	-0.5057843	0.04193855	0.001281948	-0.00302052	
-0.0002399604	0.002068226	0.1001101	0.2317846	0.001281948	-0.00302052	-0.6228762	0.08676365	

3.79e+10	-0.4201424	0.07999446	-0.00269569	-0.0004067223	0.02784779	0.1722231	0.0009812841	0.001786204	
-0.00269569	-0.0004067223	-0.428987	0.1734091	0.002750054	0.001657433	0.1013068	0.2309147	
0.02784779	0.1722231	0.002750054	0.001657433	-0.5166858	0.01966844	-0.0007658952	-0.003132323	
0.0009812841	0.001786204	0.1013068	0.2309147	-0.0007658952	-0.003132323	-0.621899	0.08718085	

3.792e+10	-0.4355026	0.08331291	-0.002347239	0.001209426	0.021819	0.1910582	0.001788892	0.0008683306	
-0.002347239	0.001209426	-0.4287102	0.1745171	0.003082318	-0.0003278052	0.1018374	0.2301127	
0.021819	0.1910582	0.003082318	-0.0003278052	-0.5328688	0.00111604	-0.002415975	-0.002008632	
0.001788892	0.0008683306	0.1018374	0.2301127	-0.002415975	-0.002008632	-0.6219973	0.08741602	

3.794e+10	-0.4492815	0.08904163	-0.00116528	0.002270312	0.02086628	0.209423	0.001906709	-0.0003122048	
-0.00116528	0.002270312	-0.4278335	0.1760782	0.002182275	-0.002019747	0.1020618	0.2298929	
0.02086628	0.209423	0.002182275	-0.002019747	-0.5527399	-0.0124469	-0.003032438	-0.0001902535	
0.001906709	-0.0003122048	0.1020618	0.2298929	-0.003032438	-0.0001902535	-0.6227304	0.08851678	

3.796e+10	-0.4612603	0.09661438	0.0003484437	0.002439137	0.02406232	0.2260529	0.001340021	-0.001303887	
0.0003484437	0.002439137	-0.4262711	0.177265	0.0005373203	-0.002789216	0.1026186	0.2302472	
0.02406232	0.2260529	0.0005373203	-0.002789216	-0.5745121	-0.02056439	-0.002475053	0.001551996	
0.001340021	-0.001303887	0.1026186	0.2302472	-0.002475053	0.001551996	-0.6231262	0.09068215	

3.798e+10	-0.4713711	0.1056231	0.001627747	0.001731254	0.03027308	0.2403107	0.0003516242	-0.001770318	
0.001627747	0.001731254	-0.4244959	0.1778317	-0.001144301	-0.002449495	0.1038148	0.2306537	
0.03027308	0.2403107	-0.001144301	-0.002449495	-0.5965756	-0.0235438	-0.001083396	0.002582343	
0.0003516242	-0.001770318	0.1038148	0.2306537	-0.001083396	0.002582343	-0.6225325	0.09292703	

3.8e+10	-0.4797137	0.1157891	0.002238969	0.0004706414	0.03850072	0.2519857	-0.0006782508	-0.001604863	
0.002238969	0.0004706414	-0.4232492	0.1778307	-0.002234228	-0.001258923	0.1054104	0.2305338	
0.03850072	0.2519857	-0.002234228	-0.001258923	-0.6177159	-0.021787	0.0005518934	0.002626646	
-0.0006782508	-0.001604863	0.1054104	0.2305338	0.0005518934	0.002626646	-0.6211468	0.09460507	

3.802e+10	-0.4862517	0.1267497	0.002029931	-0.0008486808	0.04794701	0.2611144	-0.00140901	-0.0009258984	
0.002029931	-0.0008486808	-0.4227068	0.1780369	-0.002415309	0.0002389513	0.1068273	0.2298035	
0.04794701	0.2611144	-0.002415309	0.0002389513	-0.6370631	-0.01623703	0.001855336	0.001789488	
-0.00140901	-0.0009258984	0.1068273	0.2298035	0.001855336	0.001789488	-0.6198774	0.09529752	

3.804e+10	-0.4911942	0.1380685	0.001156147	-0.001774135	0.05798447	0.2679171	-0.001637189	6.000638e-06	
0.001156147	-0.001774135	-0.4224599	0.1788017	-0.001755509	0.00148352	0.107604	0.2288774	
0.05798447	0.2679171	-0.001755509	0.00148352	-0.6542439	-0.007765088	0.002443966	0.0004379776	
-0.001637189	6.000638e-06	0.107604	0.2288774	0.002443966	0.0004379776	-0.6195674	0.09547124	

3.806e+10	-0.4944782	0.1497627	-2.775529e-05	-0.002043912	0.06814678	0.2726527	-0.00132935	0.0008812126	
-2.775529e-05	-0.002043912	-0.4217228	0.1802281	-0.0005916169	0.002101927	0.107878	0.2283724	
0.06814678	0.2726527	-0.0005916169	0.002101927	-0.6690836	0.002919447	0.002201916	-0.0009509838	
-0.00132935	0.0008812126	0.107878	0.2283724	0.002201916	-0.0009509838	-0.6201391	0.09622427	

3.808e+10	-0.4962437	0.1616225	-0.001120793	-0.001634428	0.07814236	0.2756167	-0.0006168902	0.001430341	
-0.001120793	-0.001634428	-0.4203024	0.1815328	0.0006460869	0.00198174	0.1082412	0.2285214	
0.07814236	0.2756167	0.0006460869	0.00198174	-0.6815252	0.01498994	0.001280803	-0.001939566	
-0.0006168902	0.001430341	0.1082412	0.2285214	0.001280803	-0.001939566	-0.6207516	0.0978732	

3.81e+10	-0.4965889	0.1735138	-0.001788074	-0.0007224288	0.08778648	0.2771072	0.0002539972	0.001504916	
-0.001788074	-0.0007224288	-0.4185609	0.1822561	0.001566793	0.001238534	0.1091832	0.2289484	
0.08778648	0.2771072	0.001566793	0.001238534	-0.6916478	0.02838402	2.143033e-05	-0.002261198	
0.0002539972	0.001504916	0.1091832	0.2289484	2.143033e-05	-0.002261198	-0.6204699	0.1002719	

3.812e+10	-0.495635	0.1852117	-0.001843957	0.0003744871	0.09697929	0.2773328	0.001010164	0.001112104	
-0.001843957	0.0003744871	-0.4171881	0.1823517	0.001910903	0.0001624952	0.1106905	0.2290456	
0.09697929	0.2773328	0.001910903	0.0001624952	-0.6996549	0.04242503	-0.001175454	-0.001873834	
0.001010164	0.001112104	0.1106905	0.2290456	-0.001175454	-0.001873834	-0.6192657	0.1021857	

3.814e+10	-0.4934087	0.1967503	-0.001304067	0.001296804	0.1056704	0.2765062	0.001436113	0.0003914217	
-0.001304067	0.001296804	-0.4164108	0.1825316	0.001622562	-0.0008769864	0.112247	0.2284985	
0.1056704	0.2765062	0.001622562	-0.0008769864	-0.7056497	0.05702315	-0.001966558	-0.0009358943	
0.001436113	0.0003914217	0.112247	0.2284985	-0.001966558	-0.0009358943	-0.6178552	0.1031718	

3.816e+10	-0.4899576	0.2080756	-0.0003744739	0.001763274	0.113813	0.2747281	0.001418561	-0.0004395522	
-0.0003744739	0.001763274	-0.4160548	0.1830685	0.0008528324	-0.001561027	0.1132756	0.2275437	
0.113813	0.2747281	0.0008528324	-0.001561027	-0.7098154	0.07172495	-0.002142524	0.0002596533	
0.001418561	-0.0004395522	0.1132756	0.2275437	-0.002142524	0.0002596533	-0.617142	0.1034956	

3.818e+10	-0.4852767	0.2191108	0.0006368999	0.001656156	0.1213799	0.2721378	0.0009629287	-0.001137699	
0.0006368999	0.001656156	-0.415391	0.1842494	-0.000122437	-0.001719446	0.1136757	0.2268073	
0.1213799	0.2721378	-0.000122437	-0.001719446	-0.7122681	0.08657234	-0.001664696	0.001361568	
0.0009629287	-0.001137699	0.1136757	0.2268073	-0.001664696	0.001361568	-0.6174723	0.1038834	

3.82e+10	-0.4793831	0.2297848	0.001420021	0.001033334	0.128338	0.2688489	0.0001998075	-0.001489357	
0.001420021	0.001033334	-0.4141056	0.1855854	-0.001002838	-0.001348355	0.1139469	0.2267159	
0.128338	0.2688489	-0.001002838	-0.001348355	-0.7130249	0.1014785	-0.0006796871	0.002043215	
0.0001998075	-0.001489357	0.1139469	0.2267159	-0.0006796871	0.002043215	-0.6181012	0.1053209	

3.822e+10	-0.4722534	0.2400025	0.001744789	9.364839e-05	0.1346719	0.264914	-0.0006432543	-0.001378835	
0.001744789	9.364839e-05	-0.4125142	0.186344	-0.001539479	-0.000584486	0.1146625	0.227072	
0.1346719	0.264914	-0.001539479	-0.000584486	-0.7121854	0.1163696	0.0005200093	0.002104094	
-0.0006432543	-0.001378835	0.1146625	0.227072	0.0005200093	0.002104094	-0.6181238	0.1075464	

3.824e+10	-0.4638967	0.2496782	0.001512129	-0.0008715154	0.1403632	0.2604104	-0.001308599	-0.0008279015	
0.001512129	-0.0008715154	-0.4110812	0.1866478	-0.001584591	0.0003310382	0.1160012	0.227312	
0.1403632	0.2604104	-0.001584591	0.0003310382	-0.7097952	0.1310403	0.001583393	0.001520595	
-0.001308599	-0.0008279015	0.1160012	0.227312	0.001583393	0.001520595	-0.6171446	0.109708	

3.826e+10	-0.4541779	0.2587434	0.0007920165	-0.001558385	0.1453638	0.2553881	-0.001586557	1.163028e-05	
0.0007920165	-0.001558385	-0.4101575	0.1867466	-0.001140323	0.00111435	0.1175881	0.2269571	
0.1453638	0.2553881	-0.001140323	0.00111435	-0.7058492	0.1454036	0.002194672	0.0004473487	
-0.001586557	1.163028e-05	0.1175881	0.2269571	0.002194672	0.0004473487	-0.615723	0.110897	

3.828e+10	-0.4430022	0.2671305	-0.0001886646	-0.001746338	0.1496141	0.2499077	-0.001366803	0.0009008984	
-0.0001886646	-0.001746338	-0.4095126	0.1873166	-0.0003611664	0.00153262	0.1188114	0.2260819	
0.1496141	0.2499077	-0.0003611664	0.00153262	-0.7002703	0.1596117	0.002148305	-0.000824528	
-0.001366803	0.0009008984	0.1188114	0.2260819	0.002148305	-0.000824528	-0.6147406	0.1113848	

3.83e+10	-0.430436	0.2743236	-0.001121836	-0.00137257	0.1530374	0.2440571	-0.0006728092	0.001559996	
-0.001121836	-0.00137257	-0.4088594	0.1881408	0.0005073334	0.001477843	0.1194183	0.2252187	
0.1530374	0.2440571	0.0005073334	0.001477843	-0.6930487	0.1733105	0.001405849	-0.001917687	
-0.0006728092	0.001559996	0.1194183	0.2252187	0.001405849	-0.001917687	-0.6147412	0.1117174	

3.832e+10	-0.4162317	0.2803293	-0.001715073	-0.0005424065	0.1555577	0.2379073	0.0003177978	0.001741643	
-0.001715073	-0.0005424065	-0.4077435	0.1892682	0.001214872	0.0009802079	0.119707	0.2248615	
0.1555577	0.2379073	0.001214872	0.0009802079	-0.6840439	0.1864918	0.000137687	-0.002464256	
0.0003177978	0.001741643	0.119707	0.2248615	0.000137687	-0.002464256	-0.6153027	0.1128182	

3.834e+10	-0.4005464	0.2845483	-0.001765496	0.0005002506	0.1571073	0.231637	0.001293826	0.001322873	
-0.001765496	0.0005002506	-0.4063468	0.1900874	0.001558961	0.0001832959	0.1202588	0.2250545	
0.1571073	0.231637	0.001558961	0.0001832959	-0.6732268	0.19878	-0.001290136	-0.002225602	
0.001293826	0.001322873	0.1202588	0.2250545	-0.001290136	-0.002225602	-0.6155157	0.1147459	

3.836e+10	-0.3832961	0.2866378	-0.001221006	0.001428605	0.1576267	0.2253904	0.001902182	0.0003776083	
-0.001221006	0.001428605	-0.404913	0.1906239	0.001430399	-0.0006867141	0.121368	0.2253106	
0.1576267	0.2253904	0.001430399	-0.0006867141	-0.6604528	0.2100156	-0.002414475	-0.001192259	
0.001902182	0.0003776083	0.121368	0.2253106	-0.002414475	-0.001192259	-0.6147865	0.1169432	

3.838e+10	-0.3647864	0.2859263	-0.0002200985	0.001916906	0.1570857	0.2193908	0.001867425	-0.0008164403	
-0.0002200985	0.001916906	-0.4038085	0.1908794	0.0008507772	-0.001367203	0.1228631	0.2251598	
0.1570857	0.2193908	0.0008507772	-0.001367203	-0.6456995	0.2199398	-0.00280478	0.0003792211	
0.001867425	-0.0008164403	0.1228631	0.2251598	-0.00280478	0.0003792211	-0.6134462	0.1184643	

3.84e+10	-0.3453227	0.2819395	0.0009217123	0.001757466	0.1555219	0.2138848	0.001105143	-0.001838975	
0.0009217123	0.001757466	-0.4029417	0.1913308	-1.818768e-05	-0.001640999	0.1242281	0.2244552	
0.1555219	0.2138848	-1.818768e-05	-0.001640999	-0.6290151	0.2277003	-0.002210371	0.002002837	
0.001105143	-0.001838975	0.1242281	0.2244552	-0.002210371	0.002002837	-0.6123281	0.1191354	

3.842e+10	-0.3256901	0.2737712	0.001808477	0.0009529773	0.1530535	0.2091747	-0.0001969895	-0.002247985	
0.001808477	0.0009529773	-0.4021521	0.191989	-0.0009228299	-0.001406479	0.1250853	0.2235663	
0.1530535	0.2091747	-0.0009228299	-0.001406479	-0.6104432	0.2332277	-0.0006989331	0.003066455	
-0.0001969895	-0.002247985	0.1250853	0.2235663	-0.0006989331	0.003066455	-0.6120288	0.1195207	

3.844e+10	-0.3069376	0.2609474	0.002092169	-0.0002603005	0.1499502	0.2054974	-0.00157188	-0.0017661	
0.002092169	-0.0002603005	-0.4011884	0.1928203	-0.001587085	-0.0007029678	0.1255064	0.2229745	
0.1499502	0.2054974	-0.001587085	-0.0007029678	-0.5902598	0.2357287	0.001275448	0.003055046	
-0.00157188	-0.0017661	0.1255064	0.2229745	0.001275448	0.003055046	-0.6123716	0.1204755	

3.846e+10	-0.2903546	0.2434637	0.001605902	-0.001465979	0.1466315	0.2030256	-0.002413587	-0.000473527	
0.001605902	-0.001465979	-0.3999913	0.1936218	-0.001777518	0.0002923541	0.1259458	0.2228988	
0.1466315	0.2030256	-0.001777518	0.0002923541	-0.5691122	0.2343387	0.002964196	0.001810347	
-0.002413587	-0.000473527	0.1259458	0.2228988	0.002964196	0.001810347	-0.6126049	0.122077	

3.848e+10	-0.2777512	0.2214878	0.0004603442	-0.002189224	0.1435723	0.2016753	-0.002266681	0.001135069	
0.0004603442	-0.002189224	-0.398683	0.1942784	-0.001370618	0.001279465	0.1267971	0.2230945	
0.1435723	0.2016753	-0.001370618	0.001279465	-0.5477293	0.2287832	0.003614838	-0.0003110958	
-0.002266681	0.001135069	0.1267971	0.2230945	0.003614838	-0.0003110958	-0.6121065	0.1242007	

3.85e+10	-0.2706493	0.1959894	-0.0009419213	-0.002087096	0.1411617	0.2011138	-0.001105903	0.002334281	
-0.0009419213	-0.002087096	-0.397449	0.1947083	-0.0004330827	0.001903145	0.1280969	0.2231006	
0.1411617	0.2011138	-0.0004330827	0.001903145	-0.5271529	0.2186773	0.00281961	-0.002502839	
-0.001105903	0.002334281	0.1280969	0.2231006	0.00281961	-0.002502839	-0.6109909	0.125863	

3.852e+10	-0.270239	0.1688641	-0.002029973	-0.001136374	0.1395873	0.2008473	0.0005792089	0.002533022	
-0.002029973	-0.001136374	-0.3963478	0.1951132	0.0007494143	0.001885206	0.129529	0.2226425	
0.1395873	0.2008473	0.0007494143	0.001885206	-0.5086061	0.204046	0.0007732761	-0.003815428	
0.0005792089	0.002533022	0.129529	0.2226425	0.0007732761	-0.003815428	-0.6098891	0.1267461	

3.854e+10	-0.2771347	0.1421834	-0.002324384	0.0003010598	0.1387072	0.200326	0.002007124	0.001619314	
-0.002324384	0.0003010598	-0.3953988	0.19559	0.001755199	0.001162931	0.1306568	0.2218201	
0.1387072	0.200326	0.001755199	0.001162931	-0.4932745	0.1852132	-0.001732032	-0.003595684	
0.002007124	0.001619314	0.1306568	0.2218201	-0.001732032	-0.003595684	-0.6093254	0.1272947	

3.856e+10	-0.2909493	0.118379	-0.00168419	0.001626404	0.1381059	0.1991976	0.002525788	3.969941e-05	
-0.00168419	0.001626404	-0.3945048	0.1961773	0.002181928	-5.804278e-05	0.1313056	0.2210296	
0.1381059	0.1991976	0.002181928	-5.804278e-05	-0.4824428	0.1629226	-0.003618056	-0.001844287	
0.002525788	3.969941e-05	0.1313056	0.2210296	-0.003618056	-0.001844287	-0.6093134	0.1281804	

3.858e+10	-0.3104351	0.0994308	-0.0003821257	0.002287908	0.1371241	0.1973471	0.001960367	-0.001461159	
-0.0003821257	0.002287908	-0.3935145	0.1968856	0.001806331	-0.001356725	0.1316914	0.2206253	
0.1371241	0.1973471	0.001806331	-0.001356725	-0.4771609	0.1382669	-0.004035572	0.0007341153	
0.001960367	-0.001461159	0.1316914	0.2206253	-0.004035572	0.0007341153	-0.6094672	0.1294351	

3.86e+10	-0.3335555	0.08682253	0.001028829	0.00203647	0.1352174	0.1951768	0.0006575686	-0.002250605	
0.001028829	0.00203647	-0.3922934	0.1976463	0.0006957501	-0.002224222	0.1322703	0.2206753	
0.1352174	0.1951768	0.0006957501	-0.002224222	-0.4779473	0.11307	-0.002775478	0.003037406	
0.0006575686	-0.002250605	0.1322703	0.2206753	-0.002775478	0.003037406	-0.6091783	0.1312639	

3.862e+10	-0.3581208	0.08096877	0.00198329	0.001021724	0.132159	0.1933606	-0.0007649184	-0.002100455	
0.00198329	0.001021724	-0.3909887	0.1981883	-0.0007634865	-0.002266037	0.1333336	0.2208292	
0.132159	0.1933606	-0.0007634865	-0.002266037	-0.4847713	0.08914711	-0.0003751749	0.004082999	
-0.0007649184	-0.002100455	0.1333336	0.2208292	-0.0003751749	0.004082999	-0.6083563	0.1329768	

3.864e+10	-0.3820183	0.08161872	0.002150881	-0.0003120546	0.1281729	0.1925874	-0.001755002	-0.001203475	
0.002150881	-0.0003120546	-0.3897005	0.198648	-0.001991136	-0.001406154	0.1347841	0.2206385	
0.1281729	0.1925874	-0.001991136	-0.001406154	-0.497074	0.06782553	0.002138589	0.003452151	
-0.001755002	-0.001203475	0.1347841	0.2206385	0.002138589	0.003452151	-0.6073402	0.1341993	

3.866e+10	-0.4037333	0.08765908	0.001539293	-0.001450303	0.1238321	0.1932368	-0.002031245	1.489007e-05	
0.001539293	-0.001450303	-0.3886411	0.1989633	-0.002469061	4.094233e-05	0.1361513	0.2199151	
0.1238321	0.1932368	-0.002469061	4.094233e-05	-0.5137	0.0506403	0.00372407	0.001459897	
-0.002031245	1.489007e-05	0.1361513	0.2199151	0.00372407	0.001459897	-0.6065723	0.1350293	

3.868e+10	-0.4221654	0.09777504	0.0004326212	-0.002015594	0.1197749	0.1953553	-0.001602264	0.001111944	
0.0004326212	-0.002015594	-0.3877159	0.19943	-0.001987236	0.001499666	0.1370257	0.2189467	
0.1197749	0.1953553	-0.001987236	0.001499666	-0.5331254	0.03830843	0.003786584	-0.001023613	
-0.001602264	0.001111944	0.1370257	0.2189467	0.003786584	-0.001023613	-0.6062702	0.1357397	

3.87e+10	-0.4368807	0.1107101	-0.0007600111	-0.001868874	0.1165198	0.1987065	-0.0006819329	0.001757218	
-0.0007600111	-0.001868874	-0.3867917	0.2000657	-0.0007281243	0.002392036	0.1374204	0.2182621	
0.1165198	0.1987065	-0.0007281243	0.002392036	-0.5538742	0.03116032	0.002392145	-0.002995301	
-0.0006819329	0.001757218	0.1374204	0.2182621	0.002392145	-0.002995301	-0.6061841	0.136943	

3.872e+10	-0.4478339	0.1252903	-0.001647849	-0.001105639	0.1143704	0.2028837	0.0004014421	0.001787885	
-0.001647849	-0.001105639	-0.3856901	0.2007775	0.0008160709	0.002366017	0.1377952	0.2181558	
0.1143704	0.2028837	0.0008160709	0.002366017	-0.5745085	0.02880177	0.0001729049	-0.003732898	
0.0004014421	0.001787885	0.1377952	0.2181558	0.0001729049	-0.003732898	-0.6059841	0.138455	

3.874e+10	-0.4553512	0.1405194	-0.0019617	1.027144e-06	0.113445	0.2074694	0.001295798	0.001234187	
-0.0019617	1.027144e-06	-0.384375	0.2014592	0.002042367	0.001435879	0.1386351	0.2183697	
0.113445	0.2074694	0.002042367	0.001435879	-0.5940171	0.03050739	-0.001979896	-0.003051104	
0.001295798	0.001234187	0.1386351	0.2183697	-0.001979896	-0.003051104	-0.6054442	0.1400004	

3.876e+10	-0.459815	0.1557282	-0.001617705	0.001085414	0.11375	0.2120806	0.001728772	0.0003045927	
-0.001617705	0.001085414	-0.3830765	0.2018879	0.002482172	-2.520175e-05	0.1400386	0.2183756	
0.11375	0.2120806	0.002482172	-2.520175e-05	-0.6117154	0.03559266	-0.0032871	-0.001310755	
0.001728772	0.0003045927	0.1400386	0.2183756	-0.0032871	-0.001310755	-0.6046082	0.1414756	

3.878e+10	-0.4616885	0.1706006	-0.0007372554	0.001796721	0.1150788	0.2164044	0.00158588	-0.0006910418	
-0.0007372554	0.001796721	-0.3818928	0.2022018	0.001990308	-0.001450028	0.1415558	0.217777	
0.1150788	0.2164044	0.001990308	-0.001450028	-0.6274311	0.04310402	-0.003355027	0.0007887681	
0.00158588	-0.0006910418	0.1415558	0.217777	-0.003355027	0.0007887681	-0.6037808	0.1425052	

3.88e+10	-0.4613236	0.1847965	0.0003887146	0.001904128	0.1172323	0.2202314	0.000931788	-0.001438122	
0.0003887146	0.001904128	-0.3808329	0.2025777	0.0007810004	-0.002313214	0.142629	0.2167525	
0.1172323	0.2202314	0.0007810004	-0.002313214	-0.6408976	0.05269138	-0.002254712	0.002497091	
0.000931788	-0.001438122	0.142629	0.2167525	-0.002254712	0.002497091	-0.6031614	0.1434708	

3.882e+10	-0.4590872	0.1981893	0.001390929	0.001368963	0.1199968	0.2234933	-1.948983e-05	-0.001704789	
0.001390929	0.001368963	-0.3799053	0.203021	-0.0006859433	-0.002323149	0.1430989	0.2158549	
0.1199968	0.2234933	-0.0006859433	-0.002323149	-0.6521462	0.06359877	-0.0004351876	0.003264622	
-1.948983e-05	-0.001704789	0.1430989	0.2158549	-0.0004351876	0.003264622	-0.6028284	0.1443925	

3.884e+10	-0.4552405	0.2105435	0.001933096	0.0003603725	0.1231955	0.2261631	-0.0009596514	-0.001404689	
0.001933096	0.0003603725	-0.3789152	0.2035985	-0.001880471	-0.001500086	0.1433804	0.2155599	
0.1231955	0.2261631	-0.001880471	-0.001500086	-0.661189	0.07544988	0.001453381	0.002887341	
-0.0009596514	-0.001404689	0.1433804	0.2155599	0.001453381	0.002887341	-0.6025732	0.1456665	

3.886e+10	-0.4499761	0.2220013	0.001821411	-0.0007933712	0.126687	0.2282488	-0.001577618	-0.0006338785	
0.001821411	-0.0007933712	-0.3777563	0.2042521	-0.002385072	-0.0001533997	0.1440359	0.215736	
0.126687	0.2282488	-0.002385072	-0.0001533997	-0.6683339	0.0877505	0.00277877	0.001546644	
-0.001577618	-0.0006338785	0.1440359	0.215736	0.00277877	0.001546644	-0.6022606	0.147038	

3.888e+10	-0.4434384	0.2325143	0.00107314	-0.001701087	0.1303693	0.2297715	-0.001665251	0.0003503164	
0.00107314	-0.001701087	-0.3764473	0.2048197	-0.002033249	0.001227986	0.1453175	0.2158399	
0.1303693	0.2297715	-0.002033249	0.001227986	-0.6736538	0.1004378	0.003125438	-0.0002690875	
-0.001665251	0.0003503164	0.1453175	0.2158399	0.003125438	-0.0002690875	-0.60166	0.1485615	

3.89e+10	-0.4358451	0.2418913	-7.425867e-05	-0.002038748	0.1341322	0.2307585	-0.001194173	0.001221153	
-7.425867e-05	-0.002038748	-0.3751035	0.2052781	-0.0009678622	0.002154597	0.1468605	0.2153863	
0.1341322	0.2307585	-0.0009678622	0.002154597	-0.677381	0.1132332	0.002420638	-0.001945895	
-0.001194173	0.001221153	0.1468605	0.2153863	0.002420638	-0.001945895	-0.6008683	0.1499247	

3.892e+10	-0.4272926	0.25009	-0.001234052	-0.001665293	0.1378856	0.2312409	-0.0003153442	0.001691557	
-0.001234052	-0.001665293	-0.3738938	0.2055498	0.0004233113	0.002313491	0.1480828	0.214402	
0.1378856	0.2312409	0.0004233113	0.002313491	-0.6795865	0.1259539	0.0009241748	-0.002946882	
-0.0003153442	0.001691557	0.1480828	0.214402	0.0009241748	-0.002946882	-0.6000293	0.151051	

3.894e+10	-0.4178743	0.257078	-0.001996054	-0.0006818457	0.1415834	0.2312967	0.0006904926	0.001596475	
-0.001996054	-0.0006818457	-0.372905	0.2057697	0.00165474	0.001664124	0.1487111	0.2134184	
0.1415834	0.2312967	0.00165474	0.001664124	-0.6803722	0.1386706	-0.0008697365	-0.002958924	
0.0006904926	0.001596475	0.1487111	0.2134184	-0.0008697365	-0.002958924	-0.599377	0.1519997	

3.896e+10	-0.4076167	0.2628925	-0.002067077	0.0005884324	0.145182	0.2309471	0.001486093	0.0009453604	
-0.002067077	0.0005884324	-0.3719485	0.2062593	0.002305676	0.0004374127	0.149009	0.2129176	
0.145182	0.2309471	0.002305676	0.0004374127	-0.6798692	0.1509724	-0.00237415	-0.001978067	
0.001486093	0.0009453604	0.149009	0.2129176	-0.00237415	-0.001978067	-0.5990382	0.1528043	

3.898e+10	-0.3967734	0.2672242	-0.001385535	0.001698833	0.1486844	0.2302451	0.001782759	-5.794409e-05	
-0.001385535	0.001698833	-0.3709281	0.2068801	0.002153816	-0.00094398	0.1495383	0.2129374	
0.1486844	0.2302451	0.002153816	-0.00094398	-0.678085	0.1632946	-0.003087036	-0.0003211924	
0.001782759	-5.794409e-05	0.1495383	0.2129374	-0.003087036	-0.0003211924	-0.5988041	0.154081	

3.9e+10	-0.3855257	0.269948	-0.0001606982	0.002232023	0.1520433	0.2291819	0.00145552	-0.001068482	
-0.0001606982	0.002232023	-0.3697399	0.2074884	0.00124841	-0.002003238	0.1506371	0.2130439	
0.1520433	0.2291819	0.00124841	-0.002003238	-0.6751303	0.1752293	-0.002761267	0.001463867	
0.00145552	-0.001068482	0.1506371	0.2130439	-0.002761267	0.001463867	-0.5984742	0.1555563	

3.902e+10	-0.3738813	0.2711424	0.001183506	0.001954971	0.1552054	0.2277788	0.0006024778	-0.001726393	
0.001183506	0.001954971	-0.3683058	0.2080381	-0.0001023218	-0.002371093	0.1520973	0.2127296	
0.1552054	0.2277788	-0.0001023218	-0.002371093	-0.6709311	0.1869487	-0.001492659	0.002782631	
0.0006024778	-0.001726393	0.1520973	0.2127296	-0.001492659	0.002782631	-0.5977957	0.1571633	

3.904e+10	-0.3623021	0.2704453	0.002143399	0.0009227831	0.1581314	0.2260869	-0.0004895063	-0.001788108	
0.002143399	0.0009227831	-0.3669751	0.2082168	-0.001434843	-0.001913117	0.1534135	0.2118935	
0.1581314	0.2260869	-0.001434843	-0.001913117	-0.6654901	0.1981383	0.0003177257	0.003187705	
-0.0004895063	-0.001788108	0.1534135	0.2118935	0.0003177257	0.003187705	-0.5968493	0.1584747	

3.906e+10	-0.3510395	0.2679049	0.002323996	-0.0005137284	0.160788	0.2241315	-0.001441581	-0.001208773	
0.002323996	-0.0005137284	-0.365803	0.2083966	-0.002287242	-0.0007750788	0.1542244	0.210883	
0.160788	0.2241315	-0.002287242	-0.0007750788	-0.6587579	0.2088438	0.002085307	0.002509714	
-0.001441581	-0.001208773	0.1542244	0.210883	0.002085307	0.002509714	-0.5959535	0.1593509	

3.908e+10	-0.3405629	0.2635019	0.001606315	-0.00181242	0.1631632	0.2219493	-0.001900148	-0.0001695837	
0.001606315	-0.00181242	-0.3649387	0.2085796	-0.002352741	0.0006630984	0.1546459	0.2102017	
0.1631632	0.2219493	-0.002352741	0.0006630984	-0.6507381	0.2188711	0.003203514	0.0009225271	
-0.001900148	-0.0001695837	0.1546459	0.2102017	0.003203514	0.0009225271	-0.5953452	0.1601906	

3.91e+10	-0.3313378	0.2573827	0.000229579	-0.002445548	0.1652206	0.2195341	-0.001672596	0.0009621739	
0.000229579	-0.002445548	-0.364031	0.209158	-0.001584618	0.001907327	0.1551072	0.2099983	
0.1652206	0.2195341	-0.001584618	0.001907327	-0.6413759	0.2281314	0.003239957	-0.001072643	
-0.001672596	0.0009621739	0.1551072	0.2099983	0.003239957	-0.001072643	-0.5951595	0.1610322	

3.912e+10	-0.3238008	0.2499008	-0.001276302	-0.00212917	0.1668657	0.2169379	-0.0008253117	0.001762653	
-0.001276302	-0.00212917	-0.3629001	0.2098584	-0.000223261	0.002510994	0.1560027	0.2100195	
0.1668657	0.2169379	-0.000223261	0.002510994	-0.6306707	0.2364256	0.002113722	-0.002790283	
-0.0008253117	0.001762653	0.1560027	0.2100195	0.002113722	-0.002790283	-0.5950049	0.1624401	

3.914e+10	-0.3183116	0.2415241	-0.002305894	-0.0009622129	0.1680204	0.2142304	0.0003338129	0.001931365	
-0.002305894	-0.0009622129	-0.3614808	0.2104713	0.001271393	0.002231069	0.1572944	0.2098167	
0.1680204	0.2142304	0.001271393	0.002231069	-0.6186412	0.2433151	0.0001543419	-0.003595489	
0.0003338129	0.001931365	0.1572944	0.2098167	0.0001543419	-0.003595489	-0.5945296	0.1640957	

3.916e+10	-0.3151298	0.2328435	-0.002430735	0.0005979455	0.168628	0.2115317	0.001385083	0.001406914	
-0.002430735	0.0005979455	-0.3600271	0.2107201	0.002366711	0.001124101	0.1586318	0.2091715	
0.168628	0.2115317	0.002366711	0.001124101	-0.6053086	0.2486255	-0.001990265	-0.003131321	
0.001385083	0.001406914	0.1586318	0.2091715	-0.001990265	-0.003131321	-0.5935682	0.1657272	

3.918e+10	-0.3141372	0.2246514	-0.001593726	0.001919652	0.1686567	0.2089961	0.001957449	0.0003731556	
-0.001593726	0.001919652	-0.3587644	0.2107384	0.002638111	-0.0004510969	0.1596323	0.2082325	
0.1686567	0.2089961	0.002638111	-0.0004510969	-0.5909353	0.2518115	-0.003545729	-0.001458549	
0.001957449	0.0003731556	0.1596323	0.2082325	-0.003545729	-0.001458549	-0.592469	0.1667587	

3.92e+10	-0.3148935	0.2177175	-0.0001455955	0.002470313	0.1681112	0.206787	0.001845746	-0.0008145714	
-0.0001455955	0.002470313	-0.3577524	0.2109005	0.001934331	-0.001934533	0.1602487	0.2074049	
0.1681112	0.206787	0.001934331	-0.001934533	-0.5758219	0.2526483	-0.003860009	0.0009046462	
0.001845746	-0.0008145714	0.1602487	0.2074049	-0.003860009	0.0009046462	-0.5916097	0.1675202	

3.922e+10	-0.3167561	0.2123701	0.001322271	0.0020572	0.1670126	0.2051283	0.001071837	-0.001746888	
0.001322271	0.0020572	-0.356919	0.2112495	0.000460304	-0.002758357	0.1607203	0.2069383	
0.1670126	0.2051283	0.000460304	-0.002758357	-0.5604528	0.2507027	-0.002681082	0.003096217	
0.001071837	-0.001746888	0.1607203	0.2069383	-0.002681082	0.003096217	-0.5913474	0.168115	

3.924e+10	-0.3189411	0.2087092	0.002246779	0.0008811819	0.1655127	0.204311	-0.0001176135	-0.002085386	
0.002246779	0.0008811819	-0.3559635	0.2118602	-0.001265367	-0.002560276	0.1614054	0.2067978	
0.1655127	0.204311	-0.001265367	-0.002560276	-0.5453732	0.2457872	-0.0003408944	0.00420661	
-0.0001176135	-0.002085386	0.1614054	0.2067978	-0.0003408944	0.00420661	-0.5912831	0.1693244	

3.926e+10	-0.3207843	0.2064937	0.002311367	-0.0005843936	0.1639332	0.2045563	-0.001319748	-0.001679512	
0.002311367	-0.0005843936	-0.3546471	0.2125042	-0.002577587	-0.001352116	0.1624636	0.2066548	
0.1639332	0.2045563	-0.002577587	-0.001352116	-0.5313325	0.2378991	0.002291094	0.003679508	
-0.001319748	-0.001679512	0.1624636	0.2066548	0.002291094	0.003679508	-0.5909713	0.1710221	

3.928e+10	-0.3218509	0.2051996	0.001527124	-0.001799959	0.1627619	0.205974	-0.002098494	-0.0006267849	
0.001527124	-0.001799959	-0.3531103	0.2129257	-0.002922995	0.0004404961	0.1637639	0.2062264	
0.1627619	0.205974	-0.002922995	0.0004404961	-0.5192906	0.2269804	0.004131326	0.001609574	
-0.002098494	-0.0006267849	0.1637639	0.2062264	0.004131326	0.001609574	-0.5901445	0.1726822	

3.93e+10	-0.3219085	0.2042893	0.0001979708	-0.002334119	0.1624849	0.2083908	-0.002126353	0.000730087	
0.0001979708	-0.002334119	-0.3516745	0.2129816	-0.00211387	0.002111658	0.1649596	0.2054252	
0.1624849	0.2083908	-0.00211387	0.002111658	-0.5100698	0.2137853	0.004343347	-0.001225769	
-0.002126353	0.000730087	0.1649596	0.2054252	0.004343347	-0.001225769	-0.588952	0.1740084	

3.932e+10	-0.3210948	0.2031446	-0.001188092	-0.002001772	0.163546	0.2114664	-0.001323167	0.001886172	
-0.001188092	-0.002001772	-0.3505678	0.2128972	-0.0004460117	0.002969795	0.1657864	0.2044882	
0.163546	0.2114664	-0.0004460117	0.002969795	-0.5042684	0.1990434	0.002745963	-0.003646267	
-0.001323167	0.001886172	0.1657864	0.2044882	0.002745963	-0.003646267	-0.5879303	0.1747111	

3.934e+10	-0.3197172	0.2013366	-0.002117969	-0.0009306054	0.1662381	0.2146685	5.316026e-05	0.002349799	
-0.002117969	-0.0009306054	-0.3497236	0.2130535	0.001403659	0.002653289	0.1662976	0.203763	
0.1662381	0.2146685	0.001403659	0.002653289	-0.502111	0.1838459	-2.831202e-05	-0.004582313	
5.316026e-05	0.002349799	0.1662976	0.203763	-2.831202e-05	-0.004582313	-0.5873906	0.175332	

3.936e+10	-0.3181545	0.1987278	-0.002248576	0.000475489	0.1706659	0.2173534	0.001461748	0.001879863	
-0.002248576	0.000475489	-0.3488928	0.2135506	0.002687446	0.001301014	0.166828	0.2034325	
0.1706659	0.2173534	0.002687446	0.001301014	-0.5033894	0.1693114	-0.002788488	-0.003613092	
0.001461748	0.001879863	0.166828	0.2034325	-0.002788488	-0.003613092	-0.5872485	0.1762947	

3.938e+10	-0.3168936	0.195183	-0.001536067	0.001686932	0.1766214	0.2188112	0.00230768	0.000640063	
-0.001536067	0.001686932	-0.3477384	0.2142649	0.002911792	-0.0005270101	0.1676746	0.2033188	
0.1766214	0.2188112	0.002911792	-0.0005270101	-0.5077335	0.1560052	-0.004355202	-0.001184099	
0.00230768	0.000640063	0.1676746	0.2033188	-0.004355202	-0.001184099	-0.5871341	0.1777136	

3.94e+10	-0.3162213	0.1909075	-0.000257164	0.002247334	0.1836511	0.2184484	0.002234252	-0.0008581858	
-0.000257164	0.002247334	-0.3462053	0.2148237	0.002028718	-0.002108224	0.1688964	0.203047	
0.1836511	0.2184484	0.002028718	-0.002108224	-0.5144565	0.1447041	-0.004126136	0.001636986	
0.002234252	-0.0008581858	0.1688964	0.203047	-0.004126136	0.001636986	-0.5865565	0.1794403	

3.942e+10	-0.316499	0.185986	0.001097176	0.001949799	0.1910237	0.2158523	0.001284579	-0.00200463	
0.001097176	0.001949799	-0.3445849	0.2149862	0.0004176741	-0.002859558	0.1701885	0.2023705	
0.1910237	0.2158523	0.0004176741	-0.002859558	-0.522802	0.1355953	-0.002292785	0.003697883	
0.001284579	-0.00200463	0.1701885	0.2023705	-0.002292785	0.003697883	-0.5854578	0.1810055	

3.944e+10	-0.3179482	0.1806197	0.002003394	0.0009215854	0.1979511	0.2109736	-0.0001440488	-0.002357203	
0.002003394	0.0009215854	-0.3432502	0.2148199	-0.001297258	-0.002543816	0.1711875	0.201408	
0.1979511	0.2109736	-0.001297258	-0.002543816	-0.5321322	0.128638	0.0003320005	0.004244034	
-0.0001440488	-0.002357203	0.1711875	0.201408	0.0003320005	0.004244034	-0.584199	0.1819577	

3.946e+10	-0.3208592	0.1750835	0.002123502	-0.0004187702	0.2036738	0.2040296	-0.001485007	-0.001805306	
0.002123502	-0.0004187702	-0.3423933	0.2146997	-0.002498086	-0.001323227	0.1718119	0.2005202	
0.2036738	0.2040296	-0.002498086	-0.001323227	-0.5420482	0.1235483	0.002701177	0.003165579	
-0.001485007	-0.001805306	0.1718119	0.2005202	0.002701177	0.003165579	-0.5832859	0.1825671	

3.948e+10	-0.3253404	0.1699393	0.001446168	-0.001544274	0.2075412	0.1954266	-0.002232763	-0.0005911722	
0.001446168	-0.001544274	-0.3417002	0.2150135	-0.002787248	0.0003407498	0.172278	0.1999879	
0.2075412	0.1954266	-0.002787248	0.0003407498	-0.5524455	0.1201496	0.003949291	0.0009688696	
-0.002232763	-0.0005911722	0.172278	0.1999879	0.003949291	0.0009688696	-0.5830276	0.1831569	

3.95e+10	-0.3315114	0.1655745	0.0002744962	-0.002043648	0.2090898	0.1858083	-0.002134123	0.000803865	
0.0002744962	-0.002043648	-0.3407267	0.2157315	-0.002091029	0.001865004	0.1729595	0.1997826	
0.2090898	0.1858083	-0.002091029	0.001865004	-0.563232	0.1184863	0.003694167	-0.001469192	
-0.002134123	0.000803865	0.1729595	0.1997826	0.003694167	-0.001469192	-0.5830694	0.1842887	

3.952e+10	-0.3393145	0.1625723	-0.0009287049	-0.00177796	0.2080104	0.1758945	-0.001265634	0.001865124	
-0.0009287049	-0.00177796	-0.3392759	0.2163924	-0.0006542246	0.002731341	0.1740211	0.1995755	
0.2080104	0.1758945	-0.0006542246	0.002731341	-0.5743067	0.1187241	0.002126179	-0.003262299	
-0.001265634	0.001865124	0.1740211	0.1995755	0.002126179	-0.003262299	-0.5827907	0.1859922	

3.954e+10	-0.3483522	0.161552	-0.001729412	-0.0008987409	0.2043025	0.1665538	3.147428e-05	0.002234478	
-0.001729412	-0.0008987409	-0.3375131	0.2166796	0.001033216	0.002630779	0.1752886	0.1990499	
0.2043025	0.1665538	0.001033216	0.002630779	-0.5854315	0.1210239	-0.0001298651	-0.003824096	
3.147428e-05	0.002234478	0.1752886	0.1990499	-0.0001298651	-0.003824096	-0.5817763	0.1879086	

3.956e+10	-0.358063	0.1630278	-0.001877585	0.0002355297	0.1983265	0.1585942	0.001296542	0.001809189	
-0.001877585	0.0002355297	-0.3360332	0.2163927	0.002377549	0.001573904	0.1764566	0.1981759	
0.1983265	0.1585942	0.002377549	0.001573904	-0.59622	0.1254259	-0.002263818	-0.003019511	
0.001296542	0.001809189	0.1764566	0.1981759	-0.002263818	-0.003019511	-0.5803601	0.1891305	

3.958e+10	-0.3676574	0.1673187	-0.001379853	0.001214793	0.1906401	0.1525786	0.002098587	0.0007452928	
-0.001379853	0.001214793	-0.3350208	0.2161545	0.002878498	-8.659338e-05	0.1772482	0.197186	
0.1906401	0.1525786	0.002878498	-8.659338e-05	-0.6062114	0.1320646	-0.003546651	-0.00116951	
0.002098587	0.0007452928	0.1772482	0.197186	-0.003546651	-0.00116951	-0.5791736	0.1896388	

3.96e+10	-0.3762762	0.1742626	-0.0004612386	0.001732245	0.1819225	0.1487905	0.002156844	-0.0005919479	
-0.0004612386	0.001732245	-0.3344457	0.2161971	0.002321496	-0.00175497	0.17775	0.1964371	
0.1819225	0.1487905	0.002321496	-0.00175497	-0.6147619	0.1410251	-0.003550331	0.001061774	
0.002156844	-0.0005919479	0.17775	0.1964371	-0.003550331	0.001061774	-0.5786707	0.1901453	

3.962e+10	-0.3829352	0.1836362	0.0005552106	0.00167224	0.1729118	0.1472583	0.00143826	-0.001733931	
0.0005552106	0.00167224	-0.3335935	0.2168866	0.0008822415	-0.002807336	0.1782867	0.1960583	
0.1729118	0.1472583	0.0008822415	-0.002807336	-0.6212916	0.1516843	-0.002292948	0.002886765	
0.00143826	-0.001733931	0.1782867	0.1960583	-0.002292948	0.002886765	-0.5787703	0.1909618	

3.964e+10	-0.3871836	0.1945638	0.001369917	0.001091205	0.1640535	0.1477507	0.000181938	-0.002267713	
0.001369917	0.001091205	-0.3322405	0.2176606	-0.0009280958	-0.002829475	0.1791408	0.1958613	
0.1640535	0.1477507	-0.0009280958	-0.002829475	-0.6252116	0.1636713	-0.0002277256	0.003671745	
0.000181938	-0.002267713	0.1791408	0.1958613	-0.0002277256	0.003671745	-0.5787048	0.1926217	

3.966e+10	-0.3886234	0.2062868	0.001753876	0.0001647864	0.1557151	0.1500418	-0.001174419	-0.001982675	
0.001753876	0.0001647864	-0.3304949	0.218004	-0.002437396	-0.001774124	0.1803326	0.1954999	
0.1557151	0.1500418	-0.002437396	-0.001774124	-0.6262887	0.1760418	0.001922485	0.003142009	
-0.001174419	-0.001982675	0.1803326	0.1954999	0.001922485	0.003142009	-0.5779302	0.194495	

3.968e+10	-0.3872816	0.2179549	0.001577889	-0.0008432933	0.1481194	0.1538597	-0.002140194	-0.0009488505	
0.001577889	-0.0008432933	-0.3288169	0.2178043	-0.003051196	-4.792812e-06	0.1816025	0.1947585	
0.1481194	0.1538597	-0.003051196	-4.792812e-06	-0.6244761	0.1880648	0.003396608	0.001468084	
-0.002140194	-0.0009488505	0.1816025	0.1947585	0.003396608	0.001468084	-0.57643	0.1961205	

3.97e+10	-0.3833573	0.2288897	0.0008582405	-0.001615476	0.1413491	0.1589929	-0.002332666	0.0004881693	
0.0008582405	-0.001615476	-0.3277194	0.2173243	-0.002494315	0.001815554	0.1826057	0.1937358	
0.1413491	0.1589929	-0.002494315	0.001815554	-0.6200424	0.1989545	0.003643281	-0.0007769291	
-0.002332666	0.0004881693	0.1826057	0.1937358	0.003643281	-0.0007769291	-0.5750272	0.1967637	

3.972e+10	-0.3772404	0.2384815	-0.0002091861	-0.001866112	0.1354077	0.165377	-0.001625579	0.001800959	
-0.0002091861	-0.001866112	-0.3270511	0.21721	-0.0009432853	0.002968219	0.1831921	0.1927678	
0.1354077	0.165377	-0.0009432853	0.002968219	-0.613475	0.2080079	0.00252237	-0.002777887	
-0.001625579	0.001800959	0.1831921	0.1927678	0.00252237	-0.002777887	-0.5742783	0.1970674	

3.974e+10	-0.3694986	0.2462386	-0.001274064	-0.001453303	0.1304586	0.1730302	-0.0002415266	0.002453139	
-0.001274064	-0.001453303	-0.3263922	0.2176766	0.001014722	0.002971204	0.1836198	0.1921807	
0.1304586	0.1730302	0.001014722	0.002971204	-0.6053366	0.2145988	0.0004102411	-0.003752542	
-0.0002415266	0.002453139	0.1836198	0.1921807	0.0004102411	-0.003752542	-0.5742858	0.1976303	

3.976e+10	-0.36065	0.2519674	-0.001936488	-0.0004609794	0.1267343	0.1820144	0.001290954	0.002135991	
-0.001936488	-0.0004609794	-0.3252203	0.2184566	0.002604687	0.00178654	0.1842624	0.1919391	
0.1267343	0.1820144	0.002604687	0.00178654	-0.5963513	0.2185877	-0.001896762	-0.003278677	
0.001290954	0.002135991	0.1842624	0.1919391	-0.001896762	-0.003278677	-0.5743177	0.1990999	

3.978e+10	-0.351526	0.2553986	-0.001890952	0.0007836448	0.1247097	0.1922784	0.002334893	0.0009356874	
-0.001890952	0.0007836448	-0.32352	0.2189572	0.003163737	-0.0001369644	0.1853481	0.1917124	
0.1247097	0.1922784	0.003163737	-0.0001369644	-0.5876792	0.2194905	-0.003473752	-0.001506107	
0.002334893	0.0009356874	0.1853481	0.1917124	-0.003473752	-0.001506107	-0.5737676	0.201043	

3.98e+10	-0.3426972	0.256837	-0.001081931	0.001793537	0.1248638	0.203496	0.002431463	-0.0006685496	
-0.001081931	0.001793537	-0.321719	0.2188864	0.002433077	-0.002013388	0.1866751	0.1911061	
0.1248638	0.203496	0.002433077	-0.002013388	-0.5802932	0.2177712	-0.00366579	0.0008638543	
0.002431463	-0.0006685496	0.1866751	0.1911061	-0.00366579	0.0008638543	-0.5724662	0.2027209	

3.982e+10	-0.334734	0.2566648	0.0002109179	0.002116115	0.1275922	0.2151633	0.001520324	-0.00199969	
0.0002109179	0.002116115	-0.3203412	0.21844	0.0007101134	-0.003044789	0.1878322	0.1900814	
0.1275922	0.2151633	0.0007101134	-0.003044789	-0.5750135	0.2141884	-0.002387376	0.002857296	
0.001520324	-0.00199969	0.1878322	0.1900814	-0.002387376	0.002857296	-0.5709404	0.2036396	

3.984e+10	-0.328038	0.2553706	0.001450083	0.001573532	0.1330807	0.2265316	-9.148405e-06	-0.002484183	
0.001450083	0.001573532	-0.3195711	0.2180784	-0.001253901	-0.002803131	0.1885305	0.1889653	
0.1330807	0.2265316	-0.001253901	-0.002803131	-0.5723508	0.2095639	-0.0001905183	0.003649931	
-9.148405e-06	-0.002484183	0.1885305	0.1889653	-0.0001905183	0.003649931	-0.5698345	0.2040303	

3.986e+10	-0.3226849	0.2535634	0.0020997	0.00038442	0.1412679	0.2368851	-0.001488149	-0.001929613	
0.0020997	0.00038442	-0.3190156	0.218271	-0.002622392	-0.001444057	0.1889188	0.1881947	
0.1412679	0.2368851	-0.002622392	-0.001444057	-0.5722596	0.2052367	0.001982444	0.00295598	
-0.001488149	-0.001929613	0.1889188	0.1881947	0.001982444	0.00295598	-0.5695244	0.2044802	

3.988e+10	-0.3185345	0.2518343	0.001893145	-0.0009418666	0.1518063	0.2454599	-0.002289221	-0.0006181078	
0.001893145	-0.0009418666	-0.3180918	0.2189456	-0.002873387	0.0004007602	0.1894277	0.1878671	
0.1518063	0.2454599	-0.002873387	0.0004007602	-0.5745259	0.2018718	0.003241388	0.001151657	
-0.002289221	-0.0006181078	0.1894277	0.1878671	0.003241388	0.001151657	-0.5696352	0.2055306	

3.99e+10	-0.3152079	0.2506379	0.0009431855	-0.001858236	0.1641288	0.2517539	-0.002128293	0.0008525495	
0.0009431855	-0.001858236	-0.3165477	0.219597	-0.002000166	0.001958708	0.190382	0.18767	
0.1641288	0.2517539	-0.002000166	0.001958708	-0.5785232	0.2002186	0.003165353	-0.0009491696	
-0.002128293	0.0008525495	0.190382	0.18767	0.003165353	-0.0009491696	-0.5694255	0.2072539	

3.992e+10	-0.3121909	0.2502016	-0.0003383774	-0.002017521	0.1775128	0.255436	-0.001157565	0.001880124	
-0.0003383774	-0.002017521	-0.3146429	0.2197429	-0.0004435759	0.002656116	0.1916714	0.1871553	
0.1775128	0.255436	-0.0004435759	0.002656116	-0.5833093	0.2008495	0.001925388	-0.00250985	
-0.001157565	0.001880124	0.1916714	0.1871553	0.001925388	-0.00250985	-0.568343	0.2092221	

3.994e+10	-0.3091487	0.2503437	-0.001433406	-0.001397337	0.1912953	0.2565395	0.0001688531	0.002115271	
-0.001433406	-0.001397337	-0.3130717	0.2192152	0.001144515	0.002317379	0.1928979	0.1862078	
0.1912953	0.2565395	0.001144515	0.002317379	-0.5881434	0.203548	0.000110043	-0.003021197	
0.0001688531	0.002115271	0.1928979	0.1862078	0.000110043	-0.003021197	-0.5667535	0.210436	

3.996e+10	-0.3055723	0.2510893	-0.001933484	-0.0002824095	0.2049352	0.2552253	0.001321626	0.001552027	
-0.001933484	-0.0002824095	-0.3120861	0.2186875	0.002180424	0.001176542	0.1937297	0.1850674	
0.2049352	0.2552253	0.002180424	0.001176542	-0.5922926	0.2082306	-0.001570446	-0.002424756	
0.001321626	0.001552027	0.1937297	0.1850674	-0.001570446	-0.002424756	-0.5653354	0.2109205	

3.998e+10	-0.3014325	0.2519473	-0.001692561	0.0008750927	0.2180789	0.2517483	0.001900154	0.0004753118	
-0.001692561	0.0008750927	-0.3116032	0.2185924	0.002360563	-0.0002721537	0.1941986	0.1841395	
0.2180789	0.2517483	0.002360563	-0.0002721537	-0.5953799	0.21435	-0.002552955	-0.001055381	
0.001900154	0.0004753118	0.1941986	0.1841395	-0.002552955	-0.001055381	-0.5647197	0.21114	

4e+10	-0.2964155	0.2528051	-0.0008534684	0.001652857	0.2304622	0.2463031	0.001756214	-0.000681755	
-0.0008534684	0.001652857	-0.3108939	0.2191491	0.001722177	-0.001501928	0.1946422	0.1836269	
0.2304622	0.2463031	0.001722177	-0.001501928	-0.5970711	0.2216929	-0.002590373	0.0005406854	
0.001756214	-0.000681755	0.1946422	0.1836269	-0.002590373	0.0005406854	-0.5647796	0.2119493	

4.002e+10	-0.2905494	0.2532839	0.0002479124	0.001804651	0.2418418	0.2391387	0.001010405	-0.001508471	
0.0002479124	0.001804651	-0.3095261	0.2198875	0.0005621729	-0.002135131	0.1954145	0.183346	
0.2418418	0.2391387	0.0005621729	-0.002135131	-0.597278	0.2296324	-0.001778045	0.001818217	
0.001010405	-0.001508471	0.1954145	0.183346	-0.001778045	0.001818217	-0.5647932	0.2135302	

4.004e+10	-0.2838283	0.2530596	0.001217915	0.001312332	0.2521223	0.2304292	-2.873506e-05	-0.001755065	
0.001217915	0.001312332	-0.3076344	0.2201634	-0.0007050654	-0.00202581	0.1965684	0.1829313	
0.2521223	0.2304292	-0.0007050654	-0.00202581	-0.5958783	0.2379725	-0.0004610881	0.002412533	
-2.873506e-05	-0.001755065	0.1965684	0.1829313	-0.0004610881	0.002412533	-0.5640164	0.2154897	

4.006e+10	-0.2763575	0.2518189	0.001726014	0.0003693953	0.2611853	0.2203205	-0.0009901954	-0.001386155	
0.001726014	0.0003693953	-0.305869	0.2197082	-0.001672921	-0.001261094	0.1978179	0.1821261	
0.2611853	0.2203205	-0.001672921	-0.001261094	-0.5928823	0.2463076	0.0009123506	0.002205113	
-0.0009901954	-0.001386155	0.1978179	0.1821261	0.0009123506	0.002205113	-0.5624025	0.2171258	

4.008e+10	-0.2683373	0.2492672	0.001604247	-0.0006817555	0.2689117	0.2089353	-0.001560587	-0.0005655408	
0.001604247	-0.0006817555	-0.3047042	0.2190329	-0.002052408	-0.0001197788	0.1988289	0.1810219	
0.2689117	0.2089353	-0.002052408	-0.0001197788	-0.5883787	0.2543704	0.001926064	0.001317915	
-0.001560587	-0.0005655408	0.1988289	0.1810219	0.001926064	0.001317915	-0.5607727	0.2177346	

4.01e+10	-0.2600478	0.2450566	0.0009083026	-0.001464143	0.2751676	0.1962824	-0.001570016	0.0004101291	
0.0009083026	-0.001464143	-0.3041846	0.2186593	-0.001751691	0.001021146	0.1994247	0.1799476	
0.2751676	0.1962824	-0.001751691	0.001021146	-0.5824524	0.2618867	0.002295814	5.18748e-05	
-0.001570016	0.0004101291	0.1994247	0.1799476	0.002295814	5.18748e-05	-0.5598657	0.2178324	

4.012e+10	-0.2518844	0.2389459	-9.961352e-05	-0.001702789	0.2797263	0.1824348	-0.001038635	0.001204545	
-9.961352e-05	-0.001702789	-0.3036241	0.2190611	-0.0008908245	0.001804825	0.1998425	0.179214	
0.2797263	0.1824348	-0.0008908245	0.001804825	-0.575173	0.2686966	0.001932963	-0.001196853	
-0.001038635	0.001204545	0.1998425	0.179214	0.001932963	-0.001196853	-0.5598067	0.2182595	

4.014e+10	-0.2443998	0.2306331	-0.001054893	-0.001322388	0.282279	0.1674918	-0.0001658006	0.001552974	
-0.001054893	-0.001322388	-0.3024834	0.219767	0.0002525621	0.001996992	0.200439	0.178817	
0.282279	0.1674918	0.0002525621	0.001996992	-0.5666464	0.2745379	0.0009635228	-0.002050283	
-0.0001658006	0.001552974	0.200439	0.178817	0.0009635228	-0.002050283	-0.5599452	0.2195529	

4.016e+10	-0.2381555	0.2201487	-0.001614965	-0.0004639991	0.2824295	0.1515897	0.0007366544	0.001347257	
-0.001614965	-0.0004639991	-0.3006531	0.220206	0.001327315	0.00153489	0.2014207	0.1784654	
0.2824295	0.1515897	0.001327315	0.00153489	-0.556903	0.2792411	-0.0003159706	-0.002250527	
0.0007366544	0.001347257	0.2014207	0.1784654	-0.0003159706	-0.002250527	-0.5594078	0.2215982	

4.018e+10	-0.2341148	0.2074918	-0.001571917	0.0005597345	0.2797188	0.1350407	0.00135175	0.0006729567	
-0.001571917	0.0005597345	-0.2987834	0.21988	0.001987251	0.0005403339	0.2026495	0.1778127	
0.2797188	0.1350407	0.001987251	0.0005403339	-0.5460796	0.2825773	-0.001516105	-0.001723319	
0.00135175	0.0006729567	0.2026495	0.1778127	-0.001516105	-0.001723319	-0.5579885	0.2234054	

4.02e+10	-0.2331092	0.1932562	-0.0009361783	0.00136113	0.2736471	0.1183667	0.001467734	-0.0002197969	
-0.0009361783	0.00136113	-0.2973821	0.2191689	0.001983823	-0.0006875807	0.2037695	0.1767723	
0.2736471	0.1183667	0.001983823	-0.0006875807	-0.5344305	0.2841617	-0.002252917	-0.0006040886	
0.001467734	-0.0002197969	0.2037695	0.1767723	-0.002252917	-0.0006040886	-0.5562352	0.224282	

4.022e+10	-0.2361288	0.1782591	4.140527e-05	0.001626773	0.2638093	0.1023832	0.00105559	-0.001003119	
4.140527e-05	0.001626773	-0.2967581	0.2185492	0.001267662	-0.001733309	0.2045342	0.1756107	
0.2638093	0.1023832	0.001267662	-0.001733309	-0.5220917	0.2839448	-0.002251387	0.0007760939	
0.00105559	-0.001003119	0.2045342	0.1756107	-0.002251387	0.0007760939	-0.5549896	0.2244557	

4.024e+10	-0.2435366	0.1640202	0.0009678753	0.001266386	0.2499818	0.08818454	0.0002823946	-0.001397249	
0.0009678753	0.001266386	-0.2962877	0.2186817	4.070801e-05	-0.002200123	0.2049802	0.174674	
0.2499818	0.08818454	4.070801e-05	-0.002200123	-0.5092801	0.2816018	-0.001449553	0.00196039	
0.0002823946	-0.001397249	0.2049802	0.174674	-0.001449553	0.00196039	-0.5546588	0.2246599	

4.026e+10	-0.2550993	0.1523112	0.001487451	0.0004509299	0.2323631	0.07709878	-0.0005553214	-0.001276542	
0.001487451	0.0004509299	-0.2953405	0.2193392	-0.0012791	-0.001860406	0.2054352	0.1741231	
0.2323631	0.07709878	-0.0012791	-0.001860406	-0.4962401	0.2768848	-6.521046e-05	0.002496949	
-0.0005553214	-0.001276542	0.2054352	0.1741231	-6.521046e-05	0.002496949	-0.5547776	0.2257231	

4.028e+10	-0.2699397	0.1445584	0.001432716	-0.0004834988	0.2117649	0.07049406	-0.001155113	-0.000714248	
0.001432716	-0.0004834988	-0.2937036	0.2198783	-0.002184151	-0.0007678759	0.2062294	0.1737721	
0.2117649	0.07049406	-0.002184151	-0.0007678759	-0.4834166	0.2692873	0.001428538	0.00211917	
-0.001155113	-0.000714248	0.2062294	0.1737721	0.001428538	0.00211917	-0.5545125	0.2275352	

4.03e+10	-0.2861536	0.141799	0.000866614	-0.00118825	0.1895947	0.06940806	-0.001325205	6.504517e-05	
0.000866614	-0.00118825	-0.29174	0.219762	-0.002258964	0.000703589	0.2074004	0.1732476	
0.1895947	0.06940806	-0.002258964	0.000703589	-0.4714523	0.2585406	0.00244803	0.0008943986	
-0.001325205	6.504517e-05	0.2074004	0.1732476	0.00244803	0.0008943986	-0.55337	0.2294397	

4.032e+10	-0.3017149	0.1441693	2.651433e-05	-0.001431654	0.1675529	0.07430519	-0.001035873	0.0007871259	
2.651433e-05	-0.001431654	-0.2901609	0.2190492	-0.001393927	0.001954935	0.2086149	0.1723177	
0.1675529	0.07430519	-0.001393927	0.001954935	-0.4613522	0.2442734	0.002536569	-0.0007431865	
-0.001035873	0.0007871259	0.2086149	0.1723177	0.002536569	-0.0007431865	-0.5515947	0.2307371	

4.034e+10	-0.3149612	0.1505663	-0.0007784512	-0.001159769	0.1475044	0.08503476	-0.0004016258	0.001217254	
-0.0007784512	-0.001159769	-0.2893272	0.2182613	8.855657e-05	0.002410474	0.2095198	0.1711056	
0.1475044	0.08503476	8.855657e-05	0.002410474	-0.4544439	0.2266764	0.001596889	-0.002127708	
-0.0004016258	0.001217254	0.2095198	0.1711056	0.001596889	-0.002127708	-0.5500516	0.2311074	

4.036e+10	-0.3249568	0.1594761	-0.001272677	-0.0004956843	0.1312216	0.1007372	0.0003592678	0.001214892	
-0.001272677	-0.0004956843	-0.2888919	0.2180912	0.001535726	0.00183925	0.2100282	0.1700047	
0.1312216	0.1007372	0.001535726	0.00183925	-0.4521711	0.2066384	-7.218449e-06	-0.00265119	
0.0003592678	0.001214892	0.2100282	0.1700047	-7.218449e-06	-0.00265119	-0.5493774	0.2311627	

4.038e+10	-0.3315477	0.1695155	-0.001300982	0.0003142601	0.120012	0.1199659	0.0009806474	0.0007780321	
-0.001300982	0.0003142601	-0.2881653	0.2185708	0.002299717	0.0005058781	0.2104148	0.1692867	
0.120012	0.1199659	0.002299717	0.0005058781	-0.4557413	0.1856136	-0.001583387	-0.002078493	
0.0009806474	0.0007780321	0.2104148	0.1692867	-0.001583387	-0.002078493	-0.5494115	0.2318545	

4.04e+10	-0.3354046	0.1794657	-0.0008691616	0.0009841377	0.1145992	0.1409388	0.001230087	6.493117e-05	
-0.0008691616	0.0009841377	-0.2867504	0.219158	0.002073219	-0.0009758478	0.2110643	0.1688768	
0.1145992	0.1409388	0.002073219	-0.0009758478	-0.4654888	0.1658446	-0.002450843	-0.0006865938	
0.001230087	6.493117e-05	0.2110643	0.1688768	-0.002450843	-0.0006865938	-0.5493495	0.2334114	

4.042e+10	-0.3371499	0.188813	-0.0001422993	0.001279512	0.114915	0.1617071	0.001015086	-0.0006480269	
-0.0001422993	0.001279512	-0.284803	0.2192487	0.001017123	-0.00196248	0.2121116	0.1684131	
0.114915	0.1617071	0.001017123	-0.00196248	-0.4806406	0.1495189	-0.00228832	0.000883907	
0.001015086	-0.0006480269	0.2121116	0.1684131	-0.00228832	0.000883907	-0.5485222	0.2353236	

4.044e+10	-0.3376137	0.1973645	0.0006074891	0.001101828	0.1202193	0.1806913	0.0004349095	-0.001084441	
0.0006074891	0.001101828	-0.2830877	0.2185583	-0.0003564358	-0.00208414	0.2133336	0.1675757	
0.1202193	0.1806913	-0.0003564358	-0.00208414	-0.4995992	0.1382695	-0.001259744	0.00197588	
0.0004349095	-0.001084441	0.2133336	0.1675757	-0.001259744	0.00197588	-0.546844	0.2368672	

4.046e+10	-0.3370673	0.2053432	0.001100551	0.0005359187	0.1293636	0.1967875	-0.0002642001	-0.001093743	
0.001100551	0.0005359187	-0.2819874	0.2177089	-0.001453292	-0.001384919	0.2143447	0.1663946	
0.1293636	0.1967875	-0.001453292	-0.001384919	-0.5203189	0.1327243	0.000128081	0.002219307	
-0.0002642001	-0.001093743	0.2143447	0.1663946	0.000128081	0.002219307	-0.5450768	0.237572	

4.048e+10	-0.3358534	0.2128103	0.001171227	-0.0001853365	0.1410582	0.2095215	-0.0008091786	-0.0007093808	
0.001171227	-0.0001853365	-0.2815108	0.2172625	-0.00187937	-0.0002467564	0.214965	0.1651989	
0.1410582	0.2095215	-0.00187937	-0.0002467564	-0.5409913	0.1325799	0.001308277	0.001641022	
-0.0008091786	-0.0007093808	0.214965	0.1651989	0.001308277	0.001641022	-0.5440677	0.2375843	

4.05e+10	-0.3339575	0.2200372	0.0008296075	-0.0007910468	0.1541792	0.2188548	-0.001016366	-0.0001145426	
0.0008296075	-0.0007910468	-0.2809636	0.2175453	-0.001575507	0.000840536	0.2153517	0.1643156	
0.1541792	0.2188548	-0.001575507	0.000840536	-0.5601685	0.137176	0.001891458	0.0005714611	
-0.001016366	-0.0001145426	0.2153517	0.1643156	0.001891458	0.0005714611	-0.5439017	0.237964	

4.052e+10	-0.3314151	0.2269246	0.0002321283	-0.001084536	0.1678005	0.2250233	-0.0008556774	0.0004522933	
0.0002321283	-0.001084536	-0.2797754	0.218113	-0.0007625148	0.001501699	0.2158974	0.16378	
0.1678005	0.2250233	-0.0007625148	0.001501699	-0.5769822	0.1453562	0.001777173	-0.0005478505	
-0.0008556774	0.0004522933	0.2158974	0.16378	0.001777173	-0.0005478505	-0.5439799	0.2391303	

4.054e+10	-0.328146	0.2336325	-0.0004027413	-0.0009983244	0.1812938	0.2284818	-0.0004352124	0.0008032323	
-0.0004027413	-0.0009983244	-0.2778979	0.2183701	0.0002131353	0.001579081	0.216797	0.163303	
0.1812938	0.2284818	0.0002131353	0.001579081	-0.5909435	0.1562444	0.001118882	-0.001351823	
-0.0004352124	0.0008032323	0.216797	0.163303	0.001118882	-0.001351823	-0.543385	0.2410221	

4.056e+10	-0.3241519	0.2400349	-0.0008679332	-0.0005880769	0.1942564	0.2296761	6.879644e-05	0.0008597519	
-0.0008679332	-0.0005880769	-0.2760807	0.2178008	0.001012526	0.001123183	0.2179409	0.1625606	
0.1942564	0.2296761	0.001012526	0.001123183	-0.6020314	0.16877	0.0002029413	-0.001652586	
6.879644e-05	0.0008597519	0.2179409	0.1625606	0.0002029413	-0.001652586	-0.541923	0.2427545	

4.058e+10	-0.319467	0.2460227	-0.001023885	-5.539805e-06	0.2064811	0.2290228	0.0004905493	0.0006538255	
-0.001023885	-5.539805e-06	-0.2748024	0.2168701	0.001396184	0.0003438402	0.2190064	0.1614595	
0.2064811	0.2290228	0.001396184	0.0003438402	-0.6103465	0.1823002	-0.0006748695	-0.001443314	
0.0004905493	0.0006538255	0.2190064	0.1614595	-0.0006748695	-0.001443314	-0.540128	0.2436502	

4.06e+10	-0.3140764	0.2516227	-0.0008360359	0.0005523115	0.2178493	0.2268856	0.0007263549	0.0002856649	
-0.0008360359	0.0005523115	-0.2742704	0.2161397	0.001285089	-0.0004701742	0.2197381	0.1602417	
0.2178493	0.2268856	0.001285089	-0.0004701742	-0.6162042	0.196182	-0.001288402	-0.0008450351	
0.0007263549	0.0002856649	0.2197381	0.1602417	-0.001288402	-0.0008450351	-0.5388004	0.243844	

4.062e+10	-0.307969	0.2567723	-0.0003824544	0.0009053963	0.2283709	0.2235436	0.0007432939	-0.0001262526	
-0.0003824544	0.0009053963	-0.2737771	0.2162161	0.0007709372	-0.001051079	0.2202125	0.159214	
0.2283709	0.2235436	0.0007709372	-0.001051079	-0.6198581	0.2101722	-0.001506764	-4.708874e-05	
0.0007432939	-0.0001262526	0.2202125	0.159214	-0.001506764	-4.708874e-05	-0.5383113	0.2440756	

4.064e+10	-0.3012596	0.2613276	0.000179055	0.0009502577	0.2380631	0.2192018	0.0005615811	-0.0004795	
0.000179055	0.0009502577	-0.2727664	0.2167351	6.275759e-05	-0.001242716	0.2206844	0.1585078	
0.2380631	0.2192018	6.275759e-05	-0.001242716	-0.6216573	0.223933	-0.001295824	0.0007391252	
0.0005615811	-0.0004795	0.2206844	0.1585078	-0.001295824	0.0007391252	-0.5382976	0.2449761	

4.066e+10	-0.293902	0.2652815	0.0006659699	0.0006846167	0.2469379	0.2139948	0.0002349017	-0.0006949855	
0.0006659699	0.0006846167	-0.2711181	0.2169736	-0.000599758	-0.001029661	0.2214285	0.1579493	
0.2469379	0.2139948	-0.000599758	-0.001029661	-0.6218106	0.237322	-0.0007152804	0.001308112	
0.0002349017	-0.0006949855	0.2214285	0.1579493	-0.0007152804	0.001308112	-0.5379908	0.2465386	

4.068e+10	-0.2859275	0.2685977	0.0009254173	0.000200319	0.2550388	0.2080268	-0.0001581866	-0.0007206734	
0.0009254173	0.000200319	-0.2692246	0.2166169	-0.001021113	-0.000517144	0.2224394	0.1572512	
0.2550388	0.2080268	-0.001021113	-0.000517144	-0.6204476	0.2504252	8.423651e-05	0.001499636	
-0.0001581866	-0.0007206734	0.2224394	0.1572512	8.423651e-05	0.001499636	-0.5368022	0.2483786	

4.07e+10	-0.2773664	0.2711435	0.0008753538	-0.0003446522	0.2623612	0.2013677	-0.0005184706	-0.0005406562	
0.0008753538	-0.0003446522	-0.2678184	0.2157166	-0.001095327	0.0001135775	0.2234865	0.1562835	
0.2623612	0.2013677	-0.001095327	0.0001135775	-0.617752	0.2631113	0.0008818161	0.001239782	
-0.0005184706	-0.0005406562	0.2234865	0.1562835	0.0008818161	0.001239782	-0.5350677	0.2496199	

4.072e+10	-0.2682771	0.2728103	0.0005330267	-0.0007688418	0.2689223	0.1940599	-0.0007416025	-0.0001898594	
0.0005330267	-0.0007688418	-0.2670665	0.2148805	-0.0008310336	0.0006591416	0.2243591	0.1551162	
0.2689223	0.1940599	-0.0008310336	0.0006591416	-0.6138029	0.2753391	0.001433013	0.00058043	
-0.0007416025	-0.0001898594	0.2243591	0.1551162	0.001433013	0.00058043	-0.5334558	0.250116	

4.074e+10	-0.2586816	0.2735481	1.594139e-05	-0.0009309735	0.2746955	0.1861367	-0.0007477941	0.0002410986	
1.594139e-05	-0.0009309735	-0.2665645	0.2147067	-0.0003417165	0.0009655131	0.2249691	0.1539646	
0.2746955	0.1861367	-0.0003417165	0.0009655131	-0.6087032	0.2869532	0.001545922	-0.0002933067	
-0.0007477941	0.0002410986	0.2249691	0.1539646	0.001545922	-0.0002933067	-0.5326639	0.2500851	

4.076e+10	-0.2486181	0.273132	-0.0005023435	-0.0007809804	0.2796177	0.1776151	-0.0005141618	0.0006235064	
-0.0005023435	-0.0007809804	-0.2657644	0.2149815	0.0002099524	0.0009722185	0.2254321	0.1530368	
0.2796177	0.1776151	0.0002099524	0.0009722185	-0.6023384	0.2982176	0.001157682	-0.001107039	
-0.0005141618	0.0006235064	0.2254321	0.1530368	0.001157682	-0.001107039	-0.5324741	0.2506768	

4.078e+10	-0.238049	0.2715384	-0.0008522601	-0.0003707501	0.2836065	0.1685271	-9.547001e-05	0.0008267661	
-0.0008522601	-0.0003707501	-0.2642914	0.2153204	0.0006714098	0.0007062582	0.2260077	0.1523466	
0.2836065	0.1685271	0.0006714098	0.0007062582	-0.5948073	0.3088458	0.0003728185	-0.001588024	
-9.547001e-05	0.0008267661	0.2260077	0.1523466	0.0003728185	-0.001588024	-0.5322745	0.2520598	

4.08e+10	-0.2273016	0.2684045	-0.0009186643	0.0001674465	0.2866169	0.1589267	0.0003838692	0.0007672379	
-0.0009186643	0.0001674465	-0.2624978	0.2150816	0.0009300964	0.0002530677	0.2268389	0.1517006	
0.2866169	0.1589267	0.0009300964	0.0002530677	-0.5861332	0.3187744	-0.0005667333	-0.001563878	
0.0003838692	0.0007672379	0.2268389	0.1517006	-0.0005667333	-0.001563878	-0.5314538	0.2538321	

4.082e+10	-0.2163892	0.2636241	-0.0006717532	0.0006582889	0.2885359	0.1488544	0.0007665588	0.0004430011	
-0.0006717532	0.0006582889	-0.2609586	0.2142776	0.0009245116	-0.0002649947	0.2278606	0.1508691	
0.2885359	0.1488544	0.0009245116	-0.0002649947	-0.5763818	0.3278298	-0.001359267	-0.001021309	
0.0007665588	0.0004430011	0.2278606	0.1508691	-0.001359267	-0.001021309	-0.5298974	0.2552502	

4.084e+10	-0.2056328	0.2569474	-0.0001850591	0.000929507	0.2892097	0.1383551	0.0009131811	-5.76653e-05	
-0.0001850591	0.000929507	-0.2600207	0.2133555	0.0006568271	-0.0007092591	0.2288414	0.1497611	
0.2892097	0.1383551	0.0006568271	-0.0007092591	-0.5654521	0.3361415	-0.001739226	-0.0001115563	
0.0009131811	-5.76653e-05	0.2288414	0.1497611	-0.001739226	-0.0001115563	-0.5281203	0.255986	

4.086e+10	-0.1953985	0.248129	0.0003764019	0.0008769431	0.2884785	0.127529	0.0007507941	-0.0005769169	
0.0003764019	0.0008769431	-0.2594486	0.2128861	0.0001979764	-0.0009597025	0.2295773	0.1485202	
0.2884785	0.127529	0.0001979764	-0.0009597025	-0.5533808	0.3435119	-0.001555583	0.0008880086	
0.0007507941	-0.0005769169	0.2295773	0.1485202	-0.001555583	0.0008880086	-0.5268899	0.256185	

4.088e+10	-0.1861402	0.2370523	0.0008128653	0.0005113736	0.2861106	0.1165266	0.0003060882	-0.0009309726	
0.0008128653	0.0005113736	-0.2587805	0.2129431	-0.0003354742	-0.0009468248	0.2300573	0.1474051	
0.2861106	0.1165266	-0.0003354742	-0.0009468248	-0.5400703	0.3497884	-0.000830234	0.00164787	
0.0003060882	-0.0009309726	0.2300573	0.1474051	-0.000830234	0.00164787	-0.5265488	0.2563601	

4.09e+10	-0.1785809	0.2236244	0.0009658806	-4.238238e-05	0.2819041	0.1056465	-0.0002858423	-0.000971835	
0.0009658806	-4.238238e-05	-0.2575621	0.2132254	-0.0008094568	-0.0006580623	0.2305088	0.1465677	
0.2819041	0.1056465	-0.0008094568	-0.0006580623	-0.5254573	0.3548258	0.0002298001	0.001891492	
-0.0002858423	-0.000971835	0.2305088	0.1465677	0.0002298001	0.001891492	-0.526433	0.2574413	

4.092e+10	-0.1734677	0.2079071	0.0007732944	-0.0005916988	0.2756732	0.09526645	-0.0008146554	-0.0006528955	
0.0007732944	-0.0005916988	-0.255914	0.2131439	-0.001087457	-0.0001373778	0.2311822	0.1459159	
0.2756732	0.09526645	-0.001087457	-0.0001373778	-0.5093859	0.3582681	0.001288169	0.001494572	
-0.0008146554	-0.0006528955	0.2311822	0.1459159	0.001288169	0.001494572	-0.5258642	0.2590994	

4.094e+10	-0.1717514	0.1904148	0.0002925986	-0.0009345979	0.267337	0.08590457	-0.00106972	-6.673878e-05	
0.0002925986	-0.0009345979	-0.2542603	0.2125192	-0.001048414	0.000498048	0.2321314	0.1451757	
0.267337	0.08590457	-0.001048414	0.000498048	-0.491932	0.3595127	0.001978194	0.0005370556	
-0.00106972	-6.673878e-05	0.2321314	0.1451757	0.001978194	0.0005370556	-0.5244999	0.2607064	

4.096e+10	-0.1743609	0.1719432	-0.0003043363	-0.00093222	0.256981	0.0781454	-0.0009312902	0.0005765247	
-0.0003043363	-0.00093222	-0.2531017	0.2115508	-0.0006399587	0.001054619	0.2331564	0.1441522	
0.256981	0.0781454	-0.0006399587	0.001054619	-0.4729566	0.3582136	0.002016509	-0.0007016705	
-0.0009312902	0.0005765247	0.2331564	0.1441522	0.002016509	-0.0007016705	-0.52266	0.2617286	

4.098e+10	-0.181863	0.1539584	-0.0007856672	-0.0005775523	0.2449486	0.07263149	-0.000431242	0.001026386	
-0.0007856672	-0.0005775523	-0.252431	0.2108406	6.302553e-05	0.001310686	0.2340091	0.142879	
0.2449486	0.07263149	6.302553e-05	0.001310686	-0.4530601	0.3533331	0.001311382	-0.00180007	
-0.000431242	0.001026386	0.2340091	0.142879	0.001311382	-0.00180007	-0.5211761	0.2620103	

4.1e+10	-0.1942782	0.1381685	-0.0009620685	-1.326594e-05	0.2317748	0.06987983	0.0002471546	0.001097515	
-0.0009620685	-1.326594e-05	-0.2518466	0.2106511	0.0008468523	0.00110892	0.2345518	0.1416191	
0.2317748	0.06987983	0.0008468523	0.00110892	-0.4328033	0.3441439	3.765075e-05	-0.002321895	
0.0002471546	0.001097515	0.2345518	0.1416191	3.765075e-05	-0.002321895	-0.5205386	0.2620314	

4.102e+10	-0.2108462	0.1263389	-0.0007778922	0.000534031	0.2181969	0.07022763	0.0008407869	0.0007548188	
-0.0007778922	0.000534031	-0.250878	0.2108103	0.001413903	0.000442738	0.2349259	0.1406281	
0.2181969	0.07022763	0.001413903	0.000442738	-0.4133071	0.3299387	-0.001373008	-0.001988061	
0.0008407869	0.0007548188	0.2349259	0.1406281	-0.001373008	-0.001988061	-0.5203877	0.2627528	

4.104e+10	-0.2300431	0.1198039	-0.0003252392	0.0008629974	0.2050651	0.07373903	0.001121527	0.0001331206	
-0.0003252392	0.0008629974	-0.2494037	0.2108371	0.001486798	-0.0004977355	0.2354586	0.1399107	
0.2050651	0.07373903	0.001486798	-0.0004977355	-0.3964061	0.3102639	-0.002361849	-0.000834983	
0.001121527	0.0001331206	0.2354586	0.1399107	-0.002361849	-0.000834983	-0.5200383	0.264173	

4.106e+10	-0.2496857	0.119201	0.0002155977	0.0008748558	0.1931376	0.08023334	0.0009938071	-0.0005295741	
0.0002155977	0.0008748558	-0.2477128	0.2103732	0.0009436612	-0.001351198	0.2362921	0.1392089	
0.1931376	0.08023334	0.0009436612	-0.001351198	-0.3840131	0.2856095	-0.002474775	0.0007457648	
0.0009938071	-0.0005295741	0.2362921	0.1392089	-0.002474775	0.0007457648	-0.518853	0.2659678	

4.108e+10	-0.2678713	0.1240009	0.0006551902	0.0005898531	0.1831199	0.0893373	0.0005183737	-0.0009971034	
0.0006551902	0.0005898531	-0.2463683	0.2094536	-6.43806e-05	-0.001713291	0.2373152	0.1382538	
0.1831199	0.0893373	-6.43806e-05	-0.001713291	-0.378172	0.257295	-0.001585178	0.002124357	
0.0005183737	-0.0009971034	0.2373152	0.1382538	-0.001585178	0.002124357	-0.5171176	0.2671329	

4.11e+10	-0.2829717	0.1330961	0.0008567212	0.0001220409	0.1755993	0.1005707	-0.00013324	-0.001117384	
0.0008567212	0.0001220409	-0.2455557	0.2085413	-0.001121192	-0.001357699	0.2382358	0.1370027	
0.1755993	0.1005707	-0.001121192	-0.001357699	-0.3803083	0.2275197	-2.354623e-06	0.002698199	
-0.00013324	-0.001117384	0.2382358	0.1370027	-2.354623e-06	0.002698199	-0.5154765	0.2675402	

4.112e+10	-0.2942233	0.1449034	0.0007695488	-0.0003682272	0.1710523	0.1132772	-0.0007424319	-0.0008534684	
0.0007695488	-0.0003682272	-0.2450298	0.2080946	-0.001739321	-0.0004012341	0.2388487	0.1356684	
0.1710523	0.1132772	-0.001739321	-0.0004012341	-0.3907518	0.1991839	0.001628557	0.002183445	
-0.0007424319	-0.0008534684	0.2388487	0.1356684	0.001628557	0.002183445	-0.5144598	0.2676967	

4.114e+10	-0.3014807	0.1580125	0.0004336675	-0.00072587	0.1698269	0.1266127	-0.001102828	-0.0002895273	
0.0004336675	-0.00072587	-0.2442687	0.2081096	-0.001630061	0.0007366859	0.2392459	0.1345387	
0.1698269	0.1266127	-0.001630061	0.0007366859	-0.4086046	0.1750437	0.00261366	0.0007787188	
-0.001102828	-0.0002895273	0.2392459	0.1345387	0.00261366	0.0007787188	-0.5141817	0.2681224	

4.116e+10	-0.3051669	0.1711817	-4.065153e-05	-0.0008417189	0.1718909	0.1396671	-0.001083312	0.0003868155	
-4.065153e-05	-0.0008417189	-0.2429364	0.2082217	-0.000851021	0.00155894	0.2396698	0.1337	
0.1718909	0.1396671	-0.000851021	0.00155894	-0.4318271	0.1572576	0.002547638	-0.0009233388	
-0.001083312	0.0003868155	0.2396698	0.1337	0.002547638	-0.0009233388	-0.5138935	0.2693427	

4.118e+10	-0.3059335	0.1836054	-0.0005023704	-0.0006771828	0.1769684	0.1515625	-0.0006809065	0.0009392542	
-0.0005023704	-0.0006771828	-0.241298	0.2078423	0.000247196	0.001732554	0.2403876	0.1329639	
0.1769684	0.1515625	0.000247196	0.001732554	-0.4578512	0.1467355	0.001491591	-0.002221982	
-0.0006809065	0.0009392542	0.2403876	0.1329639	0.001491591	-0.002221982	-0.5130095	0.2709371	

4.12e+10	-0.3044193	0.1949089	-0.0007965834	-0.0002802088	0.1844677	0.16166	-3.122074e-05	0.001168883	
-0.0007965834	-0.0002802088	-0.2398446	0.2069553	0.001200554	0.001221479	0.2413195	0.1320584	
0.1844677	0.16166	0.001200554	0.001221479	-0.4841693	0.1435094	-9.212393e-05	-0.002630187	
-3.122074e-05	0.001168883	0.2413195	0.1320584	-9.212393e-05	-0.002630187	-0.5113898	0.2723689	

4.122e+10	-0.301223	0.2049416	-0.0008160493	0.0002159143	0.1937359	0.1695492	0.0006388109	0.0009899878	
-0.0008160493	0.0002159143	-0.2389304	0.2059482	0.001643438	0.0002774888	0.2422481	0.1308738	
0.1937359	0.1695492	0.001643438	0.0002774888	-0.5088797	0.1463996	-0.001571518	-0.002048042	
0.0006388109	0.0009899878	0.2422481	0.1308738	-0.001571518	-0.002048042	-0.5096686	0.2729384	

4.124e+10	-0.2968542	0.2136258	-0.0005517601	0.0006351751	0.2040764	0.1751001	0.001093813	0.00046128	
-0.0005517601	0.0006351751	-0.2383809	0.2053297	0.001455889	-0.0007029267	0.2429529	0.1295396	
0.2040764	0.1751001	0.001455889	-0.0007029267	-0.5307197	0.1543892	-0.002414028	-0.0007541977	
0.001093813	0.00046128	0.2429529	0.1295396	-0.002414028	-0.0007541977	-0.508445	0.273083	

4.126e+10	-0.2915912	0.2211694	-0.0001007936	0.000831332	0.2149045	0.1783474	0.001173096	-0.0002354938	
-0.0001007936	0.000831332	-0.2376758	0.2052286	0.0007720804	-0.001365315	0.2434192	0.128297	
0.2149045	0.1783474	0.0007720804	-0.001365315	-0.549157	0.1656957	-0.002363933	0.0007421712	
0.001173096	-0.0002354938	0.2434192	0.128297	-0.002363933	0.0007421712	-0.5079159	0.2733702	

4.128e+10	-0.2857364	0.2275293	0.0003784503	0.000743392	0.2257105	0.1794611	0.000846358	-0.0008605388	
0.0003784503	0.000743392	-0.2365448	0.2051907	-0.0001264033	-0.00152186	0.2438126	0.1272888	
0.2257105	0.1794611	-0.0001264033	-0.00152186	-0.56398	0.1794468	-0.00150083	0.001912017	
0.000846358	-0.0008605388	0.2438126	0.1272888	-0.00150083	0.001912017	-0.5076442	0.2742532	

4.13e+10	-0.2793818	0.2329374	0.000727095	0.0004061265	0.2361307	0.1786879	0.0002220952	-0.001198902	
0.000727095	0.0004061265	-0.2350251	0.204881	-0.0009326709	-0.001167501	0.2443818	0.1264537	
0.2361307	0.1786879	-0.0009326709	-0.001167501	-0.5752124	0.1946987	-0.0001671208	0.002385152	
0.0002220952	-0.001198902	0.2443818	0.1264537	-0.0001671208	0.002385152	-0.5068897	0.2757917	

4.132e+10	-0.2727184	0.2373213	0.0008303622	-6.711422e-05	0.2459162	0.176312	-0.0004909518	-0.001132895	
0.0008303622	-6.711422e-05	-0.2335904	0.2040612	-0.001399563	-0.0004482729	0.2451676	0.1255828	
0.2459162	0.176312	-0.001399563	-0.0004482729	-0.5833498	0.210479	0.001175738	0.002046159	
-0.0004909518	-0.001132895	0.2451676	0.1255828	0.001175738	0.002046159	-0.5055077	0.2772162	

4.134e+10	-0.2658107	0.2408534	0.0006531838	-0.0005182085	0.2548883	0.1725658	-0.001055709	-0.0006774932	
0.0006531838	-0.0005182085	-0.2325639	0.203093	-0.001398047	0.0003913939	0.2460615	0.1245103	
0.2548883	0.1725658	-0.001398047	0.0003913939	-0.5885837	0.2265256	0.002093902	0.001040105	
-0.001055709	-0.0006774932	0.2460615	0.1245103	0.002093902	0.001040105	-0.5037686	0.2780952	

4.136e+10	-0.2587064	0.2436221	0.0002558805	-0.0007944489	0.2629268	0.16769	-0.001278638	2.589061e-05	
0.0002558805	-0.0007944489	-0.2318889	0.2023609	-0.0009495667	0.001084681	0.2468565	0.123218	
0.2629268	0.16769	-0.0009495667	0.001084681	-0.5914007	0.2421894	0.002307394	-0.0002880146	
-0.001278638	2.589061e-05	0.2468565	0.123218	0.002307394	-0.0002880146	-0.5024175	0.2782653	

4.138e+10	-0.2515661	0.2455788	-0.0002265195	-0.0008053291	0.2699948	0.1619087	-0.001071319	0.0007518191	
-0.0002265195	-0.0008053291	-0.2312759	0.2019682	-0.0002062607	0.001426061	0.2474308	0.1218798	
0.2699948	0.1619087	-0.0002062607	0.001426061	-0.5920723	0.2574404	0.001764645	-0.001508748	
-0.001071319	0.0007518191	0.2474308	0.1218798	0.001764645	-0.001508748	-0.5016275	0.2785146	

4.14e+10	-0.2442389	0.2468962	-0.0006362915	-0.0005503959	0.2760199	0.1554023	-0.0004801489	0.001255413	
-0.0006362915	-0.0005503959	-0.2302411	0.2018449	0.0006056881	0.001319529	0.2478263	0.1206856	
0.2760199	0.1554023	0.0006056881	0.001319529	-0.590824	0.2721236	0.0006480862	-0.0022367	
-0.0004801489	0.001255413	0.2478263	0.1206856	0.0006480862	-0.0022367	-0.5011719	0.2792925	

4.142e+10	-0.2368553	0.2475088	-0.0008427092	-0.000111244	0.2810006	0.1483366	0.0003157048	0.001348025	
-0.0008427092	-0.000111244	-0.2289096	0.2015271	0.001244954	0.0007908342	0.248236	0.1197028	
0.2810006	0.1483366	0.001244954	0.0007908342	-0.5878814	0.2860941	-0.0006881943	-0.00224258	
0.0003157048	0.001348025	0.248236	0.1197028	-0.0006881943	-0.00224258	-0.5005805	0.2804534	

4.144e+10	-0.2293663	0.2474331	-0.0007769493	0.000376094	0.2849473	0.1408545	0.001053412	0.0009670688	
-0.0007769493	0.000376094	-0.2275536	0.2008273	0.001508795	-1.776694e-05	0.2488548	0.1188523	
0.2849473	0.1408545	0.001508795	-1.776694e-05	-0.583435	0.2993302	-0.001825999	-0.001518668	
0.001053412	0.0009670688	0.2488548	0.1188523	-0.001825999	-0.001518668	-0.4993835	0.2818476	

4.146e+10	-0.2218282	0.2466248	-0.0004494558	0.000756669	0.287817	0.1330694	0.001465764	0.0002090763	
-0.0004494558	0.000756669	-0.226439	0.199914	0.001286191	-0.0008676776	0.2496777	0.1178888	
0.287817	0.1330694	0.001286191	-0.0008676776	-0.5775295	0.3118784	-0.002400925	-0.0002756735	
0.001465764	0.0002090763	0.2496777	0.1178888	-0.002400925	-0.0002756735	-0.4977713	0.2828884	

4.148e+10	-0.2142258	0.2450531	4.500375e-05	0.0008989442	0.2896071	0.1250962	0.001374733	-0.0006853565	
4.500375e-05	0.0008989442	-0.2256042	0.1991069	0.0006117828	-0.001480042	0.2505666	0.1166761	
0.2896071	0.1250962	0.0006117828	-0.001480042	-0.5704711	0.3234146	-0.002209204	0.001108699	
0.001374733	-0.0006853565	0.2505666	0.1166761	-0.002209204	0.001108699	-0.4963067	0.283318	

4.15e+10	-0.2067153	0.2426321	0.0005489458	0.0007427248	0.2902595	0.1170721	0.0007663066	-0.001401022	
0.0005489458	0.0007427248	-0.2249444	0.1985246	-0.0003237329	-0.001627515	0.2512557	0.1152567	
0.2902595	0.1170721	-0.0003237329	-0.001627515	-0.5621255	0.3341639	-0.001273154	0.002199845	
0.0007663066	-0.001401022	0.2512557	0.1152567	-0.001273154	0.002199845	-0.4953006	0.2835465	

4.152e+10	-0.1993268	0.2393244	0.0008955195	0.0003235903	0.2897503	0.1091582	-0.0001849665	-0.001651877	
0.0008955195	0.0003235903	-0.2240922	0.1981903	-0.00122465	-0.001217829	0.2516656	0.1138747	
0.2897503	0.1091582	-0.00122465	-0.001217829	-0.5525702	0.3439447	0.0001533797	0.002624221	
-0.0001849665	-0.001651877	0.2516656	0.1138747	0.0001533797	0.002624221	-0.494711	0.284012	

4.154e+10	-0.192102	0.2351211	0.0009581228	-0.0002384961	0.2880625	0.1015559	-0.001152323	-0.001291977	
0.0009581228	-0.0002384961	-0.2229802	0.1978319	-0.001774457	-0.000333363	0.251946	0.1127642	
0.2880625	0.1015559	-0.001774457	-0.000333363	-0.5417896	0.3526495	0.001643456	0.002184905	
-0.001152323	-0.001291977	0.251946	0.1127642	0.001643456	0.002184905	-0.494022	0.2851088	

4.156e+10	-0.1852243	0.2299614	0.0006877606	-0.0007666025	0.2852389	0.09448288	-0.001758401	-0.0003962728	
0.0006877606	-0.0007666025	-0.2217026	0.1972524	-0.001731603	0.0007680642	0.2524027	0.1118864	
0.2852389	0.09448288	-0.001731603	0.0007680642	-0.5298526	0.3600875	0.002698736	0.0009392183	
-0.001758401	-0.0003962728	0.2524027	0.1118864	0.002698736	0.0009392183	-0.4930577	0.2862756	

4.158e+10	-0.1787431	0.2238275	0.0001378617	-0.001069955	0.2813356	0.08817602	-0.001724372	0.0007365743	
0.0001378617	-0.001069955	-0.2204972	0.1964558	-0.001028315	0.001704657	0.2531501	0.1110092	
0.2813356	0.08817602	-0.001028315	0.001704657	-0.5168518	0.3659515	0.002896135	-0.0007760171	
-0.001724372	0.0007365743	0.2531501	0.1110092	0.002896135	-0.0007760171	-0.4916779	0.2873133	

4.16e+10	-0.1729398	0.2165604	-0.0005267259	-0.00100199	0.2764928	0.08288871	-0.0009985917	0.001673161	
-0.0005267259	-0.00100199	-0.2196098	0.1955277	0.00015644	0.002085942	0.2540709	0.1098463	
0.2764928	0.08288871	0.00015644	0.002085942	-0.5027859	0.3701442	0.002048215	-0.002401205	
-0.0009985917	0.001673161	0.2540709	0.1098463	0.002048215	-0.002401205	-0.4902142	0.2879521	

4.162e+10	-0.1679927	0.2081956	-0.001060591	-0.0005345819	0.2709303	0.07888177	0.0001919818	0.002014071	
-0.001060591	-0.0005345819	-0.2188745	0.1948046	0.001411734	0.001681306	0.2548379	0.1083876	
0.2709303	0.07888177	0.001411734	0.001681306	-0.4877924	0.3724061	0.0003218468	-0.003314611	
0.0001919818	0.002014071	0.2548379	0.1083876	0.0003218468	-0.003314611	-0.4889284	0.2884608	

4.164e+10	-0.1641637	0.1987221	-0.001227585	0.0002008047	0.2649765	0.0763613	0.001403784	0.001558896	
-0.001227585	0.0002008047	-0.218093	0.1943138	0.002233037	0.0005534481	0.2552603	0.1068981	
0.2649765	0.0763613	0.002233037	0.0005534481	-0.4723253	0.372084	-0.001748702	-0.003053406	
0.001403784	0.001558896	0.2552603	0.1068981	-0.001748702	-0.003053406	-0.4880776	0.2888783	

4.166e+10	-0.161916	0.1882448	-0.0009058488	0.0009302046	0.2591408	0.07540999	0.002128826	0.0004191641	
-0.0009058488	0.0009302046	-0.2171509	0.1938827	0.002224283	-0.0009183278	0.2555007	0.1056699	
0.2591408	0.07540999	0.002224283	-0.0009183278	-0.456799	0.3689854	-0.003384379	-0.001535935	
0.002128826	0.0004191641	0.2555007	0.1056699	-0.003384379	-0.001535935	-0.4873578	0.289602	

4.168e+10	-0.1617567	0.17696	-0.0001716437	0.001336927	0.2538712	0.07588496	0.002007029	-0.000980889	
-0.0001716437	0.001336927	-0.2159974	0.1933276	0.001288456	-0.002154644	0.2558567	0.1047259	
0.2538712	0.07588496	0.001288456	-0.002154644	-0.4418413	0.3629326	-0.003832936	0.0008042335	
0.002007029	-0.000980889	0.2558567	0.1047259	-0.003832936	0.0008042335	-0.486502	0.2905891	

4.17e+10	-0.1640932	0.1654159	0.000693958	0.001202067	0.2495248	0.07745564	0.001019571	-0.002045032	
0.000693958	0.001202067	-0.2148496	0.1925706	-0.0002784573	-0.002593595	0.2564959	0.1038186	
0.2495248	0.07745564	-0.0002784573	-0.002593595	-0.4282594	0.3539095	-0.002723229	0.003079133	
0.001019571	-0.002045032	0.2564959	0.1038186	-0.002723229	0.003079133	-0.4853281	0.2916146	

4.172e+10	-0.1691875	0.1544894	0.001307565	0.0005418784	0.2463071	0.07969746	-0.000446042	-0.002275597	
0.001307565	0.0005418784	-0.2138741	0.1916962	-0.001851226	-0.001960356	0.2573345	0.1026973	
0.2463071	0.07969746	-0.001851226	-0.001960356	-0.4168413	0.3422755	-0.0003380632	0.004279267	
-0.000446042	-0.002275597	0.2573345	0.1026973	-0.0003380632	0.004279267	-0.4839722	0.2924117	

4.174e+10	-0.1769358	0.1450783	0.001379567	-0.000369912	0.2441839	0.08220544	-0.001752549	-0.001539652	
0.001379567	-0.000369912	-0.2130436	0.1908848	-0.002735658	-0.0004455302	0.2581044	0.1012955	
0.2441839	0.08220544	-0.002735658	-0.0004455302	-0.40849	0.3284344	0.002408414	0.003751203	
-0.001752549	-0.001539652	0.2581044	0.1012955	0.002408414	0.003751203	-0.4826236	0.2929784	

4.176e+10	-0.1868404	0.1381033	0.0008731718	-0.001130568	0.243014	0.08466447	-0.002321975	-0.0001558537	
0.0008731718	-0.001130568	-0.212284	0.1902042	-0.002498465	0.001339104	0.2586147	0.09979112	
0.243014	0.08466447	-0.002498465	0.001339104	-0.4036215	0.3135325	0.004327355	0.00156631	
-0.002321975	-0.0001558537	0.2586147	0.09979112	0.004327355	0.00156631	-0.4814369	0.2935245	

4.178e+10	-0.1979687	0.1341861	1.669323e-05	-0.001419002	0.2425593	0.08688223	-0.001924763	0.001266739	
1.669323e-05	-0.001419002	-0.2114656	0.189604	-0.001188713	0.00263026	0.2589057	0.09841627	
0.2425593	0.08688223	-0.001188713	0.00263026	-0.4025926	0.2984469	0.004500232	-0.001429114	
-0.001924763	0.001266739	0.2589057	0.09841627	0.004500232	-0.001429114	-0.4805658	0.2940298	

4.18e+10	-0.20919	0.1335769	-0.0008244714	-0.00113729	0.2425432	0.08883503	-0.000771306	0.0021342	
-0.0008244714	-0.00113729	-0.2105295	0.18903	0.0006681905	0.002850635	0.2591701	0.09729177	
0.2425432	0.08883503	0.0006681905	0.002850635	-0.4051085	0.2843983	0.002748552	-0.003952587	
-0.000771306	0.0021342	0.2591701	0.09729177	0.002748552	-0.003952587	-0.4797448	0.2947948	

4.182e+10	-0.2195457	0.135912	-0.00132237	-0.0004240575	0.2428517	0.09065361	0.0006310557	0.002137805	
-0.00132237	-0.0004240575	-0.2094903	0.1883613	0.00229091	0.001872019	0.2596245	0.09633175	
0.2428517	0.09065361	0.00229091	0.001872019	-0.4106072	0.2721874	-0.0002317132	-0.004873695	
0.0006310557	0.002137805	0.2596245	0.09633175	-0.0002317132	-0.004873695	-0.4787854	0.2957039	

4.184e+10	-0.2281327	0.1406777	-0.001305601	0.0004287549	0.2435102	0.09245221	0.001733088	0.001340643	
-0.001305601	0.0004287549	-0.208418	0.1875945	0.002975603	8.78772e-05	0.2603241	0.09530115	
0.2435102	0.09245221	0.002975603	8.78772e-05	-0.4182545	0.2624723	-0.003172652	-0.003758316	
0.001733088	0.001340643	0.2603241	0.09530115	-0.003172652	-0.003758316	-0.4775425	0.2966661	

4.186e+10	-0.2345344	0.1470661	-0.0008016268	0.001101726	0.2446605	0.09425947	0.002159384	8.609942e-05	
-0.0008016268	0.001101726	-0.2074992	0.186702	0.002416389	-0.001747054	0.2611304	0.09401788	
0.2446605	0.09425947	0.002416389	-0.001747054	-0.4272597	0.2555071	-0.004818152	-0.001071688	
0.002159384	8.609942e-05	0.2611304	0.09401788	-0.004818152	-0.001071688	-0.4761461	0.2974136	

4.188e+10	-0.2385815	0.1542272	-9.217676e-06	0.001354169	0.2464131	0.09590898	0.001799578	-0.001164154	
-9.217676e-06	0.001354169	-0.2067268	0.1858112	0.0008526558	-0.002848732	0.2617766	0.0924738	
0.2464131	0.09590898	0.0008526558	-0.002848732	-0.4367849	0.2513654	-0.004489889	0.002053736	
0.001799578	-0.001164154	0.2617766	0.0924738	-0.004489889	0.002053736	-0.4748542	0.2978755	

4.19e+10	-0.2403914	0.1614755	0.0007784535	0.001101609	0.2488081	0.0972264	0.000800733	-0.001982282	
0.0007784535	0.001101609	-0.205993	0.1850867	-0.001044129	-0.002763208	0.2620954	0.09092776	
0.2488081	0.0972264	-0.001044129	-0.002763208	-0.4460374	0.249793	-0.002349075	0.004331866	
0.000800733	-0.001982282	0.2620954	0.09092776	-0.002349075	0.004331866	-0.4738102	0.2982587	

4.192e+10	-0.2403699	0.1681213	0.00127163	0.0004409131	0.2517563	0.09797855	-0.0004871935	-0.002086988	
0.00127163	0.0004409131	-0.2052641	0.1844317	-0.00247834	-0.00155466	0.2622435	0.08963775	
0.2517563	0.09797855	-0.00247834	-0.00155466	-0.4543046	0.250376	0.0007104455	0.004859239	
-0.0004871935	-0.002086988	0.2622435	0.08963775	0.0007104455	0.004859239	-0.4729085	0.2988449	

4.194e+10	-0.238929	0.1739109	0.001287798	-0.0003835423	0.2551015	0.09800603	-0.00161168	-0.001430413	
0.001287798	-0.0003835423	-0.2043324	0.1838526	-0.002879732	0.0002504246	0.2625355	0.08865402	
0.2551015	0.09800603	-0.002879732	0.0002504246	-0.4613617	0.2523789	0.003453855	0.003459526	
-0.00161168	-0.001430413	0.2625355	0.08865402	0.003453855	0.003459526	-0.4720722	0.2995861	

4.196e+10	-0.2365606	0.1786499	0.0008192832	-0.001062134	0.258623	0.09718424	-0.002157863	-0.0002348	
0.0008192832	-0.001062134	-0.2032605	0.1831451	-0.002121105	0.001903827	0.2631408	0.08769855	
0.258623	0.09718424	-0.002121105	0.001903827	-0.4671359	0.2553257	0.004809692	0.0007248133	
-0.002157863	-0.0002348	0.2631408	0.08769855	0.004809692	0.0007248133	-0.4709931	0.3005182	

4.198e+10	-0.2337413	0.1822905	4.352846e-05	-0.001336792	0.2620536	0.0954626	-0.001910156	0.001069738	
4.352846e-05	-0.001336792	-0.202282	0.1821994	-0.0005500109	0.002750038	0.2639735	0.08645325	
0.2620536	0.0954626	-0.0005500109	0.002750038	-0.4718118	0.2587377	0.004284068	-0.002255198	
-0.001910156	0.001069738	0.2639735	0.08645325	0.004284068	-0.002255198	-0.4696577	0.3013991	

4.2e+10	-0.2306664	0.1851294	-0.0007430233	-0.001104902	0.2650988	0.0929142	-0.0009412277	0.002000211	
-0.0007430233	-0.001104902	-0.2014649	0.1812089	0.001177548	0.002490221	0.264641	0.08488032	
0.2650988	0.0929142	0.001177548	0.002490221	-0.4755193	0.2623925	0.002115336	-0.004336697	
-0.0009412277	0.002000211	0.264641	0.08488032	0.002115336	-0.004336697	-0.4683362	0.3019378	

4.202e+10	-0.227673	0.1872124	-0.001240292	-0.0004610141	0.267548	0.08971767	0.00040552	0.002197191	
-0.001240292	-0.0004610141	-0.2008119	0.1803048	0.002379407	0.001280322	0.2649822	0.08324359	
0.267548	0.08971767	0.002379407	0.001280322	-0.4784395	0.2660773	-0.0008527693	-0.004739492	
0.00040552	0.002197191	0.2649822	0.08324359	-0.0008527693	-0.004739492	-0.4670422	0.3023744	

4.204e+10	-0.2249007	0.188781	-0.001268175	0.0003436051	0.2692613	0.0860928	0.001631321	0.00156236	
-0.001268175	0.0003436051	-0.2002214	0.1795853	0.002624549	-0.0003642143	0.2650868	0.08186545	
0.2692613	0.0860928	0.002624549	-0.0003642143	-0.4808538	0.2697322	-0.003485364	-0.003314431	
0.001631321	0.00156236	0.2650868	0.08186545	-0.003485364	-0.003314431	-0.4660048	0.3027427	

4.206e+10	-0.2223013	0.1901318	-0.0008299213	0.001007491	0.2701717	0.08226988	0.002261045	0.0003129535	
-0.0008299213	0.001007491	-0.1993981	0.1790354	0.001874944	-0.001802283	0.2652982	0.08080104	
0.2701717	0.08226988	0.001874944	-0.001802283	-0.4829607	0.2734686	-0.004763885	-0.0006085776	
0.002261045	0.0003129535	0.2652982	0.08080104	-0.004763885	-0.0006085776	-0.4651239	0.3033261	

4.208e+10	-0.2199128	0.1913695	-9.687662e-05	0.001296285	0.2702719	0.07845986	0.002034665	-0.001083765	
-9.687662e-05	0.001296285	-0.1984193	0.1783443	0.0004598516	-0.00251592	0.2658024	0.07979004	
0.2702719	0.07845986	0.0004598516	-0.00251592	-0.4849138	0.2773757	-0.004191988	0.002321745	
0.002034665	-0.001083765	0.2658024	0.07979004	-0.004191988	0.002321745	-0.464245	0.3041407	

4.21e+10	-0.2174934	0.1927605	0.0006656662	0.001114895	0.2696073	0.07487009	0.001020988	-0.002092502	
0.0006656662	0.001114895	-0.1974078	0.1774351	-0.001076702	-0.002279839	0.2665125	0.07856022	
0.2696073	0.07487009	-0.001076702	-0.002279839	-0.4866108	0.2816247	-0.002002374	0.004339499	
0.001020988	-0.002092502	0.2665125	0.07856022	-0.002002374	0.004339499	-0.4631048	0.3051295	

4.212e+10	-0.214943	0.1942159	0.001188349	0.0005310267	0.2682815	0.07171018	-0.0004078546	-0.002317789	
0.001188349	0.0005310267	-0.1965578	0.1763612	-0.002176008	-0.001215133	0.2671608	0.07705139	
0.2682815	0.07171018	-0.002176008	-0.001215133	-0.4877895	0.2864133	0.0009452324	0.004671837	
-0.0004078546	-0.002317789	0.2671608	0.07705139	0.0009452324	0.004671837	-0.4616875	0.3059321	

4.214e+10	-0.212028	0.1957909	0.001285415	-0.000249999	0.266443	0.06914999	-0.001714479	-0.001652764	
0.001285415	-0.000249999	-0.1959013	0.1753406	-0.002456669	0.0002703508	0.2675569	0.07544372	
0.266443	0.06914999	-0.002456669	0.0002703508	-0.4883214	0.2915602	0.003513874	0.003203102	
-0.001714479	-0.001652764	0.2675569	0.07544372	0.003513874	0.003203102	-0.4602133	0.3063442	

4.216e+10	-0.2085452	0.1973494	0.0009166216	-0.0009540093	0.2642982	0.06725087	-0.002389431	-0.0003247625	
0.0009166216	-0.0009540093	-0.1953688	0.1744959	-0.001836519	0.001636854	0.2677343	0.07395247	
0.2642982	0.06725087	-0.001836519	0.001636854	-0.4880054	0.297062	0.004715836	0.0005059588	
-0.002389431	-0.0003247625	0.2677343	0.07395247	0.004715836	0.0005059588	-0.4589748	0.3065613	

4.218e+10	-0.2044391	0.1986695	0.0002004088	-0.001327963	0.262015	0.06604217	-0.002142983	0.001169848	
0.0002004088	-0.001327963	-0.1947279	0.1738624	-0.0005444135	0.002398182	0.2678812	0.07269637	
0.262015	0.06604217	-0.0005444135	0.002398182	-0.4867466	0.3026196	0.004090273	-0.002373815	
-0.002142983	0.001169848	0.2678812	0.07269637	0.004090273	-0.002373815	-0.4580894	0.3068958	

4.22e+10	-0.1997343	0.1994556	-0.0006204618	-0.001220884	0.259722	0.06548349	-0.001039597	0.002241669	
-0.0006204618	-0.001220884	-0.1939145	0.1731969	0.0009581716	0.002274842	0.2682111	0.07158606	
0.259722	0.06548349	0.0009581716	0.002274842	-0.4842597	0.3081511	0.001890466	-0.00431909	
-0.001039597	0.002241669	0.2682111	0.07158606	0.001890466	-0.00431909	-0.4573788	0.3075776	

4.222e+10	-0.1944949	0.1994456	-0.001246519	-0.0006395241	0.2574886	0.06558517	0.000509088	0.002447106	
-0.001246519	-0.0006395241	-0.1928922	0.172405	0.002123789	0.001290827	0.2687376	0.07041676	
0.2574886	0.06558517	0.002123789	0.001290827	-0.4807843	0.3129413	-0.001023955	-0.004588435	
0.000509088	0.002447106	0.2687376	0.07041676	-0.001023955	-0.004588435	-0.4564726	0.3084746	

4.224e+10	-0.1889764	0.1984448	-0.001415988	0.0002290864	0.2554434	0.06639047	0.001894105	0.001673053	
-0.001415988	0.0002290864	-0.191968	0.171338	0.002496896	-0.0002134186	0.2693629	0.06904037	
0.2554434	0.06639047	0.002496896	-0.0002134186	-0.4762128	0.3169944	-0.003531497	-0.003088327	
0.001894105	0.001673053	0.2693629	0.06904037	-0.003531497	-0.003088327	-0.4550179	0.3094621	

4.226e+10	-0.1835613	0.1962952	-0.001018345	0.001054159	0.2537328	0.06793529	0.002545105	0.000198065	
-0.001018345	0.001054159	-0.1912806	0.1701854	0.001894913	-0.001669416	0.2698672	0.06745557	
0.2537328	0.06793529	0.001894913	-0.001669416	-0.4710824	0.3197868	-0.004668363	-0.0003944751	
0.002545105	0.000198065	0.2698672	0.06745557	-0.004668363	-0.0003944751	-0.453356	0.3100708	

4.228e+10	-0.1785246	0.1931268	-0.0001777368	0.001480872	0.2525548	0.07020108	0.00216366	-0.001393369	
-0.0001777368	0.001480872	-0.1908141	0.1691747	0.0005222197	-0.002485634	0.2701353	0.0658269	
0.2525548	0.07020108	0.0005222197	-0.002485634	-0.4658097	0.3211007	-0.003984372	0.002454079	
0.00216366	-0.001393369	0.2701353	0.0658269	-0.003984372	0.002454079	-0.4519944	0.3101828	

4.23e+10	-0.1742365	0.1890829	0.0007689474	0.001299546	0.2521327	0.07315113	0.0008737175	-0.002433505	
0.0007689474	0.001299546	-0.1903621	0.1684181	-0.001081051	-0.002306748	0.2701982	0.0643703	
0.2521327	0.07315113	-0.001081051	-0.002306748	-0.4606766	0.3211334	-0.00172945	0.004337099	
0.0008737175	-0.002433505	0.2701982	0.0643703	-0.00172945	0.004337099	-0.4510549	0.3103493	

4.232e+10	-0.1709013	0.1843629	0.001412501	0.0005622739	0.252758	0.07666848	-0.0007958047	-0.002459455	
0.001412501	0.0005622739	-0.1896655	0.1678019	-0.002255127	-0.001183466	0.2703249	0.06318019	
0.252758	0.07666848	-0.002255127	-0.001183466	-0.4561428	0.3198694	0.001207666	0.004488264	
-0.0007958047	-0.002459455	0.2703249	0.06318019	0.001207666	0.004488264	-0.4503824	0.3108141	

4.234e+10	-0.1686226	0.1793765	0.001461331	-0.000423284	0.2547145	0.08049204	-0.002123004	-0.001446587	
0.001461331	-0.000423284	-0.1887451	0.1670463	-0.002499917	0.0004268696	0.2707009	0.0620883	
0.2547145	0.08049204	-0.002499917	0.0004268696	-0.4528086	0.3174134	0.003631214	0.002839976	
-0.002123004	-0.001446587	0.2707009	0.0620883	0.003631214	0.002839976	-0.4495117	0.3117212	

4.236e+10	-0.1674377	0.1744195	0.0008855528	-0.001225413	0.2582328	0.08418905	-0.002531605	0.0001575008	
0.0008855528	-0.001225413	-0.1877912	0.1660268	-0.001705469	0.001844321	0.2713089	0.06080882	
0.2582328	0.08418905	-0.001705469	0.001844321	-0.4509965	0.3143855	0.004551815	8.455419e-05	
-0.002531605	0.0001575008	0.2713089	0.06080882	0.004551815	8.455419e-05	-0.4482294	0.3126892	

4.238e+10	-0.1671734	0.1698794	-5.657095e-05	-0.001489526	0.2633056	0.08720239	-0.0018675	0.001644107	
-5.657095e-05	-0.001489526	-0.1870527	0.1647932	-0.0002206385	0.002461531	0.2718959	0.05921828	
0.2633056	0.08720239	-0.0002206385	0.002461531	-0.450924	0.3114202	0.003625271	-0.002624066	
-0.0018675	0.001644107	0.2718959	0.05921828	0.003625271	-0.002624066	-0.4466178	0.3134226	

4.24e+10	-0.1675983	0.1659682	-0.000939198	-0.001114939	0.2696835	0.08903266	-0.0004608243	0.002381831	
-0.000939198	-0.001114939	-0.186563	0.163669	0.001296151	0.00203604	0.2721796	0.05746639	
0.2696835	0.08903266	0.001296151	0.00203604	-0.4524614	0.3091113	0.001295172	-0.004184024	
-0.0004608243	0.002381831	0.2721796	0.05746639	0.001295172	-0.004184024	-0.445116	0.3136459	

4.242e+10	-0.1683914	0.1627841	-0.001383936	-0.0002982064	0.2769815	0.08932915	0.001051535	0.002103625	
-0.001383936	-0.0002982064	-0.1862444	0.1627578	0.002198968	0.0008038813	0.2721721	0.05588375	
0.2769815	0.08932915	0.002198968	0.0008038813	-0.4551889	0.3080702	-0.001430603	-0.00401982	
0.001051535	0.002103625	0.2721721	0.05588375	-0.001430603	-0.00401982	-0.4439263	0.3137361	

4.244e+10	-0.1692538	0.1603353	-0.001236933	0.0005833754	0.2847421	0.08789739	0.002035504	0.001000048	
-0.001236933	0.0005833754	-0.1857194	0.1621276	0.002159501	-0.0006637306	0.2721701	0.05463693	
0.2847421	0.08789739	0.002159501	-0.0006637306	-0.458661	0.3085561	-0.003437893	-0.002303207	
0.002035504	0.001000048	0.2721701	0.05463693	-0.003437893	-0.002303207	-0.4431814	0.3139061	

4.246e+10	-0.1699024	0.158492	-0.0006110863	0.00116642	0.2925256	0.08465998	0.002139064	-0.0004078549	
-0.0006110863	0.00116642	-0.1849435	0.1614502	0.001278259	-0.001756276	0.2724391	0.05353932	
0.2925256	0.08465998	0.001278259	-0.001756276	-0.4622958	0.310767	-0.003994064	0.000175083	
0.002139064	-0.0004078549	0.2724391	0.05353932	-0.003994064	0.000175083	-0.4424231	0.3146462	

4.248e+10	-0.1701695	0.1570279	0.0002014675	0.001249563	0.2998736	0.07968373	0.001411986	-0.001534663	
0.0002014675	0.001249563	-0.183962	0.1605368	-1.898809e-05	-0.002084114	0.2729983	0.05228464	
0.2998736	0.07968373	-1.898809e-05	-0.002084114	-0.4655701	0.3146225	-0.003016512	0.002398583	
0.001411986	-0.001534663	0.2729983	0.05228464	-0.003016512	0.002398583	-0.4414333	0.3155693	

4.25e+10	-0.1699917	0.1557141	0.0008697296	0.0008484076	0.3063802	0.07314266	0.0002225266	-0.001983557	
0.0008697296	0.0008484076	-0.1831553	0.1592706	-0.001196349	-0.001598612	0.2735406	0.0507027	
0.3063802	0.07314266	-0.001196349	-0.001598612	-0.4679162	0.3200292	-0.001016998	0.003572566	
0.0002225266	-0.001983557	0.2735406	0.0507027	-0.001016998	0.003572566	-0.4399268	0.3164689	

4.252e+10	-0.1693566	0.1543189	0.00115434	0.0001623449	0.3117656	0.06529593	-0.0009424889	-0.001664487	
0.00115434	0.0001623449	-0.1826765	0.1579606	-0.001825534	-0.0005654463	0.2738303	0.04894426	
0.3117656	0.06529593	-0.001825534	-0.0005654463	-0.4690672	0.3264961	0.001192034	0.00338176	
-0.0009424889	-0.001664487	0.2738303	0.04894426	0.001192034	0.00338176	-0.4382446	0.3168866	

4.254e+10	-0.1683967	0.1526393	0.0009869438	-0.0005245906	0.3158099	0.05641925	-0.001666727	-0.0007704888	
0.0009869438	-0.0005245906	-0.1824374	0.156921	-0.001735767	0.0005780858	0.2738454	0.04729835	
0.3158099	0.05641925	-0.001735767	0.0005780858	-0.4688243	0.3336689	0.002823635	0.002016236	
-0.001666727	-0.0007704888	0.2738454	0.04729835	0.002823635	0.002016236	-0.4367993	0.3168876	

4.256e+10	-0.1672562	0.1505453	0.000474482	-0.0009631711	0.3183726	0.04677302	-0.001734933	0.0003265647	
0.000474482	-0.0009631711	-0.182125	0.1562103	-0.001038381	0.001414102	0.2737842	0.04592973	
0.3183726	0.04677302	-0.001038381	0.001414102	-0.4671649	0.3412874	0.003365651	4.096319e-05	
-0.001734933	0.0003265647	0.2737842	0.04592973	0.003365651	4.096319e-05	-0.435924	0.3168336	

4.258e+10	-0.166034	0.1479829	-0.0001672635	-0.001020078	0.3193445	0.03664332	-0.001182681	0.001222565	
-0.0001672635	-0.001020078	-0.1814842	0.1556058	-3.881991e-05	0.001688554	0.2739293	0.04474719	
0.3193445	0.03664332	-3.881991e-05	0.001688554	-0.4640115	0.3491501	0.002717691	-0.001828761	
-0.001182681	0.001222565	0.2739293	0.04474719	0.002717691	-0.001828761	-0.4353034	0.3173123	

4.26e+10	-0.1649503	0.1448614	-0.0007025041	-0.0007101473	0.3186577	0.02628522	-0.0002536174	0.001622903	
-0.0007025041	-0.0007101473	-0.1805623	0.1547606	0.000901282	0.001364274	0.2743339	0.04349146	
0.3186577	0.02628522	0.000901282	0.001364274	-0.4593377	0.3569413	0.001178479	-0.00297574	
-0.0002536174	0.001622903	0.2743339	0.04349146	0.001178479	-0.00297574	-0.4345016	0.3182401	

4.262e+10	-0.1642081	0.1411416	-0.0009540403	-0.0001670215	0.3162267	0.01597674	0.0007019105	0.001427351	
-0.0009540403	-0.0001670215	-0.1796952	0.1535284	0.001478108	0.0005923982	0.2748017	0.04198185	
0.3162267	0.01597674	0.001478108	0.0005923982	-0.4530656	0.3645346	-0.000692648	-0.003066035	
0.0007019105	0.001427351	0.2748017	0.04198185	-0.000692648	-0.003066035	-0.4330973	0.3193068	

4.264e+10	-0.1640483	0.136874	-0.0008495569	0.0004050359	0.3120318	0.00602455	0.001353258	0.0007438059	
-0.0008495569	0.0004050359	-0.1791779	0.1521153	0.001518709	-0.0003481376	0.275119	0.04026597	
0.3120318	0.00602455	0.001518709	-0.0003481376	-0.4452837	0.3715234	-0.002272112	-0.002115815	
0.001353258	0.0007438059	0.275119	0.04026597	-0.002272112	-0.002115815	-0.4313364	0.3198717	

4.266e+10	-0.1646654	0.1322525	-0.0004440072	0.0008006806	0.3060829	-0.003236024	0.001493519	-0.0001631159	
-0.0004440072	0.0008006806	-0.1789934	0.1509401	0.001028927	-0.001132482	0.2751719	0.03855634	
0.3060829	-0.003236024	0.001028927	-0.001132482	-0.4358595	0.3778198	-0.003048101	-0.0004598937	
0.001493519	-0.0001631159	0.2751719	0.03855634	-0.003048101	-0.0004598937	-0.4297266	0.3198419	

4.268e+10	-0.1663188	0.1273904	0.0001014712	0.0008852434	0.2984505	-0.01144966	0.001099651	-0.0009658633	
0.0001014712	0.0008852434	-0.1788714	0.1500909	0.0001932566	-0.00149617	0.2750964	0.03704881	
0.2984505	-0.01144966	0.0001932566	-0.00149617	-0.4247372	0.3831068	-0.002764103	0.001345755	
0.001099651	-0.0009658633	0.2750964	0.03704881	-0.002764103	0.001345755	-0.4286219	0.3197177	

4.27e+10	-0.1691402	0.1226172	0.0005819691	0.0006437843	0.2892469	-0.01821764	0.0003357455	-0.001386323	
0.0005819691	0.0006437843	-0.1783752	0.1495154	-0.0006929038	-0.001323714	0.2751064	0.03575352	
0.2892469	-0.01821764	-0.0006929038	-0.001323714	-0.4117978	0.3869745	-0.001506473	0.002682308	
0.0003357455	-0.001386323	0.2751064	0.03575352	-0.001506473	0.002682308	-0.4280544	0.3198762	

4.272e+10	-0.1732163	0.1183375	0.0008265003	0.0001791336	0.2787219	-0.02313061	-0.0005092842	-0.001293555	
0.0008265003	0.0001791336	-0.1775428	0.148765	-0.001322977	-0.0006784589	0.2753379	0.03449233	
0.2787219	-0.02313061	-0.001322977	-0.0006784589	-0.3970753	0.3888449	0.0003020087	0.003072392	
-0.0005092842	-0.001293555	0.2753379	0.03449233	0.0003020087	0.003072392	-0.4274155	0.3206794	

4.274e+10	-0.1785176	0.1149586	0.0007551387	-0.0003294099	0.2672672	-0.02580458	-0.001130541	-0.0007460208	
0.0007551387	-0.0003294099	-0.1766606	0.1476065	-0.001468956	0.0002177025	0.2757152	0.03305814	
0.2672672	-0.02580458	-0.001468956	0.0002177025	-0.3806968	0.3880767	0.002028297	0.002350965	
-0.001130541	-0.0007460208	0.2757152	0.03305814	0.002028297	0.002350965	-0.4262147	0.3217593	

4.276e+10	-0.1847832	0.1129693	0.0004063511	-0.000689985	0.2554431	-0.02597174	-0.001319159	3.776914e-05	
0.0004063511	-0.000689985	-0.1760771	0.146182	-0.001059151	0.001039735	0.27604	0.03139857	
0.2554431	-0.02597174	-0.001059151	0.001039735	-0.363203	0.3836738	0.003038287	0.0007433516	
-0.001319159	3.776914e-05	0.27604	0.03139857	0.003038287	0.0007433516	-0.4244533	0.322528	

4.278e+10	-0.1916361	0.1127022	-7.438139e-05	-0.0007716333	0.2438281	-0.02352178	-0.001031219	0.0007675274	
-7.438139e-05	-0.0007716333	-0.1759312	0.1448204	-0.000232308	0.001461452	0.2761428	0.02965008	
0.2438281	-0.02352178	-0.000232308	0.001461452	-0.3452859	0.3749698	0.002921183	-0.001183973	
-0.001031219	0.0007675274	0.2761428	0.02965008	0.002921183	-0.001183973	-0.4227117	0.3226033	

4.28e+10	-0.198449	0.1144361	-0.0004946344	-0.0005600666	0.2330256	-0.01851467	-0.000394539	0.001188105	
-0.0004946344	-0.0005600666	-0.1759054	0.1438744	0.0006853662	0.001298868	0.2760518	0.02801793	
0.2330256	-0.01851467	0.0006853662	0.001298868	-0.3282587	0.361258	0.001669081	-0.00269689	
-0.000394539	0.001188105	0.2760518	0.02801793	0.001669081	-0.00269689	-0.4213959	0.3224147	

4.282e+10	-0.2045692	0.1181557	-0.00070044	-0.0001591361	0.2236515	-0.01116377	0.0003463727	0.001169485	
-0.00070044	-0.0001591361	-0.1756334	0.1432431	0.001313183	0.0006143856	0.2759505	0.02660455	
0.2236515	-0.01116377	0.001313183	0.0006143856	-0.3139695	0.3421577	-0.0002651303	-0.003168627	
0.0003463727	0.001169485	0.2759505	0.02660455	-0.0002651303	-0.003168627	-0.4207666	0.3222826	

4.284e+10	-0.2093759	0.1235288	-0.0006359473	0.0002673276	0.2162028	-0.001763637	0.0009284649	0.0007437076	
-0.0006359473	0.0002673276	-0.1749564	0.1425385	0.001390901	-0.0003024264	0.2760118	0.02531189	
0.2162028	-0.001763637	0.001390901	-0.0003024264	-0.3043965	0.3183102	-0.002105872	-0.002370234	
0.0009284649	0.0007437076	0.2760118	0.02531189	-0.002105872	-0.002370234	-0.4201964	0.3228944	

4.286e+10	-0.212333	0.1301178	-0.0003484283	0.0005639334	0.2111675	0.009249315	0.001159645	7.997988e-05	
-0.0003484283	0.0005639334	-0.1740983	0.1414858	0.0008954959	-0.001061141	0.2762754	0.02393145	
0.2111675	0.009249315	0.0008954959	-0.001061141	-0.3016633	0.2911094	-0.003078807	-0.000616883	
0.001159645	7.997988e-05	0.2762754	0.02393145	-0.003078807	-0.000616883	-0.4192309	0.3239016	

4.288e+10	-0.2132047	0.1371905	4.210077e-05	0.0006353667	0.2089438	0.02133244	0.0009773367	-0.0005835579	
4.210077e-05	0.0006353667	-0.1734682	0.1400712	5.579667e-05	-0.00134134	0.2765698	0.02233293	
0.2089438	0.02133244	5.579667e-05	-0.00134134	-0.3069578	0.2631876	-0.00277777	0.001344621	
0.0009773367	-0.0005835579	0.2765698	0.02233293	-0.00277777	0.001344621	-0.4175941	0.3248541	

4.29e+10	-0.2120975	0.143979	0.0003869105	0.0004721235	0.2098481	0.03378279	0.0004584033	-0.001017618	
0.0003869105	0.0004721235	-0.1732985	0.1385902	-0.000744785	-0.001045307	0.276696	0.02057566	
0.2098481	0.03378279	-0.000744785	-0.001045307	-0.3205676	0.2373808	-0.001364759	0.002680802	
0.0004584033	-0.001017618	0.276696	0.02057566	-0.001364759	0.002680802	-0.4157986	0.3250913	

4.292e+10	-0.2092263	0.1500677	0.0005625944	0.000152474	0.2139857	0.04574176	-0.000205164	-0.001074488	
0.0005625944	0.000152474	-0.173328	0.1375259	-0.001159747	-0.0003516948	0.2766082	0.01885386	
0.2139857	0.04574176	-0.001159747	-0.0003516948	-0.341248	0.2166461	0.0005105524	0.002861307	
-0.000205164	-0.001074488	0.2766082	0.01885386	0.0005105524	0.002861307	-0.4142977	0.3248509	

4.294e+10	-0.205148	0.1549834	0.0005203659	-0.0001911687	0.2211024	0.05630899	-0.0007694059	-0.0007430066	
0.0005203659	-0.0001911687	-0.1732394	0.1368162	-0.001061397	0.0003940976	0.2764175	0.01732678	
0.2211024	0.05630899	-0.001061397	0.0003940976	-0.3666595	0.2029918	0.00203597	0.001899104	
-0.0007694059	-0.0007430066	0.2764175	0.01732678	0.00203597	0.001899104	-0.4134023	0.3246151	

4.296e+10	-0.2003324	0.1586108	0.000299678	-0.0004320645	0.2306852	0.06471238	-0.00102979	-0.0001590518	
0.000299678	-0.0004320645	-0.1727621	0.1361458	-0.0005713199	0.0008814385	0.2763487	0.01597337	
0.2306852	0.06471238	-0.0005713199	0.0008814385	-0.3938942	0.1973335	0.002629791	0.0002995804	
-0.00102979	-0.0001590518	0.2763487	0.01597337	0.002629791	0.0002995804	-0.4129459	0.3248397	

4.298e+10	-0.1951114	0.1611236	-7.390795e-07	-0.0004981895	0.2419198	0.07045363	-0.000906147	0.0004490271	
-7.390795e-07	-0.0004981895	-0.1719849	0.135193	5.367426e-05	0.0009694453	0.2764741	0.01461326	
0.2419198	0.07045363	5.367426e-05	0.0009694453	-0.4203861	0.1990748	0.002176724	-0.001233036	
-0.000906147	0.0004490271	0.2764741	0.01461326	0.002176724	-0.001233036	-0.4121764	0.325751	

4.3e+10	-0.1897855	0.1626084	-0.0002685178	-0.0003877889	0.2539557	0.07336298	-0.0004695452	0.0008587089	
-0.0002685178	-0.0003877889	-0.171329	0.1338087	0.0005615125	0.0006979566	0.2767013	0.01307407	
0.2539557	0.07336298	0.0005615125	0.0006979566	-0.4439912	0.2071309	0.0009954127	-0.002136714	
-0.0004695452	0.0008587089	0.2767013	0.01307407	0.0009954127	-0.002136714	-0.4107832	0.3267517	

4.302e+10	-0.1845562	0.1632241	-0.0004165618	-0.0001590695	0.2660738	0.0735788	0.0001002964	0.0009402056	
-0.0004165618	-0.0001590695	-0.1710796	0.1323208	0.0007928771	0.0002269196	0.2768277	0.01134359	
0.2660738	0.0735788	0.0007928771	0.0002269196	-0.4637789	0.2195245	-0.0003845138	-0.002186041	
0.0001002964	0.0009402056	0.2768277	0.01134359	-0.0003845138	-0.002186041	-0.4089374	0.3272693	

4.304e+10	-0.1794175	0.1631429	-0.0004097447	9.595387e-05	0.2776776	0.07139881	0.0005946593	0.0006929682	
-0.0004097447	9.595387e-05	-0.1712072	0.1310399	0.0007176922	-0.0002432046	0.2767545	0.009572111	
0.2776776	0.07139881	0.0007176922	-0.0002432046	-0.4792453	0.2348836	-0.00146542	-0.001493827	
0.0005946593	0.0006929682	0.2767545	0.009572111	-0.00146542	-0.001493827	-0.4071936	0.3271581	

4.306e+10	-0.1744325	0.1624903	-0.0002714429	0.0002898673	0.288372	0.06720708	0.0008518736	0.0002287051	
-0.0002714429	0.0002898673	-0.1712451	0.1302649	0.0004207113	-0.0005548294	0.276526	0.00793998	
0.288372	0.06720708	0.0004207113	-0.0005548294	-0.4905561	0.251787	-0.001937634	-0.0003945683	
0.0008518736	0.0002287051	0.276526	0.00793998	-0.001937634	-0.0003945683	-0.4061159	0.326759	

4.308e+10	-0.169626	0.1612506	-6.444519e-05	0.0003701315	0.297931	0.0613895	0.0008056617	-0.0002791744	
-6.444519e-05	0.0003701315	-0.1709701	0.1295853	4.119776e-05	-0.0006405465	0.2763236	0.006499862	
0.297931	0.0613895	4.119776e-05	-0.0006405465	-0.4981216	0.269221	-0.001736007	0.0007063316	
0.0008056617	-0.0002791744	0.2763236	0.006499862	-0.001736007	0.0007063316	-0.4056176	0.3267082	

4.31e+10	-0.1649565	0.1595751	0.0001398508	0.0003287498	0.3062232	0.05429856	0.0004960991	-0.0006596623	
0.0001398508	0.0003287498	-0.1702987	0.1287492	-0.0002918313	-0.0005189756	0.2762924	0.005128529	
0.3062232	0.05429856	-0.0002918313	-0.0005189756	-0.5023991	0.2865634	-0.001011697	0.001468182	
0.0004960991	-0.0006596623	0.2762924	0.005128529	-0.001011697	0.001468182	-0.405039	0.3274093	

4.312e+10	-0.1604273	0.1574314	0.0002824046	0.0001922464	0.3132152	0.04623987	4.468958e-05	-0.0007995821	
0.0002824046	0.0001922464	-0.1696708	0.1274388	-0.000491356	-0.0002601596	0.276416	0.003641259	
0.3132152	0.04623987	-0.000491356	-0.0002601596	-0.5038683	0.3034732	-4.797621e-05	0.001703725	
4.468958e-05	-0.0007995821	0.276416	0.003641259	-4.797621e-05	0.001703725	-0.4038563	0.3284393	

4.314e+10	-0.1560262	0.1548866	0.0003279899	9.240074e-06	0.3188979	0.03745568	-0.0003944128	-0.0006722604	
0.0003279899	9.240074e-06	-0.1693548	0.1259575	-0.0005199332	4.302038e-05	0.2765131	0.001959463	
0.3188979	0.03745568	-0.0005199332	4.302038e-05	-0.5030184	0.3195948	0.0008456078	0.001403552	
-0.0003944128	-0.0006722604	0.2765131	0.001959463	0.0008456078	0.001403552	-0.4021028	0.3291174	

4.316e+10	-0.1518635	0.1518105	0.0002712536	-0.0001621812	0.3233169	0.02814953	-0.0006837089	-0.0003347976	
0.0002712536	-0.0001621812	-0.1694755	0.1245832	-0.0003910404	0.0002966008	0.2764499	0.0001728688	
0.3233169	0.02814953	-0.0003910404	0.0002966008	-0.5002612	0.3347693	0.00141947	0.000706114	
-0.0006837089	-0.0003347976	0.2764499	0.0001728688	0.00141947	0.000706114	-0.400266	0.3291333	

4.318e+10	-0.1478166	0.1483334	0.0001379001	-0.0002726056	0.3264773	0.01848156	-0.0007399528	9.557783e-05	
0.0001379001	-0.0002726056	-0.1696645	0.1236308	-0.000163112	0.0004332634	0.2761957	-0.001543307	
0.3264773	0.01848156	-0.000163112	0.0004332634	-0.495797	0.3490987	0.001535008	-0.0001587929	
-0.0007399528	9.557783e-05	0.2761957	-0.001543307	0.001535008	-0.0001587929	-0.3989752	0.3286559	

4.32e+10	-0.1440028	0.1443551	-2.70272e-05	-0.000295607	0.3284179	0.00858329	-0.0005549902	0.0004793928	
-2.70272e-05	-0.000295607	-0.1695479	0.1229578	8.539949e-05	0.0004301954	0.2759128	-0.003079985	
0.3284179	0.00858329	8.539949e-05	0.0004301954	-0.4899106	0.3625147	0.001187805	-0.0009339383	
-0.0005549902	0.0004793928	0.2759128	-0.003079985	0.001187805	-0.0009339383	-0.3982939	0.3284449	

4.322e+10	-0.1404315	0.1398934	-0.0001755083	-0.0002317272	0.3291569	-0.001423243	-0.0001959868	0.0006958466	
-0.0001755083	-0.0002317272	-0.1690733	0.1221639	0.0002845527	0.0003069019	0.2757335	-0.004489408	
0.3291569	-0.001423243	0.0002845527	0.0003069019	-0.4827025	0.3750976	0.0004993784	-0.001401489	
-0.0001959868	0.0006958466	0.2757335	-0.004489408	0.0004993784	-0.001401489	-0.3978229	0.3288739	

4.324e+10	-0.137168	0.1348888	-0.0002679992	-0.000102607	0.3287014	-0.01142739	0.0002177918	0.0006807496	
-0.0002679992	-0.000102607	-0.1684635	0.1210087	0.0003874571	0.0001085664	0.2757259	-0.005944142	
0.3287014	-0.01142739	0.0003874571	0.0001085664	-0.474349	0.3867318	-0.0003202008	-0.001438391	
0.0002177918	0.0006807496	0.2757259	-0.005944142	-0.0003202008	-0.001438391	-0.3969259	0.3297683	

4.326e+10	-0.1342872	0.1293178	-0.0002798163	5.504993e-05	0.3270461	-0.02131535	0.0005529298	0.0004436303	
-0.0002798163	5.504993e-05	-0.1681319	0.1195293	0.0003739855	-0.0001068502	0.2757562	-0.007568186	
0.3270461	-0.02131535	0.0003739855	-0.0001068502	-0.4648249	0.3975595	-0.001033258	-0.001043771	
0.0005529298	0.0004436303	0.2757562	-0.007568186	-0.001033258	-0.001043771	-0.3953009	0.3306401	

4.328e+10	-0.1318868	0.1231587	-0.0002070701	0.0001954744	0.3242047	-0.03096382	0.0007025506	6.300379e-05	
-0.0002070701	0.0001954744	-0.168208	0.118087	0.0002541947	-0.0002781154	0.2756819	-0.009337508	
0.3242047	-0.03096382	0.0002541947	-0.0002781154	-0.4541715	0.4075047	-0.001435173	-0.0003334471	
0.0007025506	6.300379e-05	0.2756819	-0.009337508	-0.001435173	-0.0003334471	-0.3934313	0.3308307	

4.33e+10	-0.13011	0.1163726	-7.068286e-05	0.0002766945	0.3201415	-0.04023553	0.0006172816	-0.0003374339	
-7.068286e-05	0.0002766945	-0.1684668	0.1170003	6.938922e-05	-0.0003587816	0.2754261	-0.011108	
0.3201415	-0.04023553	6.938922e-05	-0.0003587816	-0.442282	0.4166398	-0.001404152	0.0004906269	
0.0006172816	-0.0003374339	0.2754261	-0.011108	-0.001404152	0.0004906269	-0.391891	0.3304708	

4.332e+10	-0.1291347	0.1089729	8.939861e-05	0.0002737419	0.3148763	-0.04896041	0.0003228343	-0.0006239828	
8.939861e-05	0.0002737419	-0.1685657	0.1162423	-0.0001229149	-0.0003337134	0.2750653	-0.01273552	
0.3148763	-0.04896041	-0.0001229149	-0.0003337134	-0.4291949	0.4247238	-0.000934149	0.001186239	
0.0003228343	-0.0006239828	0.2750653	-0.01273552	-0.000934149	0.001186239	-0.391015	0.3300825	

4.334e+10	-0.1291475	0.1010464	0.0002262346	0.0001852764	0.3084072	-0.05694279	-8.334271e-05	-0.0006968639	
0.0002262346	0.0001852764	-0.1682647	0.1155154	-0.0002713592	-0.0002191157	0.2747529	-0.01420734	
0.3084072	-0.05694279	-0.0002713592	-0.0002191157	-0.4147968	0.4316404	-0.0001475126	0.001532818	
-8.334271e-05	-0.0006968639	0.2747529	-0.01420734	-0.0001475126	0.001532818	-0.3905782	0.3301811	

4.336e+10	-0.1304446	0.09263367	0.0002970011	3.310093e-05	0.3008086	-0.06394433	-0.0004614778	-0.0005271419	
0.0002970011	3.310093e-05	-0.1677723	0.1144465	-0.0003422112	-4.91305e-05	0.2746042	-0.01565422	
0.3008086	-0.06394433	-0.0003422112	-4.91305e-05	-0.3989737	0.4372384	0.0007272387	0.001399755	
-0.0004614778	-0.0005271419	0.2746042	-0.01565422	0.0007272387	0.001399755	-0.3898477	0.330966	

4.338e+10	-0.1332738	0.08402445	0.000272988	-0.0001395748	0.2921903	-0.06970655	-0.0006768157	-0.0001716378	
0.000272988	-0.0001395748	-0.167423	0.1130558	-0.0003191651	0.0001337061	0.2745503	-0.01722369	
0.2921903	-0.06970655	-0.0003191651	0.0001337061	-0.381686	0.4410968	0.001414211	0.0007953069	
-0.0006768157	-0.0001716378	0.2745503	-0.01722369	0.001414211	0.0007953069	-0.3884487	0.3318838	

4.34e+10	-0.1378873	0.07555368	0.0001525463	-0.0002754729	0.2827538	-0.07397339	-0.0006498951	0.0002433737	
0.0001525463	-0.0002754729	-0.1674448	0.1115874	-0.0002057576	0.0002816474	0.2744464	-0.01895147	
0.2827538	-0.07397339	-0.0002057576	0.0002816474	-0.3629451	0.4428012	0.001670722	-0.0001210222	
-0.0006498951	0.0002433737	0.2744464	-0.01895147	0.001670722	-0.0001210222	-0.3866633	0.3322308	

4.342e+10	-0.1444118	0.06773967	-3.032217e-05	-0.0003216138	0.2728188	-0.0765318	-0.0003893088	0.0005653901	
-3.032217e-05	-0.0003216138	-0.1677531	0.1103609	-3.024663e-05	0.0003522337	0.2741767	-0.02074009	
0.2728188	-0.0765318	-3.024663e-05	0.0003522337	-0.3428393	0.4418265	0.001366726	-0.001067803	
-0.0003893088	0.0005653901	0.2741767	-0.02074009	0.001366726	-0.001067803	-0.3849923	0.3319648	

4.344e+10	-0.1528353	0.06119164	-0.0002130752	-0.0002529453	0.2627804	-0.07725077	5.180812e-06	0.0006746201	
-0.0002130752	-0.0002529453	-0.1679877	0.1095098	0.0001605781	0.0003232416	0.2737816	-0.022444	
0.2627804	-0.07725077	0.0001605781	0.0003232416	-0.3216455	0.4375471	0.0005480575	-0.001712646	
5.180812e-06	0.0006746201	0.2737816	-0.022444	0.0005480575	-0.001712646	-0.38389	0.3314819	

4.346e+10	-0.1628882	0.05656435	-0.0003266123	-8.629469e-05	0.2530449	-0.07613378	0.0003803793	0.0005366924	
-0.0003266123	-8.629469e-05	-0.1679068	0.1087902	0.0003158001	0.0001972495	0.2733591	-0.02399322	
0.2530449	-0.07613378	0.0003158001	0.0001972495	-0.3000018	0.4292437	-0.0005418107	-0.001783309	
0.0003803793	0.0005366924	0.2733591	-0.02399322	-0.0005418107	-0.001783309	-0.3833457	0.3313625	

4.348e+10	-0.1740247	0.05443599	-0.0003218194	0.0001211563	0.2440487	-0.07333883	0.0005977582	0.0002187011	
-0.0003218194	0.0001211563	-0.1675562	0.1078585	0.000387809	-8.855301e-07	0.2730458	-0.02545803	
0.2440487	-0.07333883	0.000387809	-8.855301e-07	-0.2788939	0.4162924	-0.001517683	-0.001190015	
0.0005977582	0.0002187011	0.2730458	-0.02545803	-0.001517683	-0.001190015	-0.3827643	0.3319118	

4.35e+10	-0.1854163	0.05523977	-0.0001928538	0.0002899389	0.2360891	-0.06915808	0.0005942488	-0.0001475791	
-0.0001928538	0.0002899389	-0.1671989	0.1065995	0.0003401652	-0.0002212352	0.2728691	-0.02698298	
0.2360891	-0.06915808	0.0003401652	-0.0002212352	-0.2595051	0.398384	-0.001988906	-9.762168e-05	
0.0005942488	-0.0001475791	0.2728691	-0.02698298	-0.001988906	-9.762168e-05	-0.381683	0.3327287	

4.352e+10	-0.1961805	0.0588943	1.440267e-05	0.0003499137	0.2292843	-0.06389225	0.0003983442	-0.0004318176	
1.440267e-05	0.0003499137	-0.1671698	0.1051502	0.000167679	-0.0003894025	0.272709	-0.0286518	
0.2292843	-0.06389225	0.000167679	-0.0003894025	-0.2433165	0.3755349	-0.001724331	0.001109978	
0.0003983442	-0.0004318176	0.272709	-0.0286518	-0.001724331	0.001109978	-0.3800174	0.3332663	

4.354e+10	-0.2054012	0.06519656	0.000217126	0.000273886	0.2236802	-0.05781016	9.943507e-05	-0.0005564251	
0.000217126	0.000273886	-0.1674714	0.1038366	-8.310399e-05	-0.0004327731	0.2724263	-0.03042511	
0.2236802	-0.05781016	-8.310399e-05	-0.0004327731	-0.2319981	0.3483931	-0.0007671851	0.001960647	
9.943507e-05	-0.0005564251	0.2724263	-0.03042511	-0.0007671851	0.001960647	-0.3782248	0.3332155	

4.356e+10	-0.2123935	0.07346482	0.0003334892	9.291111e-05	0.219242	-0.05101921	-0.000202558	-0.0005095234	
0.0003334892	9.291111e-05	-0.1678337	0.1028486	-0.0003240842	-0.0003201488	0.2720029	-0.03218162	
0.219242	-0.05101921	-0.0003240842	-0.0003201488	-0.2270175	0.3181493	0.0005477873	0.002081527	
-0.000202558	-0.0005095234	0.2720029	-0.03218162	0.0005477873	0.002081527	-0.3768936	0.3327444	

4.358e+10	-0.2167201	0.0828874	0.0003196905	-0.0001181366	0.2160269	-0.04353513	-0.0004309102	-0.00032495	
0.0003196905	-0.0001181366	-0.1679702	0.1020874	-0.0004623059	-8.118425e-05	0.2715025	-0.03381357	
0.2160269	-0.04353513	-0.0004623059	-8.118425e-05	-0.2295266	0.2865985	0.001703238	0.001375027	
-0.0004309102	-0.00032495	0.2715025	-0.03381357	0.001703238	0.001375027	-0.3761574	0.332445	

4.36e+10	-0.2182517	0.09264235	0.000187426	-0.0002766606	0.2142165	-0.03538918	-0.0005378337	-5.491568e-05	
0.000187426	-0.0002766606	-0.167785	0.1012543	-0.0004373103	0.0002037353	0.2710484	-0.03532042	
0.2142165	-0.03538918	-0.0004373103	0.0002037353	-0.240039	0.256063	0.002210213	9.374445e-05	
-0.0005378337	-5.491568e-05	0.2710484	-0.03532042	0.002210213	9.374445e-05	-0.3756518	0.3326995	

4.362e+10	-0.2172376	0.101854	-7.314264e-06	-0.0003268382	0.2141684	-0.02672961	-0.0004954877	0.0002385686	
-7.314264e-06	-0.0003268382	-0.1675213	0.1001006	-0.000244767	0.0004289483	0.2707281	-0.03681657	
0.2141684	-0.02672961	-0.000244767	0.0004289483	-0.2582	0.2289991	0.001838287	-0.001245877	
-0.0004954877	0.0002385686	0.2707281	-0.03681657	0.001838287	-0.001245877	-0.3748421	0.3333858	

4.364e+10	-0.2140484	0.1099587	-0.0001899535	-0.0002568011	0.2162065	-0.017946	-0.0003004817	0.0004786376	
-0.0001899535	-0.0002568011	-0.1674232	0.09873791	5.117943e-05	0.0004993441	0.2704852	-0.03841868	
0.2162065	-0.017946	5.117943e-05	0.0004993441	-0.2825464	0.2077788	0.0007333931	-0.002089214	
-0.0003004817	0.0004786376	0.2704852	-0.03841868	0.0007333931	-0.002089214	-0.3733669	0.3340631	

4.366e+10	-0.2093034	0.1164968	-0.0002956959	-9.859426e-05	0.2204699	-0.009626696	7.248582e-06	0.000583275	
-0.0002956959	-9.859426e-05	-0.1676849	0.09736002	0.0003349678	0.0003786788	0.2701828	-0.04015205	
0.2204699	-0.009626696	0.0003349678	0.0003786788	-0.3108604	0.1940209	-0.000644275	-0.002096853	
7.248582e-06	0.000583275	0.2701828	-0.04015205	-0.000644275	-0.002096853	-0.3715691	0.3342102	

4.368e+10	-0.2036204	0.121334	-0.000291073	8.627502e-05	0.2268767	-0.002452842	0.0003376245	0.0004979763	
-0.000291073	8.627502e-05	-0.1681458	0.09622008	0.0004921213	0.000113588	0.26974	-0.04193345	
0.2268767	-0.002452842	0.0004921213	0.000113588	-0.3406214	0.1881883	-0.001732816	-0.001289721	
0.0003376245	0.0004979763	0.26974	-0.04193345	-0.001732816	-0.001289721	-0.3700042	0.3338556	

4.37e+10	-0.1975294	0.1245354	-0.0001847877	0.0002301585	0.2350213	0.002968084	0.0005735016	0.0002319193	
-0.0001847877	0.0002301585	-0.1684596	0.09542634	0.0004648135	-0.0001896112	0.2691658	-0.0436368	
0.2350213	0.002968084	0.0004648135	-0.0001896112	-0.3694255	0.1897774	-0.00211576	-2.437288e-05	
0.0005735016	0.0002319193	0.2691658	-0.0436368	-0.00211576	-2.437288e-05	-0.3691529	0.3333212	

4.372e+10	-0.1914891	0.1262638	-2.144173e-05	0.0002861678	0.2443401	0.006249765	0.0006193753	-0.0001326469	
-2.144173e-05	0.0002861678	-0.1684866	0.09466628	0.0002702869	-0.0004183762	0.268583	-0.0452013	
0.2443401	0.006249765	0.0002702869	-0.0004183762	-0.3952673	0.1977626	-0.0016897	0.00118446	
0.0006193753	-0.0001326469	0.268583	-0.0452013	-0.0016897	0.00118446	-0.3686234	0.3333106	

4.374e+10	-0.1856623	0.1268878	0.0001396117	0.0002420877	0.2541561	0.007269695	0.0004461062	-0.0004672315	
0.0001396117	0.0002420877	-0.1682897	0.09370729	-1.644393e-05	-0.0004936162	0.2681062	-0.04668257	
0.2541561	0.007269695	-1.644393e-05	-0.0004936162	-0.417045	0.2104819	-0.0006752645	0.001890097	
0.0004461062	-0.0004672315	0.2681062	-0.04668257	-0.0006752645	0.001890097	-0.3679596	0.3338796	

4.376e+10	-0.1802253	0.1265705	0.0002454596	0.0001191729	0.2638992	0.006113596	0.0001074613	-0.0006478581	
0.0002454596	0.0001191729	-0.1681867	0.09238501	-0.0002914467	-0.0003927196	0.2677527	-0.04821973	
0.2638992	0.006113596	-0.0002914467	-0.0003927196	-0.434308	0.2262791	0.000513548	0.001881472	
0.0001074613	-0.0006478581	0.2677527	-0.04821973	0.000513548	0.001881472	-0.3667008	0.3346092	

4.378e+10	-0.1751844	0.1256048	0.0002640423	-3.805096e-05	0.2730833	0.003020895	-0.0002794774	-0.0006045673	
0.0002640423	-3.805096e-05	-0.1683965	0.0909757	-0.0004569887	-0.0001565513	0.2674042	-0.04989844	
0.2730833	0.003020895	-0.0004569887	-0.0001565513	-0.4471729	0.2437054	0.001449125	0.001223262	
-0.0002794774	-0.0006045673	0.2674042	-0.04989844	0.001449125	0.001223262	-0.3649987	0.3349288	

4.38e+10	-0.170527	0.1240771	0.0001930816	-0.0001753768	0.2814149	-0.001698261	-0.0005782094	-0.000347698	
0.0001930816	-0.0001753768	-0.1689127	0.08973687	-0.0004593389	0.0001257471	0.2669433	-0.05168064	
0.2814149	-0.001698261	-0.0004593389	0.0001257471	-0.4558908	0.2618313	0.00183744	0.0001906102	
-0.0005782094	-0.000347698	0.2669433	-0.05168064	0.00183744	0.0001906102	-0.3633911	0.3346237	

4.382e+10	-0.1662014	0.1221317	6.099697e-05	-0.0002476075	0.2886768	-0.007720104	-0.0006822702	3.695043e-05	
6.099697e-05	-0.0002476075	-0.1694068	0.08886515	-0.0003072547	0.0003555814	0.2663323	-0.053436	
0.2886768	-0.007720104	-0.0003072547	0.0003555814	-0.4610796	0.27979	0.001591686	-0.0008482394	
-0.0006822702	3.695043e-05	0.2663323	-0.053436	0.001591686	-0.0008482394	-0.3622242	0.3341339	

4.384e+10	-0.1621734	0.1198269	-8.487681e-05	-0.0002347256	0.2947812	-0.01474935	-0.0005515053	0.0004181604	
-8.487681e-05	-0.0002347256	-0.1696161	0.08818368	-5.904037e-05	0.0004618415	0.2656447	-0.05505589	
0.2947812	-0.01474935	-5.904037e-05	0.0004618415	-0.4632545	0.2971758	0.0008345328	-0.00155581	
-0.0005515053	0.0004181604	0.2656447	-0.05505589	0.0008345328	-0.00155581	-0.3617176	0.3337834	

4.386e+10	-0.1584044	0.1171703	-0.0001969556	-0.0001459524	0.2996851	-0.02251976	-0.0002259116	0.0006639908	
-0.0001969556	-0.0001459524	-0.1695597	0.08729154	0.0002044834	0.0004164455	0.2650161	-0.05653882	
0.2996851	-0.02251976	0.0002044834	0.0004164455	-0.4629088	0.3136485	-0.0001599971	-0.001725699	
-0.0002259116	0.0006639908	0.2650161	-0.05653882	-0.0001599971	-0.001725699	-0.3611191	0.3341659	

4.388e+10	-0.1548777	0.1141857	-0.0002413843	-1.273491e-05	0.3033791	-0.03081399	0.0001868253	0.0006863057	
-0.0002413843	-1.273491e-05	-0.1694617	0.08612164	0.0004007008	0.000235024	0.2645308	-0.05802535	
0.3033791	-0.03081399	0.0004007008	0.000235024	-0.4604942	0.329074	-0.001064917	-0.001334476	
0.0001868253	0.0006863057	0.2645308	-0.05802535	-0.001064917	-0.001334476	-0.3600891	0.3348498	

4.39e+10	-0.1515859	0.1108628	-0.0002057351	0.0001217684	0.3058872	-0.03944501	0.0005466067	0.000471735	
-0.0002057351	0.0001217684	-0.1696294	0.08472201	0.0004656217	-2.587252e-05	0.2641108	-0.05963619	
0.3058872	-0.03944501	0.0004656217	-2.587252e-05	-0.4564325	0.3433225	-0.001603202	-0.0005305189	
0.0005466067	0.000471735	0.2641108	-0.05963619	-0.001603202	-0.0005305189	-0.358561	0.3353008	

4.392e+10	-0.1485251	0.1071985	-0.0001024878	0.0002132395	0.3072618	-0.04826866	0.0007288018	8.736882e-05	
-0.0001024878	0.0002132395	-0.1701471	0.08342787	0.0003753585	-0.0002806712	0.2636348	-0.06139826	
0.3072618	-0.04826866	0.0003753585	-0.0002806712	-0.4508485	0.35657	-0.001623691	0.0004238478	
0.0007288018	8.736882e-05	0.2636348	-0.06139826	-0.001623691	0.0004238478	-0.3568445	0.3352165	

4.394e+10	-0.1457115	0.1032077	3.25675e-05	0.0002316418	0.3075254	-0.05714637	0.0006653032	-0.0003408193	
3.25675e-05	0.0002316418	-0.1707743	0.08248197	0.0001588376	-0.0004442269	0.2629772	-0.06317894	
0.3075254	-0.05714637	0.0001588376	-0.0004442269	-0.4440177	0.3687615	-0.001133232	0.001234541	
0.0006653032	-0.0003408193	0.2629772	-0.06317894	-0.001133232	0.001234541	-0.3555395	0.3346921	

4.396e+10	-0.1431748	0.09884344	0.0001534512	0.0001732013	0.3067076	-0.06595961	0.000368573	-0.0006678342	
0.0001534512	0.0001732013	-0.1711957	0.08176621	-0.0001139364	-0.0004624718	0.2621996	-0.06484898	
0.3067076	-0.06595961	-0.0001139364	-0.0004624718	-0.4360375	0.3799779	-0.0002866328	0.001657702	
0.000368573	-0.0006678342	0.2621996	-0.06484898	-0.0002866328	0.001657702	-0.3548257	0.3342539	

4.398e+10	-0.1409584	0.09407869	0.0002217753	5.981466e-05	0.3048156	-0.07459353	-6.978975e-05	-0.0007766205	
0.0002217753	5.981466e-05	-0.1712682	0.08103128	-0.0003555551	-0.0003268352	0.2614388	-0.06636299	
0.3048156	-0.07459353	-0.0003555551	-0.0003268352	-0.4271669	0.390057	0.0006597338	0.001564703	
-6.978975e-05	-0.0007766205	0.2614388	-0.06636299	0.0006597338	0.001564703	-0.3543813	0.3343026	

4.4e+10	-0.1390805	0.08894567	0.0002178498	-7.171386e-05	0.3018859	-0.08293219	-0.0005050626	-0.0006186063	
0.0002178498	-7.171386e-05	-0.1712092	0.07998172	-0.000485576	-7.569189e-05	0.2608164	-0.06782093	
0.3018859	-0.08293219	-0.000485576	-7.569189e-05	-0.4172612	0.3991617	0.001421447	0.0009762396	
-0.0005050626	-0.0006186063	0.2608164	-0.06782093	0.001421447	0.0009762396	-0.3535207	0.3348928	

4.402e+10	-0.1376452	0.08336091	0.0001426917	-0.0001806791	0.2979492	-0.09084208	-0.0007852661	-0.0002342472	
0.0001426917	-0.0001806791	-0.1713679	0.07863932	-0.0004533821	0.0002123797	0.2602958	-0.06936638	
0.2979492	-0.09084208	-0.0004533821	0.0002123797	-0.4064006	0.4072526	0.001761839	5.508177e-05	
-0.0007852661	-0.0002342472	0.2602958	-0.06936638	0.001761839	5.508177e-05	-0.3521352	0.335451	

4.404e+10	-0.1367107	0.07737868	1.848521e-05	-0.0002311119	0.2930288	-0.09818258	-0.0008031138	0.0002553799	
1.848521e-05	-0.0002311119	-0.1718712	0.07731409	-0.0002609016	0.0004378402	0.2597637	-0.07106818	
0.2930288	-0.09818258	-0.0002609016	0.0004378402	-0.3946621	0.4141465	0.00155453	-0.0009343145	
-0.0008031138	0.0002553799	0.2597637	-0.07106818	0.00155453	-0.0009343145	-0.3504765	0.3355083	

4.406e+10	-0.1364204	0.07095547	-0.0001147034	-0.0002036488	0.2871745	-0.1048012	-0.0005342917	0.0006848472	
-0.0001147034	-0.0002036488	-0.1725997	0.07626951	3.031498e-05	0.000517583	0.2590816	-0.07285383	
0.2871745	-0.1048012	3.031498e-05	0.000517583	-0.3819488	0.4199035	0.0008231439	-0.00168777	
-0.0005342917	0.0006848472	0.2590816	-0.07285383	0.0008231439	-0.00168777	-0.3490555	0.3350832	

4.408e+10	-0.1368948	0.06412623	-0.0002109704	-0.0001053239	0.280476	-0.110505	-5.278913e-05	0.0008954052	
-0.0002109704	-0.0001053239	-0.173168	0.07554728	0.0003209469	0.0004192956	0.2582413	-0.07456194	
0.280476	-0.110505	0.0003209469	0.0004192956	-0.3683106	0.4242908	-0.0002464143	-0.001939408	
-5.278913e-05	0.0008954052	0.2582413	-0.07456194	-0.0002464143	-0.001939408	-0.348159	0.334573	

4.41e+10	-0.138322	0.05698399	-0.0002362714	3.186117e-05	0.2730613	-0.1151042	0.0004835616	0.000791083	
-0.0002362714	3.186117e-05	-0.1734254	0.07490415	0.0005118282	0.0001711957	0.257353	-0.07610442	
0.2730613	-0.1151042	0.0005118282	0.0001711957	-0.3539882	0.426987	-0.001335173	-0.001548451	
0.0004835616	0.000791083	0.257353	-0.07610442	-0.001335173	-0.001548451	-0.3476378	0.3344225	

4.412e+10	-0.1408624	0.04966076	-0.0001792486	0.0001623618	0.2651441	-0.118427	0.0008790479	0.0003820203	
-0.0001792486	0.0001623618	-0.1734507	0.07398301	0.0005333052	-0.0001504478	0.2565865	-0.07755111	
0.2651441	-0.118427	0.0005333052	-0.0001504478	-0.3388171	0.4279409	-0.002069252	-0.0005680248	
0.0008790479	0.0003820203	0.2565865	-0.07755111	-0.002069252	-0.0005680248	-0.3469466	0.3348084	

4.414e+10	-0.1447556	0.04230208	-5.464575e-05	0.0002395564	0.2569915	-0.1203125	0.0009685713	-0.0002028744	
-5.464575e-05	0.0002395564	-0.1736113	0.07273001	0.0003638717	-0.0004392518	0.2559566	-0.07903113	
0.2569915	-0.1203125	0.0003638717	-0.0004392518	-0.3232073	0.4267371	-0.002137182	0.0007296379	
0.0009685713	-0.0002028744	0.2559566	-0.07903113	-0.002137182	0.0007296379	-0.3457829	0.335321	

4.416e+10	-0.1500915	0.03531421	9.585793e-05	0.0002295383	0.2489565	-0.1206936	0.0006898982	-0.0007502061	
9.585793e-05	0.0002295383	-0.1740842	0.07143265	4.805373e-05	-0.0005847388	0.2553537	-0.08065972	
0.2489565	-0.1206936	4.805373e-05	-0.0005847388	-0.3074058	0.4231078	-0.00141873	0.001912412	
0.0006898982	-0.0007502061	0.2553537	-0.08065972	-0.00141873	0.001912412	-0.344275	0.3354949	

4.418e+10	-0.1569719	0.02906468	0.000213333	0.0001301884	0.2413994	-0.1196165	0.0001243638	-0.001038782	
0.000213333	0.0001301884	-0.1748385	0.07032006	-0.0003052294	-0.0005183835	0.2546359	-0.08241204	
0.2413994	-0.1196165	-0.0003052294	-0.0005183835	-0.2917973	0.4168846	-7.108495e-05	0.002511894	
0.0001243638	-0.001038782	0.2546359	-0.08241204	-7.108495e-05	0.002511894	-0.342788	0.3352144	

4.42e+10	-0.1653129	0.02402815	0.0002477287	-2.05555e-05	0.2347367	-0.1172708	-0.0005199582	-0.000933797	
0.0002477287	-2.05555e-05	-0.1755669	0.06954728	-0.0005609099	-0.0002522006	0.2537424	-0.08414335	
0.2347367	-0.1172708	-0.0005609099	-0.0002522006	-0.277064	0.4078404	0.001471585	0.002205048	
-0.0005199582	-0.000933797	0.2537424	-0.08414335	0.001471585	0.002205048	-0.3417609	0.334677	

4.422e+10	-0.174836	0.02072415	0.0001854605	-0.000160153	0.2292635	-0.113972	-0.000984676	-0.0004568625	
0.0001854605	-0.000160153	-0.1759975	0.06897266	-0.0006164254	0.0001211613	0.2527596	-0.08572161	
0.2292635	-0.113972	-0.0006164254	0.0001211613	-0.2638542	0.3960818	0.002613889	0.0009812471	
-0.000984676	-0.0004568625	0.2527596	-0.08572161	0.002613889	0.0009812471	-0.3410559	0.3344534	

4.424e+10	-0.1851036	0.0195205	5.502083e-05	-0.0002334642	0.2251426	-0.1101647	-0.001074834	0.0002097054	
5.502083e-05	-0.0002334642	-0.1761662	0.06815356	-0.0004414094	0.000466288	0.2518551	-0.08715849	
0.2251426	-0.1101647	-0.0004414094	0.000466288	-0.2528648	0.3818923	0.002826405	-0.0007809103	
-0.001074834	0.0002097054	0.2518551	-0.08715849	0.002826405	-0.0007809103	-0.3404117	0.3346385	

4.426e+10	-0.1954453	0.02071459	-8.968684e-05	-0.0002154588	0.2223041	-0.1062957	-0.000752539	0.0007996928	
-8.968684e-05	-0.0002154588	-0.1763221	0.06704893	-8.747047e-05	0.0006496781	0.2510821	-0.08858253	
0.2223041	-0.1062957	-8.747047e-05	0.0006496781	-0.2448257	0.3657163	0.001901575	-0.002409022	
-0.000752539	0.0007996928	0.2510821	-0.08858253	0.001901575	-0.002409022	-0.3394839	0.3350104	

4.428e+10	-0.205158	0.02428205	-0.0001918008	-0.0001183199	0.2205586	-0.102731	-0.0001520384	0.001086211	
-0.0001918008	-0.0001183199	-0.1767578	0.06580588	0.0003165287	0.0005865082	0.2503997	-0.09013958	
0.2205586	-0.102731	0.0003165287	0.0005865082	-0.240078	0.348403	0.0001026279	-0.003199855	
-0.0001520384	0.001086211	0.2503997	-0.09013958	0.0001026279	-0.003199855	-0.3381176	0.3352967	

4.43e+10	-0.2136165	0.02990779	-0.0002150487	1.424582e-05	0.2195684	-0.09964223	0.0004944111	0.0009766912	
-0.0002150487	1.424582e-05	-0.1775248	0.06464885	0.0006075203	0.0002900066	0.249644	-0.09183625	
0.2195684	-0.09964223	0.0006075203	0.0002900066	-0.2388644	0.3307068	-0.001898531	-0.002734682	
0.0004944111	0.0009766912	0.249644	-0.09183625	-0.001898531	-0.002734682	-0.336621	0.3352139	

4.432e+10	-0.2202845	0.03717925	-0.0001592402	0.0001276211	0.2190227	-0.09707124	0.0009601417	0.0005283226	
-0.0001592402	0.0001276211	-0.1783727	0.06383157	0.0006646376	-0.0001231473	0.248702	-0.09356516	
0.2190227	-0.09707124	0.0006646376	-0.0001231473	-0.241203	0.3134348	-0.003273898	-0.001095431	
0.0009601417	0.0005283226	0.248702	-0.09356516	-0.003273898	-0.001095431	-0.3354557	0.3347539	

4.434e+10	-0.22487	0.04546429	-5.70742e-05	0.0001835827	0.2186933	-0.09485918	0.001100896	-9.856614e-05	
-5.70742e-05	0.0001835827	-0.1789654	0.06326952	0.0004679425	-0.0004895199	0.247644	-0.09516579	
0.2186933	-0.09485918	0.0004679425	-0.0004895199	-0.2468127	0.2973929	-0.003388178	0.00112447	
0.001100896	-9.856614e-05	0.247644	-0.09516579	-0.003388178	0.00112447	-0.3346861	0.3343358	

4.436e+10	-0.2272504	0.05418061	4.926201e-05	0.0001746349	0.2185079	-0.09283213	0.0008759504	-0.0007062477	
4.926201e-05	0.0001746349	-0.1792636	0.06260166	9.482681e-05	-0.0006725983	0.2466129	-0.09660683	
0.2185079	-0.09283213	9.482681e-05	-0.0006725983	-0.2552919	0.2833315	-0.002092819	0.003028057	
0.0008759504	-0.0007062477	0.2466129	-0.09660683	-0.002092819	0.003028057	-0.3340036	0.3343536	

4.438e+10	-0.2274923	0.06283273	0.0001285112	0.0001156389	0.2184881	-0.09084045	0.0003447778	-0.001104645	
0.0001285112	0.0001156389	-0.1794647	0.06165454	-0.0003180643	-0.0006030076	0.2457117	-0.09798925	
0.2184881	-0.09084045	-0.0003180643	-0.0006030076	-0.2659871	0.2718068	0.0001601561	0.003780209	
0.0003447778	-0.001104645	0.2457117	-0.09798925	0.0001601561	0.003780209	-0.3332099	0.3346086	

4.44e+10	-0.2258277	0.0708134	0.0001641506	2.932835e-05	0.2187781	-0.0888188	-0.0003452062	-0.001150632	
0.0001641506	2.932835e-05	-0.1798897	0.06043473	-0.0006122763	-0.0003008792	0.2449209	-0.09947198	
0.2187781	-0.0888188	-0.0006122763	-0.0003008792	-0.2783045	0.2629955	0.002470285	0.002988503	
-0.0003452062	-0.001150632	0.2449209	-0.09947198	0.002470285	0.002988503	-0.3320718	0.3348655	

4.442e+10	-0.2225471	0.0778477	0.0001510552	-5.990461e-05	0.2195054	-0.08678869	-0.0009782988	-0.0007876976	
0.0001510552	-5.990461e-05	-0.1806493	0.05928966	-0.0006681772	0.0001170963	0.2441	-0.1011045	
0.2195054	-0.08678869	-0.0006681772	0.0001170963	-0.2912763	0.2572467	0.003856885	0.0009052635	
-0.0009782988	-0.0007876976	0.2441	-0.1011045	0.003856885	0.0009052635	-0.3306882	0.33487	

4.444e+10	-0.2179724	0.08367175	9.513113e-05	-0.0001278004	0.2207705	-0.08486523	-0.001315992	-8.902313e-05	
9.513113e-05	-0.0001278004	-0.1815589	0.05843203	-0.0004665768	0.0004806299	0.243122	-0.1027938	
0.2207705	-0.08486523	-0.0004665768	0.0004806299	-0.3043985	0.254246	0.003685737	-0.001645314	
-0.001315992	-8.902313e-05	0.243122	-0.1027938	0.003685737	-0.001645314	-0.3293901	0.3346052	

4.446e+10	-0.212517	0.08811434	1.414694e-05	-0.0001568132	0.2225995	-0.08319997	-0.001180754	0.0007281101	
1.414694e-05	-0.0001568132	-0.1823162	0.05786913	-9.857809e-05	0.0006522022	0.2420002	-0.104402	
0.2225995	-0.08319997	-9.857809e-05	0.0006522022	-0.3170136	0.2537941	0.001963845	-0.003598957	
-0.001180754	0.0007281101	0.2420002	-0.104402	0.001963845	-0.003598957	-0.3285044	0.3341718	

4.448e+10	-0.2065338	0.09109228	-6.95151e-05	-0.0001412733	0.2249518	-0.08193801	-0.0005528372	0.001347286	
-6.95151e-05	-0.0001412733	-0.1827747	0.05731316	0.0002919187	0.0005814773	0.2408665	-0.1058534	
0.2249518	-0.08193801	0.0002919187	0.0005814773	-0.3287503	0.2554647	-0.0006303901	-0.004102854	
-0.0005528372	0.001347286	0.2408665	-0.1058534	-0.0006303901	-0.004102854	-0.3277714	0.3340087	

4.45e+10	-0.2003232	0.0926472	-0.0001353552	-8.480943e-05	0.227756	-0.08117642	0.0003724897	0.001477159	
-0.0001353552	-8.480943e-05	-0.1830425	0.05648612	0.0005672993	0.0003029224	0.2398277	-0.1072098	
0.227756	-0.08117642	0.0005672993	0.0003029224	-0.3393195	0.2588667	-0.003017956	-0.002904244	
0.0003724897	0.001477159	0.2398277	-0.1072098	-0.003017956	-0.002904244	-0.326976	0.3341301	

4.452e+10	-0.1941862	0.09291344	-0.0001631747	1.310079e-06	0.2309015	-0.08100988	0.001231362	0.0009990958	
-0.0001631747	1.310079e-06	-0.1834607	0.05539005	0.0006297217	-8.013529e-05	0.238918	-0.1086195	
0.2309015	-0.08100988	0.0006297217	-8.013529e-05	-0.3486939	0.2636195	-0.004184125	-0.0004811598	
0.001231362	0.0009990958	0.238918	-0.1086195	-0.004184125	-0.0004811598	-0.3260014	0.3342994	

4.454e+10	-0.1883391	0.09198122	-0.0001381959	9.216521e-05	0.2343311	-0.08150184	0.001641062	5.838541e-05	
-0.0001381959	9.216521e-05	-0.1841884	0.05424453	0.0004592068	-0.0004214937	0.2380227	-0.1101635	
0.2343311	-0.08150184	0.0004592068	-0.0004214937	-0.3569538	0.2693749	-0.003629372	0.002156677	
0.001641062	5.838541e-05	0.2380227	-0.1101635	-0.003629372	0.002156677	-0.3248155	0.3343652	

4.456e+10	-0.1829712	0.09007264	-6.4955e-05	0.000154371	0.2379129	-0.08271037	0.00138332	-0.0009736207	
-6.4955e-05	0.000154371	-0.1851416	0.05336836	0.0001316085	-0.000594384	0.2370008	-0.1118072	
0.2379129	-0.08271037	0.0001316085	-0.000594384	-0.3639911	0.2760841	-0.001584974	0.003911151	
0.00138332	-0.0009736207	0.2370008	-0.1118072	-0.001584974	0.003911151	-0.323629	0.3341925	

4.458e+10	-0.1782405	0.08731913	3.003392e-05	0.0001651513	0.2415611	-0.08466923	0.0005237283	-0.001652702	
3.003392e-05	0.0001651513	-0.1860273	0.05278072	-0.0002220226	-0.0005514639	0.2358315	-0.1134017	
0.2415611	-0.08466923	-0.0002220226	-0.0005514639	-0.3699721	0.2834794	0.001095203	0.004062668	
0.0005237283	-0.001652702	0.2358315	-0.1134017	0.001095203	0.004062668	-0.3225021	0.3339607	

4.46e+10	-0.1741883	0.08394354	0.0001152591	0.0001233238	0.2451232	-0.08743391	-0.0005968221	-0.001664114	
0.0001152591	0.0001233238	-0.1866351	0.0523202	-0.0004835569	-0.0003266547	0.2345929	-0.1148548	
0.2451232	-0.08743391	-0.0004835569	-0.0003266547	-0.3747317	0.2916156	0.003303515	0.002568755	
-0.0005968221	-0.001664114	0.2345929	-0.1148548	0.003303515	0.002568755	-0.3215901	0.333715	

4.462e+10	-0.1708298	0.08013165	0.0001658306	4.201394e-05	0.2484433	-0.09098619	-0.001505341	-0.0009760862	
0.0001658306	4.201394e-05	-0.1869895	0.05168109	-0.0005764887	-1.207397e-06	0.2334312	-0.1161913	
0.2484433	-0.09098619	-0.0005764887	-1.207397e-06	-0.378359	0.3002063	0.00415114	6.818983e-05	
-0.001505341	-0.0009760862	0.2334312	-0.1161913	0.00415114	6.818983e-05	-0.3209064	0.3334711	

4.464e+10	-0.1681464	0.07606238	0.0001648589	-5.630882e-05	0.2513862	-0.09531696	-0.00180812	0.0001356359	
0.0001648589	-5.630882e-05	-0.1874112	0.0507078	-0.0004741279	0.0003186007	0.2323987	-0.1175356	
0.2513862	-0.09531696	-0.0004741279	0.0003186007	-0.3806815	0.3092611	0.003332534	-0.00240633	
-0.00180812	0.0001356359	0.2323987	-0.1175356	0.003332534	-0.00240633	-0.3200735	0.3335364	

4.466e+10	-0.166102	0.07180991	0.0001082322	-0.0001395975	0.2537856	-0.100363	-0.001369206	0.001207967	
0.0001082322	-0.0001395975	-0.1881128	0.04963131	-0.0002125705	0.0005234979	0.2314169	-0.1189985	
0.2537856	-0.100363	-0.0002125705	0.0005234979	-0.381634	0.3186432	0.001228359	-0.003874861	
-0.001369206	0.001207967	0.2314169	-0.1189985	0.001228359	-0.003874861	-0.3191038	0.3336898	

4.468e+10	-0.1645763	0.06749766	1.436807e-05	-0.0001778405	0.2555007	-0.1060357	-0.0003683304	0.001797551	
1.436807e-05	-0.0001778405	-0.1890916	0.04869121	0.0001122196	0.000547273	0.2303452	-0.1205649	
0.2555007	-0.1060357	0.0001122196	0.000547273	-0.381174	0.3280929	-0.001295154	-0.003804489	
-0.0003683304	0.001797551	0.2303452	-0.1205649	-0.001295154	-0.003804489	-0.3179384	0.3337515	

4.47e+10	-0.163523	0.06319667	-8.501764e-05	-0.0001592239	0.256392	-0.1122068	0.0007868034	0.001665172	
-8.501764e-05	-0.0001592239	-0.1900791	0.04809742	0.000391202	0.0003931185	0.2291338	-0.1221303	
0.256392	-0.1122068	0.000391202	0.0003931185	-0.3792815	0.3374528	-0.00325792	-0.002280373	
0.0007868034	0.001665172	0.2291338	-0.1221303	-0.00325792	-0.002280373	-0.3166945	0.3336097	

4.472e+10	-0.1628109	0.05893672	-0.0001606788	-9.075969e-05	0.2563379	-0.1186837	0.001632748	0.0008653715	
-0.0001606788	-9.075969e-05	-0.1908225	0.04768354	0.0005434246	0.0001164902	0.2278258	-0.1235706	
0.2563379	-0.1186837	0.0005434246	0.0001164902	-0.375967	0.3464467	-0.003939887	7.49618e-05	
0.001632748	0.0008653715	0.2278258	-0.1235706	-0.003939887	7.49618e-05	-0.3156059	0.3332775	

4.474e+10	-0.1624286	0.05463171	-0.000190563	1.082095e-05	0.2553073	-0.1253059	0.001831803	-0.0002834243	
-0.000190563	1.082095e-05	-0.1912918	0.04716281	0.0005245856	-0.0002020737	0.2265656	-0.1248956	
0.2553073	-0.1253059	0.0005245856	-0.0002020737	-0.3714212	0.3548138	-0.003121476	0.00235733	
0.001831803	-0.0002834243	0.2265656	-0.1248956	-0.003121476	0.00235733	-0.3148816	0.3328616	

4.476e+10	-0.1623129	0.05030633	-0.0001596473	0.0001183485	0.2532478	-0.1318606	0.001304129	-0.001325795	
-0.0001596473	0.0001183485	-0.1917468	0.04635302	0.0003317708	-0.0004658302	0.225403	-0.1261852	
0.2532478	-0.1318606	0.0003317708	-0.0004658302	-0.3656247	0.3624479	-0.001140718	0.00371951	
0.001304129	-0.001325795	0.225403	-0.1261852	-0.001140718	0.00371951	-0.314234	0.3327582	

4.478e+10	-0.1624544	0.0458475	-6.949429e-05	0.000194625	0.2501963	-0.1381842	0.0002555859	-0.001849019	
-6.949429e-05	0.000194625	-0.1924194	0.04534421	1.785119e-05	-0.0005822764	0.2243044	-0.1275625	
0.2501963	-0.1381842	1.785119e-05	-0.0005822764	-0.3587369	0.369155	0.001248915	0.003672234	
0.0002555859	-0.001849019	0.2243044	-0.1275625	0.001248915	0.003672234	-0.313423	0.3329455	

4.48e+10	-0.1628718	0.0412734	5.310336e-05	0.000207606	0.2461661	-0.1440381	-0.0009029532	-0.001643145	
5.310336e-05	0.000207606	-0.1933734	0.04446606	-0.0003146439	-0.0005039268	0.2231694	-0.1290391	
0.2461661	-0.1440381	-0.0003146439	-0.0005039268	-0.3509168	0.3747355	0.003161078	0.002247125	
-0.0009029532	-0.001643145	0.2231694	-0.1290391	0.003161078	0.002247125	-0.3123591	0.3330944	

4.482e+10	-0.1636121	0.03648169	0.000166202	0.0001477791	0.2412481	-0.1492248	-0.001715368	-0.0007810151	
0.000166202	0.0001477791	-0.1944261	0.04385148	-0.0005544668	-0.000250701	0.2219039	-0.1305341	
0.2412481	-0.1492248	-0.0005544668	-0.000250701	-0.3422814	0.3790762	0.003890185	-2.986624e-05	
-0.001715368	-0.0007810151	0.2219039	-0.1305341	0.003890185	-2.986624e-05	-0.311091	0.3330212	

4.484e+10	-0.1647634	0.0314601	0.0002300878	3.011312e-05	0.2355796	-0.1535255	-0.001851984	0.0004061685	
0.0002300878	3.011312e-05	-0.1952897	0.04347351	-0.0006192509	0.0001037382	0.2205583	-0.1319596	
0.2355796	-0.1535255	-0.0006192509	0.0001037382	-0.3331709	0.381921	0.003150111	-0.002322971	
-0.001851984	0.0004061685	0.2205583	-0.1319596	0.003150111	-0.002322971	-0.30991	0.3326869	

4.486e+10	-0.1664918	0.02613146	0.0002163968	-0.0001114708	0.2293699	-0.156759	-0.001241271	0.001447193	
0.0002163968	-0.0001114708	-0.1958912	0.04306946	-0.0004712565	0.0004512876	0.219199	-0.1332646	
0.2293699	-0.156759	-0.0004712565	0.0004512876	-0.323839	0.3832117	0.001184592	-0.003764834	
-0.001241271	0.001447193	0.219199	-0.1332646	0.001184592	-0.003764834	-0.3090783	0.3322589	

4.488e+10	-0.1689431	0.02056404	0.0001170865	-0.0002266761	0.2228796	-0.1587907	-0.0001138482	0.001911212	
0.0001170865	-0.0002266761	-0.1963874	0.04238872	-0.0001344422	0.000666159	0.2179318	-0.1345291	
0.2228796	-0.1587907	-0.0001344422	0.000666159	-0.3145407	0.3829281	-0.001289495	-0.003770601	
-0.0001138482	0.001911212	0.2179318	-0.1345291	-0.001289495	-0.003770601	-0.3084516	0.3320496	

4.49e+10	-0.1723175	0.01489401	-4.010808e-05	-0.0002622912	0.2164093	-0.159539	0.001071086	0.001590104	
-4.010808e-05	-0.0002622912	-0.1970326	0.04152127	0.0002862665	0.0006453584	0.2167144	-0.1358235	
0.2164093	-0.159539	0.0002862665	0.0006453584	-0.3057096	0.3810425	-0.003314238	-0.002283779	
0.001071086	0.001590104	0.2167144	-0.1358235	-0.003314238	-0.002283779	-0.3077602	0.3321181	

4.492e+10	-0.1767874	0.009265034	-0.000193261	-0.0001933284	0.210316	-0.1590088	0.00181428	0.0006069089	
-0.000193261	-0.0001933284	-0.1979651	0.0406724	0.0006297391	0.0003702344	0.2154851	-0.1371893	
0.210316	-0.1590088	0.0006297391	0.0003702344	-0.2977285	0.3776668	-0.00406015	0.0001573946	
0.00181428	0.0006069089	0.2154851	-0.1371893	-0.00406015	0.0001573946	-0.3068205	0.3322654	

4.494e+10	-0.1825066	0.003982307	-0.0002761923	-4.201673e-05	0.2050153	-0.1573365	0.001794726	-0.0006239712	
-0.0002761923	-4.201673e-05	-0.1990552	0.04002813	0.000750354	-7.040745e-05	0.2141977	-0.1386025	
0.2050153	-0.1573365	0.000750354	-7.040745e-05	-0.2911234	0.3730234	-0.003172132	0.002590818	
0.001794726	-0.0006239712	0.2141977	-0.1386025	-0.003172132	0.002590818	-0.3056607	0.3322871	

4.496e+10	-0.1894992	-0.000562257	-0.0002513845	0.0001320358	0.2008067	-0.154804	0.001024184	-0.001572235	
-0.0002513845	0.0001320358	-0.2000323	0.03968004	0.0005829307	-0.0005132178	0.2128065	-0.1399845	
0.2008067	-0.154804	0.0005829307	-0.0005132178	-0.2861129	0.3676605	-0.0009613514	0.004004317	
0.001024184	-0.001572235	0.2128065	-0.1399845	-0.0009613514	0.004004317	-0.3044828	0.3320519	

4.498e+10	-0.1976809	-0.003933727	-0.0001250217	0.0002585047	0.1979232	-0.1518279	-0.0001498164	-0.001835195	
-0.0001250217	0.0002585047	-0.2007597	0.03935111	0.0001704998	-0.0007804122	0.211379	-0.1412869	
0.1979232	-0.1518279	0.0001704998	-0.0007804122	-0.2828702	0.3621876	0.001674277	0.003770046	
-0.0001498164	-0.001835195	0.211379	-0.1412869	0.001674277	0.003770046	-0.3034869	0.3316624	

4.5e+10	-0.2067414	-0.005702587	5.389205e-05	0.0002830757	0.1964089	-0.1488827	-0.001207616	-0.001326687	
5.389205e-05	0.0002830757	-0.2013107	0.03887565	-0.0003367324	-0.0007454327	0.2099778	-0.142508	
0.1964089	-0.1488827	-0.0003367324	-0.0007454327	-0.2812403	0.3572643	0.003615475	0.001960266	
-0.001207616	-0.001326687	0.2099778	-0.142508	0.003615475	0.001960266	-0.3027493	0.3313205	

4.502e+10	-0.2162759	-0.005663383	0.0002103449	0.000193958	0.1961273	-0.1464126	-0.001708339	-0.000309226	
0.0002103449	0.000193958	-0.2019532	0.03812296	-0.00072808	-0.0004007619	0.2086395	-0.1437212	
0.1961273	-0.1464126	-0.00072808	-0.0004007619	-0.2809601	0.3533418	0.004025558	-0.0006512699	
-0.001708339	-0.000309226	0.2086395	-0.1437212	0.004025558	-0.0006512699	-0.3021674	0.3311476	

4.504e+10	-0.2257515	-0.003585799	0.0002791855	3.188173e-05	0.1968084	-0.1447712	-0.001490492	0.0007538813	
0.0002791855	3.188173e-05	-0.2028486	0.03730288	-0.0008293099	0.0001165519	0.2073417	-0.1449774	
0.1968084	-0.1447712	-0.0008293099	0.0001165519	-0.2812641	0.3509495	0.002752566	-0.002932415	
-0.001490492	0.0007538813	0.2073417	-0.1449774	0.002752566	-0.002932415	-0.3014288	0.331266	

4.506e+10	-0.2346296	0.0004095064	0.0002397208	-0.0001330326	0.1980622	-0.1441754	-0.0007152288	0.001432022	
0.0002397208	-0.0001330326	-0.2039288	0.03672932	-0.0005971311	0.0005894683	0.2060094	-0.1462951	
0.1980622	-0.1441754	-0.0005971311	0.0005894683	-0.2815879	0.3500996	0.0003903119	-0.003928458	
-0.0007152288	0.001432022	0.2060094	-0.1462951	0.0003903119	-0.003928458	-0.3004229	0.3314366	

4.508e+10	-0.2424223	0.006136359	0.0001178404	-0.0002400119	0.1994929	-0.1446902	0.0002558228	0.001510591	
0.0001178404	-0.0002400119	-0.2049892	0.0363665	-0.0001310796	0.0008287276	0.2045953	-0.1476348	
0.1994929	-0.1446902	-0.0001310796	0.0008287276	-0.2811065	0.3506273	-0.002027542	-0.003285434	
0.0002558228	0.001510591	0.2045953	-0.1476348	-0.002027542	-0.003285434	-0.2992231	0.3313893	

4.51e+10	-0.2487694	0.01321161	-3.695468e-05	-0.0002589767	0.2007524	-0.146257	0.0010432	0.001032982	
-3.695468e-05	-0.0002589767	-0.2058269	0.03610766	0.0003842694	0.0007452421	0.2030976	-0.1489119	
0.2007524	-0.146257	0.0003842694	0.0007452421	-0.2793958	0.3520047	-0.003512183	-0.001358056	
0.0010432	0.001032982	0.2030976	-0.1489119	-0.003512183	-0.001358056	-0.2981153	0.3309744	

4.512e+10	-0.2534281	0.02128095	-0.0001720872	-0.0001912564	0.2015473	-0.1487075	0.00139264	0.0002324109	
-0.0001720872	-0.0001912564	-0.2064699	0.03573777	0.0007493986	0.0003735057	0.2015969	-0.1501016	
0.2015473	-0.1487075	0.0007493986	0.0003735057	-0.2760252	0.3536777	-0.003526829	0.001001982	
0.00139264	0.0002324109	0.2015969	-0.1501016	-0.003526829	0.001001982	-0.2971845	0.3305206	

4.514e+10	-0.256294	0.0298809	-0.0002464408	-6.345867e-05	0.2016738	-0.1518342	0.001232753	-0.0005865937	
-0.0002464408	-6.345867e-05	-0.2071135	0.03517938	0.0008225695	-0.0001411379	0.2001426	-0.1512239	
0.2016738	-0.1518342	0.0008225695	-0.0001411379	-0.2711241	0.3548723	-0.002161268	0.002836043	
0.001232753	-0.0005865937	0.2001426	-0.1512239	-0.002161268	0.002836043	-0.2966614	0.3301705	

4.516e+10	-0.257328	0.03868754	-0.0002397197	8.179405e-05	0.2009853	-0.1554399	0.0006613362	-0.001152192	
-0.0002397197	8.179405e-05	-0.2079535	0.03446377	0.0005779782	-0.0005955322	0.1987566	-0.152368	
0.2009853	-0.1554399	0.0005779782	-0.0005955322	-0.2647681	0.3550843	-3.914273e-05	0.003466179	
0.0006613362	-0.001152192	0.1987566	-0.152368	-3.914273e-05	0.003466179	-0.2961595	0.3301911	

4.518e+10	-0.25663	0.04728564	-0.0001570683	0.000199957	0.1993718	-0.1593046	-0.0001074992	-0.001297555	
-0.0001570683	0.000199957	-0.2090202	0.03389132	0.0001176871	-0.0008156838	0.1973794	-0.1535948	
0.1993718	-0.1593046	0.0001176871	-0.0008156838	-0.2573237	0.353786	0.001974314	0.002732224	
-0.0001074992	-0.001297555	0.1973794	-0.1535948	0.001974314	0.002732224	-0.2952918	0.3304981	

4.52e+10	-0.2542956	0.05539891	-2.339251e-05	0.000257339	0.1967497	-0.1631592	-0.0008151255	-0.0009937638	
-2.339251e-05	0.000257339	-0.2101393	0.03354601	-0.0003791528	-0.0007267965	0.1959225	-0.1548691	
0.1967497	-0.1631592	-0.0003791528	-0.0007267965	-0.2492042	0.3505348	0.003125863	0.001002221	
-0.0008151255	-0.0009937638	0.1959225	-0.1548691	0.003125863	0.001002221	-0.2941138	0.3305704	

4.522e+10	-0.2504745	0.06272898	0.000125015	0.0002346446	0.1931118	-0.1667308	-0.001228833	-0.0003488833	
0.000125015	0.0002346446	-0.2110748	0.03339321	-0.0007301476	-0.0003677051	0.1943684	-0.1560975	
0.1931118	-0.1667308	-0.0007301476	-0.0003677051	-0.2409367	0.3451178	0.003036237	-0.00101815	
-0.001228833	-0.0003488833	0.1943684	-0.1560975	0.003036237	-0.00101815	-0.2927755	0.3303412	

4.524e+10	-0.2453251	0.0690964	0.0002434948	0.0001302655	0.1885076	-0.1697151	-0.001204951	0.0004198442	
0.0002434948	0.0001302655	-0.211789	0.03316527	-0.0008069964	0.0001291154	0.1927879	-0.1572396	
0.1885076	-0.1697151	-0.0008069964	0.0001291154	-0.233302	0.3373081	0.00180172	-0.002559313	
-0.001204951	0.0004198442	0.1927879	-0.1572396	0.00180172	-0.002559313	-0.291829	0.3297367	

4.526e+10	-0.2390476	0.07427201	0.0002861678	-3.19871e-05	0.1830427	-0.1717743	-0.0007401231	0.00104261	
0.0002861678	-3.19871e-05	-0.2124483	0.03269892	-0.0005770169	0.0005788325	0.1912434	-0.1583003	
0.1830427	-0.1717743	-0.0005770169	0.0005788325	-0.2268357	0.3272261	-6.717996e-05	-0.003061663	
-0.0007401231	0.00104261	0.1912434	-0.1583003	-6.717996e-05	-0.003061663	-0.2912944	0.3292484	

4.528e+10	-0.2318295	0.07806429	0.0002245808	-0.000198951	0.1769919	-0.1726167	9.131108e-06	0.001282267	
0.0002245808	-0.000198951	-0.2132478	0.03209843	-0.0001247382	0.000806784	0.1897702	-0.159349	
0.1769919	-0.1726167	-0.0001247382	0.000806784	-0.2221943	0.3150972	-0.00183506	-0.002370013	
9.131108e-06	0.001282267	0.1897702	-0.159349	-0.00183506	-0.002370013	-0.2908526	0.3292119	

4.53e+10	-0.2239526	0.08031898	6.904512e-05	-0.0003038541	0.1706899	-0.1719998	0.0007651223	0.001032382	
6.904512e-05	-0.0003038541	-0.2142973	0.03156824	0.0003746805	0.000722585	0.1883294	-0.1604794	
0.1706899	-0.1719998	0.0003746805	0.000722585	-0.2202322	0.3011296	-0.002823689	-0.0007910449	
0.0007651223	0.001032382	0.1883294	-0.1604794	-0.002823689	-0.0007910449	-0.2901699	0.3294807	

4.532e+10	-0.2156639	0.080848	-0.0001274324	-0.0002961792	0.1646089	-0.1697564	0.001228908	0.0003758556	
-0.0001274324	-0.0002961792	-0.2154273	0.03123547	0.0007266669	0.00035952	0.1868315	-0.1616559	
0.1646089	-0.1697564	0.0007266669	0.00035952	-0.2213697	0.2861092	-0.002674291	0.001030315	
0.001228908	0.0003758556	0.1868315	-0.1616559	-0.002674291	0.001030315	-0.2890458	0.3297097	

4.534e+10	-0.2073063	0.07961895	-0.0002870969	-0.0001672286	0.1593111	-0.1659192	0.001205631	-0.0004329134	
-0.0002870969	-0.0001672286	-0.2164452	0.03111312	0.000794381	-0.0001412433	0.1852417	-0.1628247	
0.1593111	-0.1659192	0.000794381	-0.0001412433	-0.2262754	0.2707184	-0.00148403	0.00236942	
0.001205631	-0.0004329134	0.1852417	-0.1628247	-0.00148403	0.00236942	-0.2877545	0.3295108	

4.536e+10	-0.1993007	0.07650439	-0.0003379432	3.96394e-05	0.155357	-0.1607028	0.0006962869	-0.001063309	
-0.0003379432	3.96394e-05	-0.2172301	0.03099379	0.000549626	-0.0005828005	0.1835893	-0.1639058	
0.155357	-0.1607028	0.000549626	-0.0005828005	-0.2351196	0.2561389	0.0002341915	0.002709498	
0.0006962869	-0.001063309	0.1835893	-0.1639058	0.0002341915	0.002709498	-0.2866669	0.32896	

4.538e+10	-0.1920585	0.07165495	-0.0002487066	0.0002398378	0.1532326	-0.154554	-8.830565e-05	-0.001250285	
-0.0002487066	0.0002398378	-0.2179176	0.03070389	8.973508e-05	-0.0007866182	0.1819729	-0.1649103	
0.1532326	-0.154554	8.973508e-05	-0.0007866182	-0.2478046	0.2435169	0.00176478	0.001955109	
-8.830565e-05	-0.001250285	0.1819729	-0.1649103	0.00176478	0.001955109	-0.2859873	0.3284115	

4.54e+10	-0.1860173	0.06525171	-5.181538e-05	0.0003431803	0.1532391	-0.1481002	-0.0008116847	-0.000920028	
-5.181538e-05	0.0003431803	-0.2187005	0.0302305	-0.0003930763	-0.0006702504	0.1804085	-0.1658825	
0.1532391	-0.1481002	-0.0003930763	-0.0006702504	-0.2638186	0.2339822	0.002491584	0.0004730871	
-0.0008116847	-0.000920028	0.1804085	-0.1658825	0.002491584	0.0004730871	-0.2856542	0.3281446	

4.542e+10	-0.1815055	0.05764668	0.0001664175	0.0003019006	0.1554592	-0.1420732	-0.001168635	-0.0002307601	
0.0001664175	0.0003019006	-0.2196859	0.02974174	-0.0006977784	-0.000292746	0.1788878	-0.1668915	
0.1554592	-0.1420732	-0.0006977784	-0.000292746	-0.2820941	0.2285984	0.002173562	-0.001078446	
-0.001168635	-0.0002307601	0.1788878	-0.1668915	0.002173562	-0.001078446	-0.2851219	0.3283423	

4.544e+10	-0.1787657	0.04934099	0.0003099733	0.0001372253	0.1596695	-0.1372017	-0.001030221	0.0005051458	
0.0003099733	0.0001372253	-0.2208131	0.02946276	-0.0007104899	0.0001755653	0.1773471	-0.1679611	
0.1596695	-0.1372017	-0.0007104899	0.0001755653	-0.3015184	0.2278712	0.001034042	-0.002062058	
-0.001030221	0.0005051458	0.1773471	-0.1679611	0.001034042	-0.002062058	-0.2841212	0.3286934	

4.546e+10	-0.1778984	0.04067882	0.0003221173	-7.494125e-05	0.1653951	-0.1340873	-0.000494793	0.0009795237	
0.0003221173	-7.494125e-05	-0.2218847	0.02936928	-0.000450261	0.00054138	0.1757388	-0.1690523	
0.1653951	-0.1340873	-0.000450261	0.00054138	-0.3206873	0.2318831	-0.0003832419	-0.002147166	
-0.000494793	0.0009795237	0.1757388	-0.1690523	-0.0003832419	-0.002147166	-0.2828842	0.3286511	

4.548e+10	-0.1787566	0.03229225	0.0002071043	-0.0002446502	0.1719815	-0.1330999	0.0001812209	0.00102744	
0.0002071043	-0.0002446502	-0.2227578	0.02932662	-4.352096e-05	0.000673365	0.1740451	-0.1700809	
0.1719815	-0.1330999	-4.352096e-05	0.000673365	-0.3382047	0.2403496	-0.001490846	-0.001411303	
0.0001812209	0.00102744	0.1740451	-0.1700809	-0.001490846	-0.001411303	-0.2816383	0.328245	

4.55e+10	-0.1811375	0.02452295	2.123801e-05	-0.0003082793	0.1787002	-0.1343329	0.0007157528	0.0006796515	
2.123801e-05	-0.0003082793	-0.2234675	0.02922169	0.0003419632	0.0005463215	0.1723476	-0.1710351	
0.1787002	-0.1343329	0.0003419632	0.0005463215	-0.353163	0.252374	-0.001909552	-0.0002449581	
0.0007157528	0.0006796515	0.1723476	-0.1710351	-0.001909552	-0.0002449581	-0.2808597	0.327569	

4.552e+10	-0.1847112	0.017623	-0.0001568487	-0.0002514984	0.1849134	-0.1376295	0.0009224118	0.0001199641	
-0.0001568487	-0.0002514984	-0.2242025	0.02891989	0.0005667035	0.0002357915	0.1706937	-0.1719256	
0.1849134	-0.1376295	0.0005667035	0.0002357915	-0.3647963	0.2670883	-0.001583297	0.0008575145	
0.0009224118	0.0001199641	0.1706937	-0.1719256	-0.001583297	0.0008575145	-0.2804316	0.3271852	

4.554e+10	-0.1891604	0.01166896	-0.0002615709	-0.0001090958	0.1900984	-0.1426521	0.0007697661	-0.0004144764	
-0.0002615709	-0.0001090958	-0.2251406	0.02852171	0.0005701668	-0.0001247752	0.1691053	-0.1728173	
0.1900984	-0.1426521	0.0005701668	-0.0001247752	-0.3728712	0.2835379	-0.0007423038	0.00150856	
0.0007697661	-0.0004144764	0.1691053	-0.1728173	-0.0007423038	0.00150856	-0.2800796	0.3272365	

4.556e+10	-0.1941752	0.006678954	-0.0002645457	5.753521e-05	0.1939103	-0.1489755	0.0003650335	-0.000735162	
-0.0002645457	5.753521e-05	-0.2262567	0.02822186	0.0003799179	-0.0004049396	0.1675281	-0.1737776	
0.1939103	-0.1489755	0.0003799179	-0.0004049396	-0.3775372	0.3006295	0.000238475	0.001551378	
0.0003650335	-0.000735162	0.1675281	-0.1737776	0.000238475	0.001551378	-0.2793523	0.3275423	

4.558e+10	-0.1995224	0.002646721	-0.0001777353	0.0001885422	0.1961825	-0.1561345	-0.0001139448	-0.0007625134	
-0.0001777353	0.0001885422	-0.2273481	0.02819683	8.397671e-05	-0.0005231731	0.1658911	-0.1747761	
0.1961825	-0.1561345	8.397671e-05	-0.0005231731	-0.3788951	0.3178181	0.001006121	0.001067894	
-0.0001139448	-0.0007625134	0.1658911	-0.1747761	0.001006121	0.001067894	-0.2781305	0.3277283	

4.56e+10	-0.2050391	-0.000608365	-4.000454e-05	0.000245583	0.1968637	-0.163695	-0.0004952291	-0.0005299545	
-4.000454e-05	0.000245583	-0.2282859	0.02827268	-0.0002116374	-0.0004616175	0.1641679	-0.1757531	
0.1968637	-0.163695	-0.0002116374	-0.0004616175	-0.3772959	0.3345082	0.001342325	0.0002975125	
-0.0004952291	-0.0005299545	0.1641679	-0.1757531	0.001342325	0.0002975125	-0.2768036	0.3274369	

4.562e+10	-0.2106263	-0.003161702	9.979024e-05	0.0002180613	0.1960165	-0.1712554	-0.0006671624	-0.0001497399	
9.979024e-05	0.0002180613	-0.2290252	0.02824249	-0.000415481	-0.0002575088	0.1624071	-0.176635	
0.1960165	-0.1712554	-0.000415481	-0.0002575088	-0.3731153	0.3503786	0.00120263	-0.000472444	
-0.0006671624	-0.0001497399	0.1624071	-0.176635	0.00120263	-0.000472444	-0.2758589	0.3267819	

4.564e+10	-0.2162591	-0.005134193	0.0001970309	0.0001217648	0.1937923	-0.178526	-0.000600953	0.000235995	
0.0001970309	0.0001217648	-0.2297444	0.02804627	-0.0004717395	1.375369e-05	0.1606757	-0.1774432	
0.1937923	-0.178526	-0.0004717395	1.375369e-05	-0.3667713	0.3651107	0.0006953275	-0.000999291	
-0.000600953	0.000235995	0.1606757	-0.1774432	0.0006953275	-0.000999291	-0.2753375	0.3262797	

4.566e+10	-0.2219423	-0.006587093	0.0002238695	-7.033819e-06	0.190378	-0.1852445	-0.0003471935	0.0005017853	
0.0002238695	-7.033819e-06	-0.2306171	0.02774439	-0.0003741982	0.0002618218	0.1590249	-0.1782413	
0.190378	-0.1852445	-0.0003741982	0.0002618218	-0.3584981	0.3785713	2.646018e-05	-0.001149195	
-0.0003471935	0.0005017853	0.1590249	-0.1782413	2.646018e-05	-0.001149195	-0.2750431	0.3261618	

4.568e+10	-0.2277234	-0.007594153	0.0001773465	-0.0001246319	0.1859582	-0.1912183	-1.026259e-05	0.0005769787	
0.0001773465	-0.0001246319	-0.2316883	0.02754514	-0.000164955	0.0004109602	0.1574014	-0.1790779	
0.1859582	-0.1912183	-0.000164955	0.0004109602	-0.348629	0.3906058	-0.0005759101	-0.0009227236	
-1.026259e-05	0.0005769787	0.1574014	-0.1790779	-0.0005759101	-0.0009227236	-0.2744973	0.3264383	

4.57e+10	-0.233629	-0.00811768	7.825405e-05	-0.0001950367	0.1807682	-0.1963087	0.0002925586	0.0004612654	
7.825405e-05	-0.0001950367	-0.2328047	0.02747185	8.28201e-05	0.0004227233	0.1557341	-0.1799747	
0.1807682	-0.1963087	8.28201e-05	0.0004227233	-0.3371016	0.4013151	-0.0009352951	-0.0004359366	
0.0002925586	0.0004612654	0.1557341	-0.1799747	-0.0009352951	-0.0004359366	-0.2734543	0.3266999	

4.572e+10	-0.2396939	-0.008077111	-3.877604e-05	-0.0002006068	0.1750527	-0.2004406	0.0004711961	0.0002145676	
-3.877604e-05	-0.0002006068	-0.2337731	0.0276275	0.000291647	0.0003032143	0.1539925	-0.1808766	
0.1750527	-0.2004406	0.000291647	0.0003032143	-0.3242347	0.410405	-0.0009730892	0.0001334697	
0.0004711961	0.0002145676	0.1539925	-0.1808766	-0.0009730892	0.0001334697	-0.2721042	0.3265896	

4.574e+10	-0.2459378	-0.007428153	-0.0001372532	-0.0001443821	0.1690265	-0.20355	0.0004863543	-7.16928e-05	
-0.0001372532	-0.0001443821	-0.2345429	0.02775998	0.0004011881	9.546549e-05	0.1521854	-0.1816957	
0.1690265	-0.20355	0.0004011881	9.546549e-05	-0.3100759	0.4178222	-0.0007144304	0.0006084581	
0.0004863543	-7.16928e-05	0.1521854	-0.1816957	-0.0007144304	0.0006084581	-0.2710269	0.3259901	

4.576e+10	-0.2523189	-0.005990287	-0.0001887904	-4.707074e-05	0.1629641	-0.2056611	0.0003528695	-0.0003066583	
-0.0001887904	-4.707074e-05	-0.2352427	0.02771791	0.0003826166	-0.0001339005	0.1503943	-0.18243	
0.1629641	-0.2056611	0.0003826166	-0.0001339005	-0.2947836	0.4233492	-0.000265381	0.0008599633	
0.0003528695	-0.0003066583	0.1503943	-0.18243	-0.000265381	0.0008599633	-0.2704075	0.3253606	

4.578e+10	-0.2587635	-0.003703598	-0.0001808686	5.93267e-05	0.1571	-0.2068441	0.000128118	-0.0004264714	
-0.0001808686	5.93267e-05	-0.236061	0.02752198	0.0002467635	-0.0003139749	0.1486712	-0.1831161	
0.1571	-0.2068441	0.0002467635	-0.0003139749	-0.2785116	0.4267473	0.0002257366	0.0008362688	
0.000128118	-0.0004264714	0.1486712	-0.1831161	0.0002257366	0.0008362688	-0.2700951	0.3251002	

4.58e+10	-0.2651397	-0.0004164808	-0.0001200262	0.0001429403	0.1516554	-0.2072487	-0.0001113641	-0.0004101708	
-0.0001200262	0.0001429403	-0.237078	0.027347	3.973938e-05	-0.0003924531	0.1470089	-0.183852	
0.1516554	-0.2072487	3.973938e-05	-0.0003924531	-0.2615173	0.4277623	0.0006137823	0.0005690256	
-0.0001113641	-0.0004101708	0.1470089	-0.183852	0.0006137823	0.0005690256	-0.2696843	0.3252981	

4.582e+10	-0.2711695	0.004070513	-2.76243e-05	0.0001818842	0.1468092	-0.207116	-0.0002960928	-0.0002796097	
-2.76243e-05	0.0001818842	-0.2381704	0.02738876	-0.0001739423	-0.0003505582	0.1453171	-0.1846452	
0.1468092	-0.207116	-0.0001739423	-0.0003505582	-0.2440888	0.426203	0.0007977863	0.0001550306	
-0.0002960928	-0.0002796097	0.1453171	-0.1846452	0.0007977863	0.0001550306	-0.2687482	0.3256701	

4.584e+10	-0.2765797	0.009706708	6.956448e-05	0.0001691111	0.1426305	-0.2067315	-0.0003836077	-8.420125e-05	
6.956448e-05	0.0001691111	-0.2391641	0.02758764	-0.0003327543	-0.0002046318	0.1435513	-0.1854526	
0.1426305	-0.2067315	-0.0003327543	-0.0002046318	-0.2269126	0.4217751	0.0007429847	-0.0002801875	
-0.0003836077	-8.420125e-05	0.1435513	-0.1854526	0.0007429847	-0.0002801875	-0.2674567	0.325723	

4.586e+10	-0.280999	0.01644835	0.0001469296	0.0001102938	0.1390783	-0.206394	-0.0003632576	0.0001191521	
0.0001469296	0.0001102938	-0.2399543	0.0278061	-0.0003925718	2.535153e-06	0.1417233	-0.1862002	
0.1390783	-0.206394	-0.0003925718	2.535153e-06	-0.2104907	0.4145411	0.0004788871	-0.0006174443	
-0.0003632576	0.0001191521	0.1417233	-0.1862002	0.0004788871	-0.0006174443	-0.266248	0.3252915	

4.588e+10	-0.2840991	0.02410616	0.0001856418	2.031436e-05	0.1359323	-0.2063872	-0.0002499881	0.0002815684	
0.0001856418	2.031436e-05	-0.2406397	0.02788552	-0.0003354884	0.0002124149	0.1398861	-0.1868603	
0.1359323	-0.2063872	-0.0003354884	0.0002124149	-0.1953592	0.4046606	8.498676e-05	-0.0007699236	
-0.0002499881	0.0002815684	0.1398861	-0.1868603	8.498676e-05	-0.0007699236	-0.265495	0.3246026	

4.59e+10	-0.2856249	0.03234087	0.0001748843	-7.953354e-05	0.1329029	-0.2068428	-7.506299e-05	0.0003682883	
0.0001748843	-7.953354e-05	-0.2414042	0.02780333	-0.0001748732	0.0003643356	0.1381154	-0.1874653	
0.1329029	-0.2068428	-0.0001748732	0.0003643356	-0.1820073	0.3924599	-0.0003294411	-0.000699781	
-7.506299e-05	0.0003682883	0.1381154	-0.1874653	-0.0003294411	-0.000699781	-0.2651341	0.3241614	

4.592e+10	-0.2854393	0.04072569	0.000113827	-0.0001645097	0.1296199	-0.2077498	0.0001212982	0.0003607219	
0.000113827	-0.0001645097	-0.2423523	0.02769826	4.62908e-05	0.0004115246	0.1363928	-0.1880804	
0.1296199	-0.2077498	4.62908e-05	0.0004115246	-0.170642	0.3784585	-0.0006507226	-0.0004266324	
0.0001212982	0.0003607219	0.1363928	-0.1880804	-0.0006507226	-0.0004266324	-0.2647436	0.3242609	

4.594e+10	-0.2835373	0.04882252	1.282557e-05	-0.0002104195	0.1257774	-0.2089321	0.0002945064	0.0002569777	
1.282557e-05	-0.0002104195	-0.2434103	0.02777614	0.0002667941	0.0003343388	0.134679	-0.1887711	
0.1257774	-0.2089321	0.0002667941	0.0003343388	-0.1617313	0.3629134	-0.0007888707	-2.244853e-05	
0.0002945064	0.0002569777	0.134679	-0.1887711	-0.0007888707	-2.244853e-05	-0.2640637	0.3245829	

4.596e+10	-0.2800538	0.05631617	-0.0001061709	-0.000197842	0.1211743	-0.2100664	0.0004002246	7.334666e-05	
-0.0001061709	-0.000197842	-0.2443943	0.02806128	0.0004212418	0.0001449712	0.1329007	-0.1894779	
0.1211743	-0.2100664	0.0004212418	0.0001449712	-0.1551746	0.3462484	-0.0006980246	0.000406097	
0.0004002246	7.334666e-05	0.1329007	-0.1894779	-0.0006980246	0.000406097	-0.2629552	0.3247227	

4.598e+10	-0.2751703	0.06282026	-0.0002100322	-0.0001183471	0.1157409	-0.2107497	0.000400101	-0.0001531759	
-0.0002100322	-0.0001183471	-0.2452091	0.02832829	0.0004539409	-0.0001118179	0.1310468	-0.1901336	
0.1157409	-0.2107497	0.0004539409	-0.0001118179	-0.150959	0.3288128	-0.0003869816	0.0007383433	
0.000400101	-0.0001531759	0.1310468	-0.1901336	-0.0003869816	0.0007383433	-0.2616406	0.3244864	

4.6e+10	-0.2691158	0.06814675	-0.0002594921	1.687156e-05	0.1095806	-0.210619	0.0002734294	-0.0003633146	
-0.0002594921	1.687156e-05	-0.2458746	0.02857914	0.000335302	-0.0003618524	0.1291887	-0.1907249	
0.1095806	-0.210619	0.000335302	-0.0003618524	-0.149324	0.3106885	7.520983e-05	0.0008634707	
0.0002734294	-0.0003633146	0.1291887	-0.1907249	7.520983e-05	0.0008634707	-0.2607367	0.3238278	

4.602e+10	-0.2621338	0.07210524	-0.000222525	0.0001711818	0.1029257	-0.2093017	3.444509e-05	-0.000483254	
-0.000222525	0.0001711818	-0.2465899	0.02857504	8.085163e-05	-0.00051566	0.1273687	-0.1912487	
0.1029257	-0.2093017	8.085163e-05	-0.00051566	-0.1503881	0.2921217	0.0005597706	0.0007114949	
3.444509e-05	-0.000483254	0.1273687	-0.1912487	0.0005597706	0.0007114949	-0.2602789	0.3232592	

4.604e+10	-0.2544726	0.07455764	-9.311278e-05	0.000287939	0.09613848	-0.2065083	-0.0002547822	-0.000449045	
-9.311278e-05	0.000287939	-0.2474541	0.02858766	-0.0002382925	-0.0004984706	0.1256016	-0.1917567	
0.09613848	-0.2065083	-0.0002382925	-0.0004984706	-0.1543052	0.2734012	0.0009007719	0.0002925569	
-0.0002547822	-0.000449045	0.1256016	-0.1917567	0.0009007719	0.0002925569	-0.2599278	0.3231695	

4.606e+10	-0.2463955	0.07528364	9.594536e-05	0.0003107556	0.08970274	-0.2020638	-0.0004928699	-0.0002416679	
9.594536e-05	0.0003107556	-0.2484475	0.02870242	-0.0005085361	-0.0002874816	0.1238574	-0.1923291	
0.08970274	-0.2020638	-0.0005085361	-0.0002874816	-0.1615309	0.2548268	0.0009500206	-0.0002790658	
-0.0004928699	-0.0002416679	0.1238574	-0.1923291	0.0009500206	-0.0002790658	-0.2594514	0.3233854	

4.608e+10	-0.2382735	0.07416831	0.0002771196	0.0002106121	0.08421149	-0.195951	-0.0005745827	8.864207e-05	
0.0002771196	0.0002106121	-0.2494258	0.02894779	-0.0006127349	6.440103e-05	0.1220721	-0.1929349	
0.08421149	-0.195951	-0.0006127349	6.440103e-05	-0.1723212	0.2370928	0.0006464959	-0.0008054308	
-0.0005745827	8.864207e-05	0.1220721	-0.1929349	0.0006464959	-0.0008054308	-0.2584109	0.3237058	

4.61e+10	-0.2304887	0.07121594	0.0003704051	7.449733e-06	0.08030663	-0.1883765	-0.0004396022	0.0004267487	
0.0003704051	7.449733e-06	-0.2502444	0.02935268	-0.0004813347	0.0004324839	0.1202181	-0.1935071	
0.08030663	-0.1883765	-0.0004813347	0.0004324839	-0.1870208	0.2209961	6.400205e-05	-0.00107159	
-0.0004396022	0.0004267487	0.1202181	-0.1935071	6.400205e-05	-0.00107159	-0.2571973	0.3235731	

4.612e+10	-0.2235101	0.06641893	0.0003194703	-0.0002265578	0.07855508	-0.1798311	-0.0001116611	0.0006319713	
0.0003194703	-0.0002265578	-0.250894	0.02965086	-0.0001371449	0.0006616663	0.1183302	-0.1940234	
0.07855508	-0.1798311	-0.0001371449	0.0006616663	-0.2052944	0.207818	-0.000593893	-0.0009379953	
-0.0001116611	0.0006319713	0.1183302	-0.1940234	-0.000593893	-0.0009379953	-0.2560744	0.3230855	

4.614e+10	-0.2178759	0.06001303	0.000125786	-0.0003908163	0.0793798	-0.1710482	0.000294236	0.0005987049	
0.000125786	-0.0003908163	-0.251539	0.02981613	0.0002956631	0.0006348035	0.116474	-0.1944675	
0.0793798	-0.1710482	0.0002956631	0.0006348035	-0.2267161	0.1986147	-0.001060756	-0.0004186986	
0.000294236	0.0005987049	0.116474	-0.1944675	-0.001060756	-0.0004186986	-0.255409	0.3224772	

4.616e+10	-0.2140249	0.05233198	-0.0001398609	-0.0004027571	0.08285014	-0.1629469	0.0006101024	0.0003163011	
-0.0001398609	-0.0004027571	-0.2523288	0.02986508	0.000634309	0.0003394154	0.1146677	-0.194877	
0.08285014	-0.1629469	0.000634309	0.0003394154	-0.2501832	0.1944119	-0.001123204	0.0002969729	
0.0006101024	0.0003163011	0.1146677	-0.194877	-0.001123204	0.0002969729	-0.2550858	0.3221846	

4.618e+10	-0.212206	0.04410028	-0.0003645435	-0.0002441328	0.08865791	-0.1564219	0.0006925606	-0.0001110666	
-0.0003645435	-0.0002441328	-0.253257	0.03001976	0.0007240787	-0.000111872	0.1129055	-0.1953375	
0.08865791	-0.1564219	0.0007240787	-0.000111872	-0.2741486	0.195765	-0.0007343334	0.0009149605	
0.0006925606	-0.0001110666	0.1129055	-0.1953375	-0.0007343334	0.0009149605	-0.2546615	0.3223417	

4.62e+10	-0.2124812	0.03582408	-0.000447102	2.444898e-05	0.0961383	-0.1521875	0.0004970457	-0.0005067165	
-0.000447102	2.444898e-05	-0.2541985	0.03040133	0.0005175355	-0.0005292284	0.1111051	-0.1958269	
0.0961383	-0.1521875	0.0005175355	-0.0005292284	-0.296947	0.2026394	-4.877776e-05	0.001174087	
0.0004970457	-0.0005067165	0.1111051	-0.1958269	-4.877776e-05	0.001174087	-0.2538251	0.32267	

4.622e+10	-0.2146278	0.02810387	-0.0003479842	0.0002911664	0.1044322	-0.150617	0.0001015055	-0.00070597	
-0.0003479842	0.0002911664	-0.2549951	0.03081264	9.875447e-05	-0.0007360144	0.1092547	-0.1963161	
0.1044322	-0.150617	9.875447e-05	-0.0007360144	-0.3172309	0.2142973	0.000650639	0.0009709595	
0.0001015055	-0.00070597	0.1092547	-0.1963161	0.000650639	0.0009709595	-0.2527356	0.3226734	

4.624e+10	-0.2182832	0.02140286	-0.00010687	0.0004444622	0.1126382	-0.1517061	-0.0003331332	-0.0006302427	
-0.00010687	0.0004444622	-0.2556268	0.03125117	-0.0003575048	-0.0006486888	0.1073627	-0.1967536	
0.1126382	-0.1517061	-0.0003575048	-0.0006486888	-0.3337921	0.2297522	0.001085493	0.0003989964	
-0.0003331332	-0.0006302427	0.1073627	-0.1967536	0.001085493	0.0003989964	-0.2514821	0.322346	

4.626e+10	-0.2229934	0.01590613	0.0001773961	0.0004226074	0.120016	-0.1551482	-0.0006358274	-0.0003149361	
0.0001773961	0.0004226074	-0.2562258	0.03146057	-0.0006667499	-0.000309495	0.1054784	-0.1971126	
0.120016	-0.1551482	-0.0006667499	-0.000309495	-0.3462423	0.247611	0.001097694	-0.0003054494	
-0.0006358274	-0.0003149361	0.1054784	-0.1971126	0.001097694	-0.0003054494	-0.2506424	0.3217326	

4.628e+10	-0.2283071	0.01176529	0.0003914649	0.0002376028	0.1260434	-0.1604664	-0.0006949633	0.0001121861	
0.0003914649	0.0002376028	-0.2569095	0.03163556	-0.0007133687	0.0001389233	0.1036448	-0.1974394	
0.1260434	-0.1604664	-0.0007133687	0.0001389233	-0.3545475	0.2666859	0.0007038364	-0.0008694138	
-0.0006949633	0.0001121861	0.1036448	-0.1974394	0.0007038364	-0.0008694138	-0.2502675	0.3212514	

4.63e+10	-0.2338952	0.008780942	0.0004553111	-3.481286e-05	0.1304201	-0.1670984	-0.0004982213	0.0004873836	
0.0004553111	-3.481286e-05	-0.2577619	0.03183187	-0.0004925524	0.0005208596	0.1018529	-0.197785	
0.1304201	-0.1670984	-0.0004925524	0.0005208596	-0.3588864	0.2860853	7.379259e-05	-0.001093112	
-0.0004982213	0.0004873836	0.1018529	-0.197785	7.379259e-05	-0.001093112	-0.2499081	0.3212524	

4.632e+10	-0.2395007	0.006899031	0.0003506122	-0.0002904951	0.1330481	-0.1745431	-0.0001288784	0.0006775314	
0.0003506122	-0.0002904951	-0.2586414	0.03221549	-0.0001007564	0.0006994603	0.1000533	-0.198175	
0.1330481	-0.1745431	-0.0001007564	0.0006994603	-0.3596745	0.3051341	-0.0005505676	-0.0009199314	
-0.0001288784	0.0006775314	0.1000533	-0.198175	-0.0005505676	-0.0009199314	-0.249249	0.3215616	

4.634e+10	-0.2449289	0.005900388	0.0001206456	-0.0004383299	0.1339425	-0.182354	0.0002754134	0.0006253916	
0.0001206456	-0.0004383299	-0.2594139	0.0327256	0.0003130024	0.000623013	0.09820112	-0.198564	
0.1339425	-0.182354	0.0003130024	0.000623013	-0.3574676	0.3232235	-0.000954101	-0.0004386357	
0.0002754134	0.0006253916	0.09820112	-0.198564	-0.000954101	-0.0004386357	-0.2482195	0.3217383	

4.636e+10	-0.2501076	0.005588387	-0.0001505604	-0.0004294524	0.1332128	-0.1901628	0.0005760657	0.0003595046	
-0.0001505604	-0.0004294524	-0.2600326	0.03317257	0.0006043192	0.000331582	0.09629977	-0.1989043	
0.1332128	-0.1901628	0.0006043192	0.000331582	-0.3525899	0.3401355	-0.001017383	0.0001682442	
0.0005760657	0.0003595046	0.09629977	-0.1989043	-0.001017383	0.0001682442	-0.2469846	0.3215279	

4.638e+10	-0.2549713	0.005919681	-0.0003688965	-0.0002695962	0.1310057	-0.1976806	0.0006767209	-2.493132e-05	
-0.0003688965	-0.0002695962	-0.2605572	0.03356305	0.0006800647	-6.631185e-05	0.09440418	-0.1991915	
0.1310057	-0.1976806	0.0006800647	-6.631185e-05	-0.3455722	0.3556079	-0.0007404136	0.0006960245	
0.0006767209	-2.493132e-05	0.09440418	-0.1991915	-0.0007404136	0.0006960245	-0.2459591	0.3210039	

4.64e+10	-0.2595257	0.006614616	-0.0004601903	-1.454246e-05	0.1274761	-0.2046555	0.0005479476	-0.0003991603	
-0.0004601903	-1.454246e-05	-0.2611644	0.03378029	0.0005232868	-0.0004338089	0.09255501	-0.1994292	
0.1274761	-0.2046555	0.0005232868	-0.0004338089	-0.336568	0.3696241	-0.0002280234	0.0009790983	
0.0005479476	-0.0003991603	0.09255501	-0.1994292	-0.0002280234	0.0009790983	-0.2454348	0.3204355	

4.642e+10	-0.2637966	0.007737137	-0.0003929195	0.0002497393	0.1228139	-0.2109308	0.0002335325	-0.00063961	
-0.0003929195	0.0002497393	-0.2619202	0.03401749	0.000192108	-0.0006509649	0.09074213	-0.1996785	
0.1228139	-0.2109308	0.000192108	-0.0006509649	-0.3259333	0.3820238	0.000347719	0.0009359881	
0.0002335325	-0.00063961	0.09074213	-0.1996785	0.000347719	0.0009359881	-0.2451102	0.3202432	

4.644e+10	-0.2678248	0.009118649	-0.0001878353	0.0004338541	0.1171915	-0.2163259	-0.0001629267	-0.0006668347	
-0.0001878353	0.0004338541	-0.2627311	0.03444927	-0.0002025063	-0.000650173	0.08893754	-0.1999636	
0.1171915	-0.2163259	-0.0002025063	-0.000650173	-0.3138487	0.3927295	0.00080314	0.0005893393	
-0.0001629267	-0.0006668347	0.08893754	-0.1999636	0.00080314	0.0005893393	-0.2446278	0.3204232	

4.646e+10	-0.2716567	0.01076839	8.958752e-05	0.0004739472	0.1108104	-0.2207153	-0.0005120273	-0.0004700092	
8.958752e-05	0.0004739472	-0.2634697	0.03496718	-0.0005334794	-0.0004330833	0.0870928	-0.2002615	
0.1108104	-0.2207153	-0.0005334794	-0.0004330833	-0.3004822	0.4016629	0.0009979483	5.291156e-05	
-0.0005120273	-0.0004700092	0.0870928	-0.2002615	0.0009979483	5.291156e-05	-0.2436884	0.3206988	

4.648e+10	-0.2753397	0.01264757	0.0003487091	0.0003505887	0.1038671	-0.2239673	-0.0006988488	-0.0001086871	
0.0003487091	0.0003505887	-0.2640426	0.03551227	-0.0006942557	-6.636008e-05	0.08519468	-0.2005115	
0.1038671	-0.2239673	-0.0006942557	-6.636008e-05	-0.2860343	0.4086512	0.0008720772	-0.0005069092	
-0.0006988488	-0.0001086871	0.08519468	-0.2005115	0.0008720772	-0.0005069092	-0.2425017	0.3206447	

4.65e+10	-0.2789269	0.01481321	0.0005000793	9.652641e-05	0.09662581	-0.226033	-0.0006558545	0.0003052727	
0.0005000793	9.652641e-05	-0.2645179	0.03595229	-0.0006275233	0.000336475	0.08330141	-0.2007208	
0.09662581	-0.226033	-0.0006275233	0.000336475	-0.2705664	0.4136264	0.0004582782	-0.0009163985	
-0.0006558545	0.0003052727	0.08330141	-0.2007208	0.0004582782	-0.0009163985	-0.2413897	0.3202187	

4.652e+10	-0.2823863	0.01737043	0.0004832611	-0.0002096567	0.08934449	-0.2268606	-0.0003838798	0.000636616	
0.0004832611	-0.0002096567	-0.2650314	0.03625766	-0.0003433667	0.0006452354	0.08143819	-0.2008799	
0.08934449	-0.2268606	-0.0003433667	0.0006452354	-0.254403	0.4162887	-0.0001248041	-0.001039233	
-0.0003838798	0.000636616	0.08143819	-0.2008799	-0.0001248041	-0.001039233	-0.2407364	0.3195841	

4.654e+10	-0.2856841	0.02037786	0.0002898131	-0.0004637619	0.08232066	-0.2264939	4.073368e-05	0.0007657373	
0.0002898131	-0.0004637619	-0.2656733	0.03658169	7.75238e-05	0.0007500543	0.07961694	-0.2010279	
0.08232066	-0.2264939	7.75238e-05	0.0007500543	-0.2377624	0.416504	-0.0006970538	-0.0008175888	
4.073368e-05	0.0007657373	0.07961694	-0.2010279	-0.0006970538	-0.0008175888	-0.2402624	0.3193026	

4.656e+10	-0.2887134	0.02388876	-2.745647e-05	-0.0005689178	0.0758346	-0.225078	0.0004819337	0.0006302063	
-2.745647e-05	-0.0005689178	-0.2664074	0.03696709	0.0005026961	0.0005983896	0.07779909	-0.2012132	
0.0758346	-0.225078	0.0005026961	0.0005983896	-0.2212139	0.4139491	-0.001065639	-0.0003001398	
0.0004819337	0.0006302063	0.07779909	-0.2012132	-0.001065639	-0.0003001398	-0.2398636	0.3193522	

4.658e+10	-0.2913175	0.02799937	-0.00036436	-0.0004702383	0.07012398	-0.2227844	0.0007825902	0.0002544602	
-0.00036436	-0.0004702383	-0.2670951	0.03753777	0.0007835211	0.0002187335	0.0759519	-0.2014047	
0.07012398	-0.2227844	0.0007835211	0.0002187335	-0.2052282	0.4085837	-0.001087062	0.0003599322	
0.0007825902	0.0002544602	0.0759519	-0.2014047	-0.001087062	0.0003599322	-0.239156	0.3195702	

4.66e+10	-0.2932611	0.03253176	-0.0005956805	-0.0001810952	0.06534876	-0.2199369	0.0008189193	-0.0002478703	
-0.0005956805	-0.0001810952	-0.2676264	0.03813654	0.0008031563	-0.0002779137	0.07407891	-0.2015685	
0.06534876	-0.2199369	0.0008031563	-0.0002779137	-0.1903597	0.4005357	-0.0007212069	0.0009446655	
0.0008189193	-0.0002478703	0.07407891	-0.2015685	-0.0007212069	0.0009446655	-0.2379723	0.3197299	

4.662e+10	-0.2943378	0.0374445	-0.0006177367	0.0002094529	0.06153745	-0.2168474	0.0005484995	-0.0007023	
-0.0006177367	0.0002094529	-0.2680314	0.03862392	0.0005215607	-0.0007214087	0.07219143	-0.2016894	
0.06153745	-0.2168474	0.0005215607	-0.0007214087	-0.1773783	0.3899422	-5.840952e-05	0.00123582	
0.0005484995	-0.0007023	0.07219143	-0.2016894	-5.840952e-05	0.00123582	-0.2368599	0.3193978	

4.664e+10	-0.2944708	0.04248636	-0.0003944648	0.0005575352	0.05862069	-0.213768	4.000197e-05	-0.0009273376	
-0.0003944648	0.0005575352	-0.2684522	0.03906725	6.923274e-06	-0.0009333343	0.0703321	-0.2017735	
0.05862069	-0.213768	6.923274e-06	-0.0009333343	-0.1668322	0.3773669	0.0006898046	0.001089604	
4.000197e-05	-0.0009273376	0.0703321	-0.2017735	0.0006898046	0.001089604	-0.23601	0.3188328	

4.666e+10	-0.2936421	0.04719155	1.279582e-05	0.0007137953	0.05643951	-0.2109296	-0.0005314231	-0.0008059454	
1.279582e-05	0.0007137953	-0.2690018	0.03938697	-0.0005666992	-0.0007974232	0.06849016	-0.2018465	
0.05643951	-0.2109296	-0.0005666992	-0.0007974232	-0.1590248	0.3634745	0.001244052	0.0005080682	
-0.0005314231	-0.0008059454	0.06849016	-0.2018465	0.001244052	0.0005080682	-0.2354387	0.3184095	

4.668e+10	-0.2919651	0.05142878	0.0004542408	0.0005895031	0.0548318	-0.2084283	-0.0009381302	-0.0003494467	
0.0004542408	0.0005895031	-0.2696262	0.03981493	-0.0009713644	-0.0003231299	0.06666477	-0.2019303	
0.0548318	-0.2084283	-0.0009713644	-0.0003231299	-0.154249	0.3489043	0.001358459	-0.0003284449	
-0.0009381302	-0.0003494467	0.06666477	-0.2019303	0.001358459	-0.0003284449	-0.2350759	0.3182673	

4.67e+10	-0.2896559	0.05499288	0.0007449659	0.0002074097	0.05364938	-0.2062878	-0.0009946241	0.0002844525	
0.0007449659	0.0002074097	-0.2702387	0.04038744	-0.00101551	0.0003323123	0.06483117	-0.2020223	
0.05364938	-0.2062878	-0.00101551	0.0003323123	-0.1523203	0.3345459	0.0009373799	-0.001105477	
-0.0009946241	0.0002844525	0.06483117	-0.2020223	0.0009373799	-0.001105477	-0.2344571	0.3184751	

4.672e+10	-0.2870441	0.05766974	0.0007449816	-0.0002929755	0.0528046	-0.2045336	-0.0006481834	0.0008450344	
0.0007449816	-0.0002929755	-0.2707242	0.04099152	-0.0006381522	0.0009096852	0.06297356	-0.2020854	
0.0528046	-0.2045336	-0.0006381522	0.0009096852	-0.1532061	0.3209149	0.0001028712	-0.001494363	
-0.0006481834	0.0008450344	0.06297356	-0.2020854	0.0001028712	-0.001494363	-0.2335354	0.3186186	

4.674e+10	-0.2843873	0.05967066	0.000429152	-0.0007048054	0.05224645	-0.2032214	-1.519648e-05	0.001092394	
0.000429152	-0.0007048054	-0.27108	0.04157791	4.079758e-05	0.001149876	0.06110957	-0.2021241	
0.05224645	-0.2032214	4.079758e-05	0.001149876	-0.1562192	0.3087257	-0.0008319609	-0.001298902	
-1.519648e-05	0.001092394	0.06110957	-0.2021241	-0.0008319609	-0.001298902	-0.2322966	0.3185581	

4.676e+10	-0.2819152	0.06100373	-8.817675e-05	-0.0008420558	0.05187582	-0.202439	0.0006564514	0.00090313	
-8.817675e-05	-0.0008420558	-0.2714169	0.04201756	0.0007512719	0.0009173195	0.05925228	-0.2021554	
0.05187582	-0.202439	0.0007512719	0.0009173195	-0.1610472	0.2982237	-0.001481131	-0.0005564254	
0.0006564514	0.00090313	0.05925228	-0.2021554	-0.001481131	-0.0005564254	-0.2313366	0.3180572	

4.678e+10	-0.2797587	0.06196978	-0.0005933974	-0.0006283784	0.05154869	-0.2022336	0.001085827	0.0003338782	
-0.0005933974	-0.0006283784	-0.2718396	0.04242314	0.00118252	0.0002786207	0.05740046	-0.2021485	
0.05154869	-0.2022336	0.00118252	0.0002786207	-0.1668311	0.289777	-0.00155004	0.0004541445	
0.001085827	0.0003338782	0.05740046	-0.2021485	-0.00155004	0.0004541445	-0.2306209	0.317539	

4.68e+10	-0.2779177	0.0627334	-0.0008666273	-0.0001412945	0.05105948	-0.2026774	0.001082325	-0.0003904509	
-0.0008666273	-0.0001412945	-0.2723606	0.04284535	0.001129074	-0.0005080184	0.05556976	-0.2021305	
0.05105948	-0.2026774	0.001129074	-0.0005080184	-0.173048	0.2832758	-0.0009790768	0.001315927	
0.001082325	-0.0003904509	0.05556976	-0.2021305	-0.0009790768	0.001315927	-0.2301727	0.3172712	

4.682e+10	-0.2763005	0.06348432	-0.0007838346	0.00041765	0.05015332	-0.2036966	0.000636748	-0.0009696143	
-0.0007838346	0.00041765	-0.2728954	0.04336887	0.0005952684	-0.001105071	0.05374339	-0.2020961	
0.05015332	-0.2036966	0.0005952684	-0.001105071	-0.179095	0.2784344	1.038288e-05	0.001657067	
0.000636748	-0.0009696143	0.05374339	-0.2020961	1.038288e-05	0.001657067	-0.2297055	0.3173257	

4.684e+10	-0.274726	0.06438582	-0.0003749554	0.0008129679	0.04857889	-0.2051672	-7.010827e-05	-0.00116359	
-0.0003749554	0.0008129679	-0.2733371	0.04402619	-0.0002000406	-0.001251412	0.05191985	-0.2020973	
0.04857889	-0.2051672	-0.0002000406	-0.001251412	-0.1844441	0.2748961	0.001010046	0.001326787	
-7.010827e-05	-0.00116359	0.05191985	-0.2020973	0.001010046	0.001326787	-0.2289204	0.3175228	

4.686e+10	-0.2729751	0.06548514	0.0001921247	0.0008795409	0.04614508	-0.2067633	-0.0007524204	-0.0008947951	
0.0001921247	0.0008795409	-0.273639	0.044663	-0.0009233829	-0.000879633	0.05007416	-0.202068	
0.04614508	-0.2067633	-0.0009233829	-0.000879633	-0.18899	0.2720222	0.001609442	0.0004582186	
-0.0007524204	-0.0008947951	0.05007416	-0.202068	0.001609442	0.0004582186	-0.2277767	0.3175693	

4.688e+10	-0.2709076	0.06654129	0.0006850643	0.0005896644	0.04280535	-0.2081441	-0.001139514	-0.0002723114	
0.0006850643	0.0005896644	-0.2738764	0.04519263	-0.00127257	-0.0001422918	0.04821402	-0.2020059	
0.04280535	-0.2081441	-0.00127257	-0.0001422918	-0.1928698	0.2691991	0.001566839	-0.0005972213	
-0.001139514	-0.0002723114	0.04821402	-0.2020059	0.001566839	-0.0005972213	-0.2266814	0.3172097	

4.69e+10	-0.2683906	0.06746486	0.0009046045	6.101628e-05	0.03864482	-0.2089565	-0.001080132	0.0004587115	
0.0009046045	6.101628e-05	-0.2741662	0.0455846	-0.001102733	0.0006565785	0.04635998	-0.2019162	
0.03864482	-0.2089565	-0.001102733	0.0006565785	-0.1962604	0.2661039	0.0008993399	-0.001416641	
-0.001080132	0.0004587115	0.04635998	-0.2019162	0.0008993399	-0.001416641	-0.2258033	0.3166815	

4.692e+10	-0.2654371	0.06800454	0.0007631344	-0.0004940717	0.03389443	-0.2088779	-0.0005977197	0.001011495	
0.0007631344	-0.0004940717	-0.2745739	0.04599718	-0.0004839962	0.001190151	0.04453924	-0.2018034	
0.03389443	-0.2088779	-0.0004839962	0.001190151	-0.1997331	0.2623771	-0.0001258269	-0.001672273	
-0.0005977197	0.001011495	0.04453924	-0.2018034	-0.0001258269	-0.001672273	-0.2252604	0.3162703	

4.694e+10	-0.2620883	0.06797588	0.0003166835	-0.0008545479	0.02886062	-0.2076944	0.000119098	0.00116925	
0.0003166835	-0.0008545479	-0.2750337	0.04651847	0.0003316859	0.001241248	0.04273491	-0.2016923	
0.02886062	-0.2076944	0.0003316859	0.001241248	-0.2037445	0.2580779	-0.001098356	-0.001262623	
0.000119098	0.00116925	0.04273491	-0.2016923	-0.001098356	-0.001262623	-0.2248599	0.3161748	

4.696e+10	-0.258491	0.06718735	-0.0002577744	-0.0008764071	0.02394385	-0.2053085	0.0007892148	0.0008709018	
-0.0002577744	-0.0008764071	-0.275417	0.04712737	0.001012166	0.0007893977	0.04092601	-0.201608	
0.02394385	-0.2053085	0.001012166	0.0007893977	-0.2088941	0.2533188	-0.001629702	-0.0003544388	
0.0007892148	0.0008709018	0.04092601	-0.201608	-0.001629702	-0.0003544388	-0.2241805	0.3163873	

4.698e+10	-0.2548501	0.06552922	-0.0007327027	-0.0005491296	0.01956589	-0.2017233	0.001151803	0.0002333323	
-0.0007327027	-0.0005491296	-0.2756626	0.04776385	0.001280874	1.796111e-05	0.03909673	-0.201492	
0.01956589	-0.2017233	0.001280874	1.796111e-05	-0.215553	0.2485781	-0.001511169	0.000687724	
0.001151803	0.0002333323	0.03909673	-0.201492	-0.001511169	0.000687724	-0.2231245	0.3165336	

4.7e+10	-0.2514264	0.06292075	-0.0009170499	-4.801662e-07	0.01613862	-0.1971405	0.001064999	-0.0004959158	
-0.0009170499	-4.801662e-07	-0.2758082	0.04838429	0.001026874	-0.0007576024	0.0372496	-0.2013535	
0.01613862	-0.1971405	0.001026874	-0.0007576024	-0.2241537	0.2443638	-0.0007932583	0.001447716	
0.001064999	-0.0004959158	0.0372496	-0.2013535	-0.0007932583	0.001447716	-0.2220337	0.3162739	

4.702e+10	-0.248543	0.05930299	-0.000733703	0.0005500793	0.01401589	-0.1918688	0.0005600248	-0.001030794	
-0.000733703	0.0005500793	-0.2760049	0.04876646	0.0003549874	-0.001216879	0.03540965	-0.2011877	
0.01401589	-0.1918688	0.0003549874	-0.001216879	-0.2344899	0.2415527	0.0002332297	0.001620906	
0.0005600248	-0.001030794	0.03540965	-0.2011877	0.0002332297	0.001620906	-0.2210299	0.3157807	

4.704e+10	-0.2464379	0.05490477	-0.0002543904	0.0008784781	0.01341134	-0.1863681	-0.0001648591	-0.001156913	
-0.0002543904	0.0008784781	-0.2762996	0.0491667	-0.0004525289	-0.001169716	0.03359481	-0.2009917	
0.01341134	-0.1863681	-0.0004525289	-0.001169716	-0.2464382	0.2408251	0.001148568	0.00114018	
-0.0001648591	-0.001156913	0.03359481	-0.2009917	0.001148568	0.00114018	-0.2203569	0.3152874	

4.706e+10	-0.2453623	0.04987492	0.0003237193	0.0008493824	0.0143643	-0.1811414	-0.000816877	-0.0008231744	
0.0003237193	0.0008493824	-0.2766452	0.04967664	-0.001053852	-0.0006435266	0.03180469	-0.2008069	
0.0143643	-0.1811414	-0.001053852	-0.0006435266	-0.2593638	0.2428782	0.001576703	0.0002135597	
-0.000816877	-0.0008231744	0.03180469	-0.2008069	0.001576703	0.0002135597	-0.2199399	0.315042	

4.708e+10	-0.2454871	0.04456831	0.000761781	0.0004788839	0.01675477	-0.1766874	-0.001133106	-0.0001707593	
0.000761781	0.0004788839	-0.2769626	0.0502827	-0.0012023	0.0001261546	0.03001263	-0.2006276	
0.01675477	-0.1766874	-0.0012023	0.0001261546	-0.2725044	0.2481339	0.001355796	-0.0007616776	
-0.001133106	-0.0001707593	0.03001263	-0.2006276	0.001355796	-0.0007616776	-0.2193627	0.3151518	

4.71e+10	-0.2468681	0.03932094	0.0008840994	-7.338686e-05	0.02026942	-0.1734597	-0.000995981	0.0005286809	
0.0008840994	-7.338686e-05	-0.2771428	0.05096523	-0.0008562974	0.0008069339	0.02820501	-0.2004352	
0.02026942	-0.1734597	-0.0008562974	0.0008069339	-0.2849213	0.2567244	0.0006089929	-0.001383059	
-0.000995981	0.0005286809	0.02820501	-0.2004352	0.0006089929	-0.001383059	-0.2185028	0.3153229	

4.712e+10	-0.2494761	0.03435143	0.0006524447	-0.0005773562	0.02444337	-0.1717695	-0.0004790184	0.0009966619	
0.0006524447	-0.0005773562	-0.2772313	0.05153194	-0.0001894607	0.001122422	0.02637374	-0.2002204	
0.02444337	-0.1717695	-0.0001894607	0.001122422	-0.2955148	0.2685209	-0.000327299	-0.001423354	
-0.0004790184	0.0009966619	0.02637374	-0.2002204	-0.000327299	-0.001423354	-0.2173287	0.3152713	

4.714e+10	-0.2531227	0.03004864	0.0001761798	-0.0008343009	0.02874678	-0.1717103	0.0001974781	0.001063114	
0.0001761798	-0.0008343009	-0.2773065	0.05194659	0.0005020123	0.0009732562	0.02455075	-0.1999786	
0.02874678	-0.1717103	0.0005020123	0.0009732562	-0.3034387	0.2829611	-0.001066632	-0.0009138913	
0.0001974781	0.001063114	0.02455075	-0.1999786	-0.001066632	-0.0009138913	-0.216229	0.3148505	

4.716e+10	-0.2575438	0.02665999	-0.000343587	-0.0007581366	0.03262331	-0.1731841	0.0007649784	0.0007265212	
-0.000343587	-0.0007581366	-0.2774688	0.05232797	0.0009406695	0.0004629076	0.02274574	-0.1996988	
0.03262331	-0.1731841	0.0009406695	0.0004629076	-0.3080719	0.2991686	-0.001340945	-0.0001043573	
0.0007649784	0.0007265212	0.02274574	-0.1996988	-0.001340945	-0.0001043573	-0.2154396	0.3142885	

4.718e+10	-0.2624999	0.02416656	-0.0007052386	-0.0004006313	0.0356659	-0.1759006	0.001017812	0.0001400311	
-0.0007052386	-0.0004006313	-0.2777393	0.05278069	0.00098471	-0.0001717744	0.02097153	-0.1994304	
0.0356659	-0.1759006	0.00098471	-0.0001717744	-0.3090049	0.3163176	-0.001095898	0.0006665784	
0.001017812	0.0001400311	0.02097153	-0.1994304	-0.001095898	0.0006665784	-0.2149473	0.3139227	

4.72e+10	-0.2677458	0.02262443	-0.0007857609	8.411232e-05	0.03761856	-0.1794596	0.0008866382	-0.0004624204	
-0.0007857609	8.411232e-05	-0.2779812	0.05337981	0.0006664565	-0.0006783094	0.01920463	-0.1991562	
0.03761856	-0.1794596	0.0006664565	-0.0006783094	-0.3062405	0.3333842	-0.0004845601	0.001119752	
0.0008866382	-0.0004624204	0.01920463	-0.1991562	-0.0004845601	0.001119752	-0.2144436	0.3138916	

4.722e+10	-0.2731074	0.0219737	-0.0005773625	0.0005108072	0.03835227	-0.183454	0.0004484962	-0.000865126	
-0.0005773625	0.0005108072	-0.278124	0.05401146	0.0001479808	-0.0008921404	0.0174154	-0.198899	
0.03835227	-0.183454	0.0001479808	-0.0008921404	-0.3000712	0.3494814	0.0002285677	0.001137462	
0.0004484962	-0.000865126	0.0174154	-0.198899	0.0002285677	0.001137462	-0.2136831	0.3140713	

4.724e+10	-0.2784674	0.02206257	-0.0001742096	0.0007335267	0.03793879	-0.1874798	-0.0001221272	-0.0009444566	
-0.0001742096	0.0007335267	-0.2781278	0.0545665	-0.0003659499	-0.0007798017	0.01560792	-0.1986277	
0.03793879	-0.1874798	-0.0003659499	-0.0007798017	-0.2908436	0.3639425	0.0007896257	0.0007734206	
-0.0001221272	-0.0009444566	0.01560792	-0.1986277	0.0007896257	0.0007734206	-0.2125899	0.3141121	

4.726e+10	-0.283751	0.0229796	0.0002722508	0.0006878726	0.03654385	-0.1911888	-0.0006246027	-0.0006949101	
0.0002722508	0.0006878726	-0.2781006	0.05501496	-0.0007072627	-0.0004217805	0.01379351	-0.1983009	
0.03654385	-0.1911888	-0.0007072627	-0.0004217805	-0.2790151	0.3762426	0.00103885	0.0001955792	
-0.0006246027	-0.0006949101	0.01379351	-0.1983009	0.00103885	0.0001955792	-0.2114287	0.3138103	

4.728e+10	-0.2889075	0.02456495	0.0006068933	0.0004031426	0.03443247	-0.1943636	-0.0008948822	-0.0002161642	
0.0006068933	0.0004031426	-0.2781509	0.05537811	-0.0007906317	3.853002e-05	0.01200574	-0.1979362	
0.03443247	-0.1943636	-0.0007906317	3.853002e-05	-0.2652871	0.3858508	0.000938307	-0.0003920021	
-0.0008948822	-0.0002161642	0.01200574	-0.1979362	0.000938307	-0.0003920021	-0.2104986	0.3132549	

4.73e+10	-0.2939212	0.02690411	0.0007199461	-1.439687e-05	0.0319325	-0.1969177	-0.0008506048	0.0003241341	
0.0007199461	-1.439687e-05	-0.2783183	0.05576505	-0.0006200121	0.0004502999	0.01025466	-0.1975841	
0.0319325	-0.1969177	-0.0006200121	0.0004502999	-0.2502823	0.392562	0.0005555288	-0.0008129719	
-0.0008506048	0.0003241341	0.01025466	-0.1975841	0.0005555288	-0.0008129719	-0.2099277	0.312759	

4.732e+10	-0.2987246	0.03002732	0.0005786472	-0.0004184399	0.02933875	-0.1988978	-0.0005139342	0.0007422152	
0.0005786472	-0.0004184399	-0.2785146	0.05625958	-0.0002691527	0.0006982511	0.008511941	-0.1972464	
0.02933875	-0.1988978	-0.0002691527	0.0006982511	-0.2345723	0.3963243	2.730584e-05	-0.000960742	
-0.0005139342	0.0007422152	0.008511941	-0.1972464	2.730584e-05	-0.000960742	-0.209432	0.3126097	

4.734e+10	-0.3031707	0.03389889	0.0002358507	-0.0006698838	0.02688664	-0.200465	-4.1832e-06	0.0008976703	
0.0002358507	-0.0006698838	-0.2785823	0.05688079	0.0001494667	0.0007225731	0.006742214	-0.1969146	
0.02688664	-0.200465	0.0001494667	0.0007225731	-0.2190944	0.3970527	-0.0004862548	-0.0008121508	
-4.1832e-06	0.0008976703	0.006742214	-0.1969146	-0.0004862548	-0.0008121508	-0.2087853	0.3127055	

4.736e+10	-0.3070798	0.03862985	-0.0001878999	-0.0006826316	0.02470244	-0.2018843	0.0005030078	0.0007400702	
-0.0001878999	-0.0006826316	-0.2785412	0.05742966	0.0005146977	0.000524547	0.004951371	-0.1965576	
0.02470244	-0.2018843	0.0005146977	0.000524547	-0.2044349	0.3950697	-0.000841884	-0.0004214003	
0.0005030078	0.0007400702	0.004951371	-0.1965576	-0.000841884	-0.0004214003	-0.2078262	0.3128036	

4.738e+10	-0.3102239	0.0441514	-0.0005432422	-0.0004522911	0.02275866	-0.2034108	0.0008327544	0.000324376	
-0.0005432422	-0.0004522911	-0.2784112	0.0579096	0.0007205618	0.0001614608	0.00315678	-0.1961546	
0.02275866	-0.2034108	0.0007205618	0.0001614608	-0.1910545	0.3908538	-0.0009397316	9.926727e-05	
0.0008327544	0.000324376	0.00315678	-0.1961546	-0.0009397316	9.926727e-05	-0.2066692	0.3125986	

4.74e+10	-0.3123926	0.0502609	-0.0007037286	-6.033083e-05	0.02088521	-0.2052904	0.0008697177	-0.0002055605	
-0.0007037286	-6.033083e-05	-0.2783699	0.05820522	0.0006998526	-0.0002621515	0.001397115	-0.195715	
0.02088521	-0.2052904	0.0006998526	-0.0002621515	-0.1792046	0.3850069	-0.0007439106	0.0006000459	
0.0008697177	-0.0002055605	0.001397115	-0.195715	-0.0007439106	0.0006000459	-0.2055788	0.3121321	

4.742e+10	-0.3134563	0.05673863	-0.0006112734	0.0003532034	0.01883167	-0.2076077	0.0005988719	-0.0006638088	
-0.0006112734	0.0003532034	-0.2784463	0.05847484	0.0004467076	-0.0006151562	-0.0003271946	-0.1952797	
0.01883167	-0.2076077	0.0004467076	-0.0006151562	-0.1692461	0.3780003	-0.0002988629	0.0009247454	
0.0005988719	-0.0006638088	-0.0003271946	-0.1952797	-0.0002988629	0.0009247454	-0.2048394	0.3116011	

4.744e+10	-0.3133412	0.0632945	-0.0002995624	0.0006392069	0.01632337	-0.2103175	0.0001156205	-0.0008868348	
-0.0002995624	0.0006392069	-0.2785595	0.05895563	3.005342e-05	-0.0007752577	-0.002050945	-0.1948692	
0.01632337	-0.2103175	3.005342e-05	-0.0007752577	-0.1609095	0.3704201	0.0002661846	0.0009547169	
0.0001156205	-0.0008868348	-0.002050945	-0.1948692	0.0002661846	0.0009547169	-0.2043853	0.3112653	

4.746e+10	-0.3120494	0.0697513	0.0001193949	0.0006960746	0.01313976	-0.2133057	-0.000408451	-0.0007961262	
0.0001193949	0.0006960746	-0.2785827	0.05951957	-0.0004182166	-0.0006739889	-0.003798584	-0.1944729	
0.01313976	-0.2133057	-0.0004182166	-0.0006739889	-0.1538613	0.3626505	0.0007680142	0.0006597806	
-0.000408451	-0.0007961262	-0.003798584	-0.1944729	0.0007680142	0.0006597806	-0.2037752	0.3112826	

4.748e+10	-0.309693	0.07578139	0.0004959846	0.0005046471	0.009130681	-0.2163174	-0.0007888095	-0.0004256185	
0.0004959846	0.0005046471	-0.2784882	0.0600078	-0.0007422894	-0.0003290924	-0.005575936	-0.1940399	
0.009130681	-0.2163174	-0.0007422894	-0.0003290924	-0.1479862	0.3548157	0.001028408	0.0001209849	
-0.0007888095	-0.0004256185	-0.005575936	-0.1940399	0.001028408	0.0001209849	-0.2029099	0.311382	

4.75e+10	-0.3064457	0.08119537	0.0006977061	0.0001328422	0.004268112	-0.2190984	-0.0008947784	9.530833e-05	
0.0006977061	0.0001328422	-0.2783056	0.06042608	-0.000817788	0.0001523063	-0.007344127	-0.1935507	
0.004268112	-0.2190984	-0.000817788	0.0001523063	-0.1429399	0.3469701	0.0009413237	-0.0004884362	
-0.0008947784	9.530833e-05	-0.007344127	-0.1935507	0.0009413237	-0.0004884362	-0.2017732	0.3112978	

4.752e+10	-0.3024069	0.08597171	0.0006531117	-0.0002895284	-0.001422065	-0.2214054	-0.0006890949	0.0005877112	
0.0006531117	-0.0002895284	-0.2781738	0.06070256	-0.0006009823	0.0006047703	-0.009076369	-0.1930367	
-0.001422065	-0.2214054	-0.0006009823	0.0006047703	-0.1384509	0.3390945	0.0005151307	-0.0009573018	
-0.0006890949	0.0005877112	-0.009076369	-0.1930367	0.0005151307	-0.0009573018	-0.2006654	0.3108948	

4.754e+10	-0.2977585	0.08995531	0.0003756039	-0.0006147105	-0.007823204	-0.2230228	-0.0002389155	0.000882398	
0.0003756039	-0.0006147105	-0.2781501	0.06095171	-0.0001525806	0.0008609338	-0.01077134	-0.1925389	
-0.007823204	-0.2230228	-0.0001525806	0.0008609338	-0.1345945	0.330969	-0.0001200087	-0.001109026	
-0.0002389155	0.000882398	-0.01077134	-0.1925389	-0.0001200087	-0.001109026	-0.1998416	0.3103313	

4.756e+10	-0.2925989	0.09315518	-4.125582e-05	-0.0007272107	-0.01480857	-0.2237806	0.0003053334	0.0008733121	
-4.125582e-05	-0.0007272107	-0.2781926	0.06131732	0.0003769461	0.0008142182	-0.01246682	-0.1920558	
-0.01480857	-0.2237806	0.0003769461	0.0008142182	-0.1312303	0.322535	-0.0007482766	-0.0008671927	
0.0003053334	0.0008733121	-0.01246682	-0.1920558	-0.0007482766	-0.0008671927	-0.199268	0.3099156	

4.758e+10	-0.2870563	0.09554656	-0.0004541732	-0.0005825716	-0.02219805	-0.2235405	0.000756746	0.0005556413	
-0.0004541732	-0.0005825716	-0.278174	0.06177157	0.0007969026	0.0004628779	-0.01419351	-0.191585	
-0.02219805	-0.2235405	0.0007969026	0.0004628779	-0.1284411	0.3136394	-0.001139516	-0.0002942745	
0.000756746	0.0005556413	-0.01419351	-0.191585	-0.001139516	-0.0002942745	-0.1986679	0.3098137	

4.76e+10	-0.2812769	0.09696123	-0.0007176555	-0.0002235248	-0.02980824	-0.2221894	0.000955253	2.987484e-05	
-0.0007176555	-0.0002235248	-0.2780365	0.06225043	0.0009442584	-8.243588e-05	-0.01595768	-0.1910748	
-0.02980824	-0.2221894	0.0009442584	-8.243588e-05	-0.1264692	0.3041219	-0.001135062	0.0004212239	
0.000955253	2.987484e-05	-0.01595768	-0.1910748	-0.001135062	0.0004212239	-0.1979223	0.3098397	

4.762e+10	-0.2753173	0.09749497	-0.0007314737	0.0002317561	-0.03740527	-0.2196376	0.0008206872	-0.0005288968	
-0.0007314737	0.0002317561	-0.277803	0.0626056	0.0007445914	-0.0006313701	-0.01770891	-0.1904987	
-0.03740527	-0.2196376	0.0007445914	-0.0006313701	-0.1254145	0.2940301	-0.0007091586	0.00102645	
0.0008206872	-0.0005288968	-0.01770891	-0.1904987	-0.0007091586	0.00102645	-0.1968482	0.3098244	

4.764e+10	-0.2693403	0.09707469	-0.0004771241	0.0006240524	-0.04474619	-0.2158814	0.0003823117	-0.0009248991	
-0.0004771241	0.0006240524	-0.277591	0.06286335	0.0002472746	-0.0009758587	-0.01940766	-0.1899109	
-0.04474619	-0.2158814	0.0002472746	-0.0009758587	-0.1256644	0.2833109	1.2182e-05	0.001287742	
0.0003823117	-0.0009248991	-0.01940766	-0.1899109	1.2182e-05	0.001287742	-0.1957392	0.3095092	

4.766e+10	-0.2634794	0.09563835	-3.037979e-05	0.0008054673	-0.05156718	-0.2108971	-0.000223002	-0.001004238	
-3.037979e-05	0.0008054673	-0.2774885	0.06304384	-0.0003806848	-0.0009664247	-0.02106742	-0.1893416	
-0.05156718	-0.2108971	-0.0003806848	-0.0009664247	-0.1274329	0.2721638	0.0007817712	0.001076846	
-0.000223002	-0.001004238	-0.02106742	-0.1893416	0.0007817712	0.001076846	-0.1948055	0.308987	

4.768e+10	-0.2578878	0.09325227	0.0004545568	0.0006924178	-0.05755942	-0.2047742	-0.0007833701	-0.0007123122	
0.0004545568	0.0006924178	-0.2774613	0.06334329	-0.0009034441	-0.0005766663	-0.02273649	-0.1887959	
-0.05755942	-0.2047742	-0.0009034441	-0.0005766663	-0.1310107	0.2608259	0.001305256	0.0004323548	
-0.0007833701	-0.0007123122	-0.02273649	-0.1887959	0.001305256	0.0004323548	-0.1940666	0.3085306	

4.77e+10	-0.2527697	0.08980844	0.0007952598	0.0003059726	-0.06250279	-0.197632	-0.001082883	-0.0001295094	
0.0007952598	0.0003059726	-0.277413	0.06368894	-0.001103258	7.037772e-05	-0.02445056	-0.1882589	
-0.06250279	-0.197632	-0.001103258	7.037772e-05	-0.1367491	0.2495705	0.001353078	-0.0004301314	
-0.001082883	-0.0001295094	-0.02445056	-0.1882589	0.001353078	-0.0004301314	-0.1935101	0.3082425	

4.772e+10	-0.2483121	0.08550071	0.0008475319	-0.0002248457	-0.06606273	-0.1897063	-0.000983781	0.0005424044	
0.0008475319	-0.0002248457	-0.2772346	0.0641066	-0.0008715015	0.0007333526	-0.02619366	-0.1876608	
-0.06606273	-0.1897063	-0.0008715015	0.0007333526	-0.1447212	0.2389631	0.0008638246	-0.001181867	
-0.000983781	0.0005424044	-0.02619366	-0.1876608	0.0008638246	-0.001181867	-0.1928082	0.3081985	

4.774e+10	-0.2447124	0.08036269	0.0005674743	-0.0007010225	-0.06803921	-0.1813036	-0.000492779	0.001046261	
0.0005674743	-0.0007010225	-0.2769711	0.06440223	-0.0002681102	0.001140407	-0.02791991	-0.1870174	
-0.06803921	-0.1813036	-0.0002681102	0.001140407	-0.1550567	0.2295352	-7.073834e-06	-0.001506683	
-0.000492779	0.001046261	-0.02791991	-0.1870174	-7.073834e-06	-0.001506683	-0.1918822	0.3081517	

4.776e+10	-0.2422041	0.07455797	4.193189e-05	-0.0009255506	-0.0682806	-0.1728095	0.0002254794	0.001167934	
4.193189e-05	-0.0009255506	-0.2767005	0.06459389	0.0004832301	0.001100151	-0.02958279	-0.1863363	
-0.0682806	-0.1728095	0.0004832301	0.001100151	-0.1675378	0.2220076	-0.0009296534	-0.001236383	
0.0002254794	0.001167934	-0.02958279	-0.1863363	-0.0009296534	-0.001236383	-0.1907875	0.3079487	

4.778e+10	-0.2409206	0.06835535	-0.0005313962	-0.0007872344	-0.06673634	-0.1646815	0.0008974777	0.0008281686	
-0.0005313962	-0.0007872344	-0.2765498	0.06471142	0.001072788	0.0005977928	-0.03119839	-0.1856975	
-0.06673634	-0.1646815	0.001072788	0.0005977928	-0.1819675	0.2169372	-0.001520453	-0.0004405816	
0.0008974777	0.0008281686	-0.03119839	-0.1856975	-0.001520453	-0.0004405816	-0.1897719	0.3075069	

4.78e+10	-0.2409488	0.06208931	-0.0009168761	-0.00031929	-0.06350331	-0.1574135	0.001243138	0.0001336301	
-0.0009168761	-0.00031929	-0.2764656	0.06489533	0.001236833	-0.0001781665	-0.03283623	-0.1850899	
-0.06350331	-0.1574135	0.001236833	-0.0001781665	-0.1976884	0.2149845	-0.001506671	0.0005759444	
0.001243138	0.0001336301	-0.03283623	-0.1850899	-0.001506671	0.0005759444	-0.1889453	0.3070061	

4.782e+10	-0.2422771	0.05602315	-0.0009423199	0.0003012764	-0.05891536	-0.1514224	0.001098253	-0.0006490391	
-0.0009423199	0.0003012764	-0.2763488	0.06517333	0.0008844857	-0.0009049432	-0.03452583	-0.1844871	
-0.05891536	-0.1514224	0.0008844857	-0.0009049432	-0.2138418	0.2166217	-0.0008628906	0.001388992	
0.001098253	-0.0006490391	-0.03452583	-0.1844871	-0.0008628906	0.001388992	-0.1882731	0.3066328	

4.784e+10	-0.2448214	0.05052186	-0.0005799732	0.0008206431	-0.05325578	-0.1471175	0.0004986576	-0.001197418	
-0.0005799732	0.0008206431	-0.276162	0.06548553	0.0001513067	-0.00126589	-0.03623135	-0.1838234	
-0.05325578	-0.1471175	0.0001513067	-0.00126589	-0.2296609	0.2218584	0.0001563212	0.001641473	
0.0004986576	-0.001197418	-0.03623135	-0.1838234	0.0001563212	0.001641473	-0.187632	0.3064277	

4.786e+10	-0.2483513	0.04580505	3.245106e-05	0.001016782	-0.04719679	-0.1446552	-0.0003230746	-0.001273973	
3.245106e-05	0.001016782	-0.2758792	0.06572371	-0.0006530875	-0.001098178	-0.03794709	-0.1830787	
-0.04719679	-0.1446552	-0.0006530875	-0.001098178	-0.2439692	0.2307102	0.001122266	0.001214868	
-0.0003230746	-0.001273973	-0.03794709	-0.1830787	0.001122266	0.001214868	-0.1867831	0.3063604	

4.788e+10	-0.2525802	0.0421315	0.0006449178	0.0007987418	-0.04122333	-0.1440474	-0.00103307	-0.000834476	
0.0006449178	0.0007987418	-0.2756114	0.0658124	-0.001183303	-0.0004720902	-0.03958387	-0.1823122	
-0.04122333	-0.1440474	-0.001183303	-0.0004720902	-0.2561154	0.2425352	0.001625757	0.0002876012	
-0.00103307	-0.000834476	-0.03958387	-0.1823122	0.001625757	0.0002876012	-0.1858038	0.3061952	

4.79e+10	-0.2571588	0.03953458	0.001002395	0.0002499995	-0.03584904	-0.1450764	-0.001337692	-4.928474e-05	
0.001002395	0.0002499995	-0.2753921	0.06591248	-0.001216985	0.0003411624	-0.04115725	-0.1815944	
-0.03584904	-0.1450764	-0.001216985	0.0003411624	-0.2652092	0.2567365	0.001460431	-0.0007474689	
-0.001337692	-4.928474e-05	-0.04115725	-0.1815944	0.001460431	-0.0007474689	-0.1847279	0.3058647	

4.792e+10	-0.2618486	0.03791958	0.000954599	-0.0004058719	-0.03144145	-0.1474143	-0.001107315	0.0007664555	
0.000954599	-0.0004058719	-0.2752524	0.06598063	-0.0007524098	0.0009963091	-0.04277085	-0.1809334	
-0.03144145	-0.1474143	-0.0007524098	0.0009963091	-0.2710076	0.2724304	0.000708758	-0.001460732	
-0.001107315	0.0007664555	-0.04277085	-0.1809334	0.000708758	-0.001460732	-0.1837934	0.3054005	

4.794e+10	-0.266385	0.03720094	0.0005194442	-0.0009007562	-0.02824681	-0.1506447	-0.0004302419	0.001282138	
0.0005194442	-0.0009007562	-0.2750974	0.06619742	5.575664e-07	0.0012287	-0.04441198	-0.1802698	
-0.02824681	-0.1506447	5.575664e-07	0.0012287	-0.2732868	0.2887907	-0.000304388	-0.001571798	
-0.0004302419	0.001282138	-0.04441198	-0.1802698	-0.000304388	-0.001571798	-0.1830085	0.3049388	

4.796e+10	-0.2706594	0.03717197	-0.0001264935	-0.001033488	-0.0263356	-0.1543291	0.0004231113	0.001288719	
-0.0001264935	-0.001033488	-0.2748956	0.06635191	0.0007236911	0.0009643567	-0.04615982	-0.1795205	
-0.0263356	-0.1543291	0.0007236911	0.0009643567	-0.2722191	0.3049957	-0.001161884	-0.00106169	
0.0004231113	0.001288719	-0.04615982	-0.1795205	-0.001161884	-0.00106169	-0.1823654	0.3045898	

4.798e+10	-0.2746056	0.03761629	-0.0007227096	-0.0007502198	-0.02558842	-0.1580926	0.001111961	0.0007818181	
-0.0007227096	-0.0007502198	-0.2746354	0.06649204	0.001132487	0.0003346625	-0.04781397	-0.1786937	
-0.02558842	-0.1580926	0.001132487	0.0003346625	-0.2680261	0.3203283	-0.001535713	-0.0001616809	
0.001111961	0.0007818181	-0.04781397	-0.1786937	-0.001535713	-0.0001616809	-0.1816632	0.3043804	

4.8e+10	-0.2782377	0.03850968	-0.001028108	-0.0001652283	-0.02588009	-0.1616109	0.001360683	-3.75106e-05	
-0.001028108	-0.0001652283	-0.2743479	0.06657452	0.001085976	-0.0003935894	-0.04938894	-0.1778497	
-0.02588009	-0.1616109	0.001085976	-0.0003935894	-0.2610683	0.3342725	-0.001309188	0.0007592149	
0.001360683	-3.75106e-05	-0.04938894	-0.1778497	-0.001309188	0.0007592149	-0.1807291	0.3042616	

4.802e+10	-0.2816322	0.03958083	-0.0009192753	0.0004857046	-0.02689981	-0.164718	0.001069184	-0.0008440577	
-0.0009192753	0.0004857046	-0.2741011	0.06661596	0.0006304177	-0.0009369589	-0.05090706	-0.1770674	
-0.02689981	-0.164718	0.0006304177	-0.0009369589	-0.2518223	0.3463494	-0.0006031498	0.001354697	
0.001069184	-0.0008440577	-0.05090706	-0.1770674	-0.0006031498	0.001354697	-0.1797251	0.3040196	

4.804e+10	-0.2848989	0.04090229	-0.0004403015	0.0009386633	-0.02842996	-0.1672712	0.0003513863	-0.001315892	
-0.0004403015	0.0009386633	-0.2739262	0.06657345	-3.761609e-05	-0.001104259	-0.05246862	-0.1763397	
-0.02842996	-0.1672712	-3.761609e-05	-0.001104259	-0.2406514	0.3562436	0.0002932837	0.001424727	
0.0003513863	-0.001315892	-0.05246862	-0.1763397	0.0002932837	0.001424727	-0.1786468	0.3036455	

4.806e+10	-0.2880959	0.0425423	0.0002126647	0.001009953	-0.03022218	-0.169324	-0.0005058301	-0.001262109	
0.0002126647	0.001009953	-0.2737359	0.066679	-0.0006603988	-0.0008584748	-0.05412775	-0.1756178	
-0.03022218	-0.169324	-0.0006603988	-0.0008584748	-0.2282723	0.3636152	0.001045918	0.0009745833	
-0.0005058301	-0.001262109	-0.05412775	-0.1756178	0.001045918	0.0009745833	-0.1777674	0.3031183	

4.808e+10	-0.2912477	0.04451514	0.0007733673	0.0006734637	-0.03201713	-0.170917	-0.001157167	-0.0007043985	
0.0007733673	0.0006734637	-0.273528	0.06672952	-0.001018519	-0.0003111981	-0.05581449	-0.1747846	
-0.03201713	-0.170917	-0.001018519	-0.0003111981	-0.2152466	0.3683504	0.001396396	0.0001902769	
-0.001157167	-0.0007043985	-0.05581449	-0.1747846	0.001396396	0.0001902769	-0.1770509	0.3026225	

4.81e+10	-0.2943431	0.04698806	0.001013961	7.036958e-05	-0.03369551	-0.1722247	-0.001340378	0.0001292998	
0.001013961	7.036958e-05	-0.2732813	0.06677041	-0.0009979375	0.0003310027	-0.05746482	-0.1738593	
-0.03369551	-0.1722247	-0.0009979375	0.0003310027	-0.2021014	0.3705262	0.001238919	-0.000640522	
-0.001340378	0.0001292998	-0.05746482	-0.1738593	0.001238919	-0.000640522	-0.1763737	0.3023116	

4.812e+10	-0.2972723	0.05001304	0.0008416297	-0.0005485259	-0.03507223	-0.1734701	-0.00098678	0.0008991608	
0.0008416297	-0.0005485259	-0.2730365	0.0667611	-0.0006176103	0.0008392386	-0.05897495	-0.1729409	
-0.03507223	-0.1734701	-0.0006176103	0.0008392386	-0.1896542	0.370298	0.0006421283	-0.001228278	
-0.00098678	0.0008991608	-0.05897495	-0.1729409	0.0006421283	-0.001228278	-0.1756372	0.3021388	

4.814e+10	-0.2998817	0.05363309	0.0003369478	-0.0009307571	-0.03628089	-0.1748863	-0.0002493609	0.001296131	
0.0003369478	-0.0009307571	-0.272782	0.06674933	-1.799377e-05	0.001036044	-0.06043603	-0.1720966	
-0.03628089	-0.1748863	-1.799377e-05	0.001036044	-0.1783482	0.3681109	-0.0001807025	-0.001370539	
-0.0002493609	0.001296131	-0.06043603	-0.1720966	-0.0001807025	-0.001370539	-0.1746936	0.3019693	

4.816e+10	-0.3019437	0.05792661	-0.0002844733	-0.0009298898	-0.03742551	-0.1766796	0.0005663536	0.001171924	
-0.0002844733	-0.0009298898	-0.2725586	0.06669466	0.0005844494	0.0008515249	-0.06198045	-0.1713125	
-0.03742551	-0.1766796	0.0005844494	0.0008515249	-0.1683163	0.3646041	-0.0009384006	-0.001015512	
0.0005663536	0.001171924	-0.06198045	-0.1713125	-0.0009384006	-0.001015512	-0.1735463	0.3016845	

4.818e+10	-0.3032665	0.06274827	-0.0007685448	-0.0005631079	-0.03875392	-0.1789416	0.001134239	0.0005940755	
-0.0007685448	-0.0005631079	-0.2723565	0.06659484	0.0009687115	0.000351759	-0.06360823	-0.1704907	
-0.03875392	-0.1789416	0.0009687115	0.000351759	-0.1598549	0.3602238	-0.001355137	-0.0002855722	
0.001134239	0.0005940755	-0.06360823	-0.1704907	-0.001355137	-0.0002855722	-0.1725373	0.3011452	

4.82e+10	-0.3037053	0.06788618	-0.0009315916	5.85344e-06	-0.04045316	-0.1817218	0.00124233	-0.0001914793	
-0.0009315916	5.85344e-06	-0.2721525	0.06654496	0.0009903054	-0.0002787913	-0.06523746	-0.1695954	
-0.04045316	-0.1817218	0.0009903054	-0.0002787913	-0.1527422	0.3555171	-0.001271647	0.0005550404	
0.00124233	-0.0001914793	-0.06523746	-0.1695954	-0.001271647	0.0005550404	-0.1717178	0.3005657	

4.822e+10	-0.3031541	0.0731727	-0.0007290585	0.0005440175	-0.04287579	-0.1848322	0.0008718443	-0.0008707494	
-0.0007290585	0.0005440175	-0.2719388	0.0664927	0.0006393493	-0.0008028226	-0.06682193	-0.1686009	
-0.04287579	-0.1848322	0.0006393493	-0.0008028226	-0.1466106	0.3508279	-0.0007126304	0.001192607	
0.0008718443	-0.0008707494	-0.06682193	-0.1686009	-0.0007126304	0.001192607	-0.1710989	0.3000899	

4.824e+10	-0.3016123	0.07833931	-0.0002611853	0.0008484692	-0.04610305	-0.1881232	0.0001897268	-0.001192097	
-0.0002611853	0.0008484692	-0.2717154	0.06643808	4.915777e-05	-0.001021918	-0.06829765	-0.1676091	
-0.04610305	-0.1881232	4.915777e-05	-0.001021918	-0.1411349	0.3463588	0.0001147974	0.001385352	
0.0001897268	-0.001192097	-0.06829765	-0.1676091	0.0001147974	0.001385352	-0.1704228	0.2998765	

4.826e+10	-0.2991155	0.08323323	0.0002791981	0.0008205616	-0.05026264	-0.1913177	-0.0005314048	-0.00105704	
0.0002791981	0.0008205616	-0.2714726	0.0663787	-0.0005550014	-0.0008549538	-0.06975846	-0.1666812	
-0.05026264	-0.1913177	-0.0005550014	-0.0008549538	-0.1360927	0.3419858	0.0008990191	0.001060387	
-0.0005314048	-0.00105704	-0.06975846	-0.1666812	0.0008990191	0.001060387	-0.1695285	0.2997627	

4.828e+10	-0.2957767	0.08761305	0.0006898511	0.0004926294	-0.05538014	-0.1941563	-0.001027895	-0.0005414892	
0.0006898511	0.0004926294	-0.2712237	0.06621752	-0.0009461899	-0.0003692846	-0.07127231	-0.165811	
-0.05538014	-0.1941563	-0.0009461899	-0.0003692846	-0.1311789	0.337675	0.001348671	0.00034054	
-0.001027895	-0.0005414892	-0.07127231	-0.165811	0.001348671	0.00034054	-0.1684851	0.2995016	

4.83e+10	-0.2917177	0.09136287	0.0008312999	4.86194e-07	-0.06129369	-0.1964291	-0.00113403	0.0001507076	
0.0008312999	4.86194e-07	-0.2709924	0.06611093	-0.0009815787	0.0002507487	-0.07281276	-0.1649327	
-0.06129369	-0.1964291	-0.0009815787	0.0002507487	-0.1262374	0.333198	0.001297762	-0.0005064983	
-0.00113403	0.0001507076	-0.07281276	-0.1649327	0.001297762	-0.0005064983	-0.1673788	0.2989987	

4.832e+10	-0.2870626	0.09438137	0.0006674189	-0.0004729613	-0.0679557	-0.1979186	-0.0008293349	0.0007679725	
0.0006674189	-0.0004729613	-0.2708035	0.06591464	-0.0006511773	0.000774669	-0.07443255	-0.1639335	
-0.0679557	-0.1979186	-0.0006511773	0.000774669	-0.1213268	0.328341	0.000765022	-0.001169388	
-0.0008293349	0.0007679725	-0.07443255	-0.1639335	0.000765022	-0.001169388	-0.1664641	0.2983414	

4.834e+10	-0.2819544	0.09658956	0.0002683929	-0.0007619307	-0.07515655	-0.1984769	-0.0002339632	0.001096006	
0.0002683929	-0.0007619307	-0.2706436	0.06572564	-7.812621e-05	0.001009582	-0.07595718	-0.1628907	
-0.07515655	-0.1984769	-7.812621e-05	0.001009582	-0.1163981	0.3229543	-5.66063e-05	-0.001402658	
-0.0002339632	0.001096006	-0.07595718	-0.1628907	-5.66063e-05	-0.001402658	-0.165748	0.2977903	

4.836e+10	-0.2765162	0.09797384	-0.0002187089	-0.0007703344	-0.08273476	-0.1979779	0.0004370654	0.001025876	
-0.0002187089	-0.0007703344	-0.2704722	0.06558403	0.0005262432	0.0008680415	-0.07739459	-0.1618248	
-0.08273476	-0.1979779	0.0005262432	0.0008680415	-0.1117488	0.3167983	-0.0008664995	-0.001115877	
0.0004370654	0.001025876	-0.07739459	-0.1618248	-0.0008664995	-0.001115877	-0.1651545	0.2974566	

4.838e+10	-0.2708804	0.09843181	-0.0006202476	-0.0005001194	-0.09047997	-0.1963563	0.0009468419	0.0005869296	
-0.0006202476	-0.0005001194	-0.2702521	0.06543078	0.0009380301	0.0003993493	-0.07882118	-0.160823	
-0.09047997	-0.1963563	0.0009380301	0.0003993493	-0.1074127	0.3098396	-0.001365464	-0.0004065436	
0.0009468419	0.0005869296	-0.07882118	-0.160823	-0.001365464	-0.0004065436	-0.1643931	0.2973069	

4.84e+10	-0.2651583	0.09803243	-0.0007940947	-4.940365e-05	-0.09815812	-0.193564	0.001115129	-6.633873e-05	
-0.0007940947	-4.940365e-05	-0.2700027	0.06527065	0.00100078	-0.0002260862	-0.08023918	-0.1598853	
-0.09815812	-0.193564	0.00100078	-0.0002260862	-0.1037464	0.301986	-0.001360632	0.0004711611	
0.001115129	-6.633873e-05	-0.08023918	-0.1598853	-0.001360632	0.0004711611	-0.1633434	0.2971205	

4.842e+10	-0.2595109	0.09666595	-0.0006769417	0.0004211952	-0.1055912	-0.1895543	0.0008773073	-0.0007032832	
-0.0006769417	0.0004211952	-0.2697874	0.06496945	0.0006834632	-0.0007765747	-0.08174345	-0.1589191	
-0.1055912	-0.1895543	0.0006834632	-0.0007765747	-0.1009685	0.2932337	-0.0008383219	0.001193254	
0.0008773073	-0.0007032832	-0.08174345	-0.1589191	-0.0008383219	0.001193254	-0.1622131	0.2966569	

4.844e+10	-0.2540832	0.09439177	-0.0003067237	0.000740131	-0.1125111	-0.1843951	0.0003087222	-0.001092311	
-0.0003067237	0.000740131	-0.2696187	0.06472973	9.579147e-05	-0.001040299	-0.08327291	-0.1578743	
-0.1125111	-0.1843951	9.579147e-05	-0.001040299	-0.09936254	0.2837349	2.364568e-05	0.001478911	
0.0003087222	-0.001092311	-0.08327291	-0.1578743	2.364568e-05	0.001478911	-0.1611881	0.2960086	

4.846e+10	-0.2490572	0.09114199	0.0001856086	0.0007851185	-0.1186823	-0.1781586	-0.0003914231	-0.001079528	
0.0001856086	0.0007851185	-0.2694806	0.0644479	-0.0005441994	-0.0009046267	-0.08476575	-0.156771	
-0.1186823	-0.1781586	-0.0005441994	-0.0009046267	-0.09921075	0.273619	0.0009063274	0.001196859	
-0.0003914231	-0.001079528	-0.08476575	-0.156771	0.0009063274	0.001196859	-0.1604857	0.295332	

4.848e+10	-0.2445675	0.08708658	0.0006167252	0.0005301491	-0.1238306	-0.1710025	-0.0009626926	-0.0006525273	
0.0006167252	0.0005301491	-0.2693504	0.06421801	-0.0009859007	-0.0004077688	-0.08619331	-0.1556249	
-0.1238306	-0.1710025	-0.0009859007	-0.0004077688	-0.100709	0.2631792	0.001461549	0.0004307394	
-0.0009626926	-0.0006525273	-0.08619331	-0.1556249	0.001461549	0.0004307394	-0.1598571	0.2949109	

4.85e+10	-0.2408078	0.08225917	0.0008176442	6.354882e-05	-0.1278052	-0.1631133	-0.001177353	4.193705e-05	
0.0008176442	6.354882e-05	-0.26917	0.06402606	-0.001044199	0.0002649987	-0.08754521	-0.1545468	
-0.1278052	-0.1631133	-0.001044199	0.0002649987	-0.1040774	0.252761	0.001449562	-0.0005348867	
-0.001177353	4.193705e-05	-0.08754521	-0.1545468	0.001449562	-0.0005348867	-0.1591932	0.2946675	

4.852e+10	-0.2379215	0.0768007	0.0007009183	-0.0004382886	-0.1304323	-0.1547289	-0.0009344287	0.0007416818	
0.0007009183	-0.0004382886	-0.2689728	0.06373119	-0.0006811856	0.0008463162	-0.08894623	-0.153502	
-0.1304323	-0.1547289	-0.0006811856	0.0008463162	-0.1094551	0.2427549	0.0008485038	-0.001314302	
-0.0009344287	0.0007416818	-0.08894623	-0.153502	0.0008485038	-0.001314302	-0.1582822	0.2944542	

4.854e+10	-0.2360498	0.07090815	0.0003023079	-0.0007754997	-0.1315536	-0.1462077	-0.0003108669	0.001165867	
0.0003023079	-0.0007754997	-0.2687668	0.06338522	-3.208491e-05	0.001092629	-0.0903454	-0.1524619	
-0.1315536	-0.1462077	-3.208491e-05	0.001092629	-0.1167508	0.2336551	-0.0001176838	-0.001575812	
-0.0003108669	0.001165867	-0.0903454	-0.1524619	-0.0001176838	-0.001575812	-0.1571008	0.2941001	

4.856e+10	-0.2352699	0.06475994	-0.0002248001	-0.0008056862	-0.1312484	-0.1378244	0.0004547175	0.001129721	
-0.0002248001	-0.0008056862	-0.2686299	0.06300657	0.0006394177	0.0008912545	-0.0918172	-0.1513696	
-0.1312484	-0.1378244	0.0006394177	0.0008912545	-0.1258155	0.225953	-0.001056639	-0.001190121	
0.0004547175	0.001129721	-0.0918172	-0.1513696	-0.001056639	-0.001190121	-0.156043	0.2934741	

4.858e+10	-0.2355695	0.05864673	-0.0006666191	-0.0005083795	-0.1295063	-0.1299591	0.001050244	0.0006319238	
-0.0006666191	-0.0005083795	-0.2685314	0.06263744	0.001049669	0.0003173737	-0.09324972	-0.1502207	
-0.1295063	-0.1299591	0.001049669	0.0003173737	-0.1364289	0.2200372	-0.001567697	-0.0003018909	
0.001050244	0.0006319238	-0.09324972	-0.1502207	-0.001567697	-0.0003018909	-0.1552065	0.2927634	

4.86e+10	-0.2369309	0.05278669	-0.0008373082	-1.753657e-06	-0.1265631	-0.1228626	0.001222143	-0.0001315264	
-0.0008373082	-1.753657e-06	-0.2684507	0.06232228	0.001019999	-0.0003879911	-0.09464153	-0.1490162	
-0.1265631	-0.1228626	0.001019999	-0.0003879911	-0.1481872	0.21626	-0.001423319	0.0007174119	
0.001222143	-0.0001315264	-0.09464153	-0.1490162	-0.001423319	0.0007174119	-0.1546279	0.2921646	

4.862e+10	-0.2392452	0.04737182	-0.0006636451	0.0005035515	-0.1226313	-0.1167802	0.0008919264	-0.0008437773	
-0.0006636451	0.0005035515	-0.2683502	0.06200286	0.0005635541	-0.0009221276	-0.09596683	-0.1478324	
-0.1226313	-0.1167802	0.0005635541	-0.0009221276	-0.1605756	0.2148803	-0.0006822902	0.001428526	
0.0008919264	-0.0008437773	-0.09596683	-0.1478324	-0.0006822902	0.001428526	-0.1539908	0.2918226	

4.864e+10	-0.242354	0.04260272	-0.0002201458	0.0007959777	-0.1179559	-0.1118578	0.000197127	-0.001205894	
-0.0002201458	0.0007959777	-0.2681908	0.06167026	-0.0001175211	-0.001058395	-0.09728	-0.1466957	
-0.1179559	-0.1118578	-0.0001175211	-0.001058395	-0.1731299	0.2160241	0.0003306499	0.001529058	
0.000197127	-0.001205894	-0.09728	-0.1466957	0.0003306499	0.001529058	-0.1531097	0.291631	

4.866e+10	-0.2461075	0.0384954	0.0003040761	0.0007569475	-0.1128328	-0.1082027	-0.0005692321	-0.001069669	
0.0003040761	0.0007569475	-0.2680427	0.06124228	-0.0007264021	-0.0007498506	-0.09861378	-0.1455972	
-0.1128328	-0.1082027	-0.0007264021	-0.0007498506	-0.1853964	0.2196979	0.001176812	0.0009902309	
-0.0005692321	-0.001069669	-0.09861378	-0.1455972	0.001176812	0.0009902309	-0.1520912	0.291295	

4.868e+10	-0.250294	0.03522108	0.0006899341	0.0004109895	-0.107564	-0.1057767	-0.001088033	-0.0005006693	
0.0006899341	0.0004109895	-0.2679134	0.06081926	-0.001007889	-0.000145239	-0.1000167	-0.1444425	
-0.107564	-0.1057767	-0.001007889	-0.000145239	-0.1967328	0.2258372	0.001503156	6.357123e-05	
-0.001088033	-0.0005006693	-0.1000167	-0.1444425	0.001503156	6.357123e-05	-0.1509645	0.290743	

4.87e+10	-0.2547765	0.03272802	0.0007830928	-8.949353e-05	-0.1023382	-0.1045774	-0.001152428	0.0002559093	
0.0007830928	-8.949353e-05	-0.2678623	0.06036537	-0.000860886	0.0004854804	-0.101389	-0.1432498	
-0.1023382	-0.1045774	-0.000860886	0.0004854804	-0.2066955	0.2342851	0.001197702	-0.0008426022	
-0.001152428	0.0002559093	-0.101389	-0.1432498	0.001197702	-0.0008426022	-0.1500114	0.2900205	

4.872e+10	-0.2593716	0.03102002	0.0005570747	-0.0005332644	-0.09745534	-0.1044715	-0.0007506246	0.0008847931	
0.0005570747	-0.0005332644	-0.2678397	0.05991834	-0.0003742423	0.0008778234	-0.1027428	-0.1419858	
-0.09745534	-0.1044715	-0.0003742423	0.0008778234	-0.2148243	0.2447016	0.0004253877	-0.001353109	
-0.0007506246	0.0008847931	-0.1027428	-0.1419858	0.0004253877	-0.001353109	-0.1493776	0.2892899	

4.874e+10	-0.2639622	0.0300747	0.0001190238	-0.0007430071	-0.09305111	-0.1053232	-6.392446e-05	0.001135903	
0.0001190238	-0.0007430071	-0.2678059	0.05951827	0.0002247762	0.0008888286	-0.1039898	-0.1407395	
-0.09305111	-0.1053232	0.0002247762	0.0008888286	-0.2206522	0.2567131	-0.0004619997	-0.001286776	
-6.392446e-05	0.001135903	-0.1039898	-0.1407395	-0.0004619997	-0.001286776	-0.1487541	0.2888239	

4.876e+10	-0.2684533	0.0297798	-0.000343187	-0.0006470747	-0.08927986	-0.1069671	0.0006187373	0.0009251666	
-0.000343187	-0.0006470747	-0.2677228	0.05910764	0.0006835333	0.000549241	-0.1052402	-0.1395065	
-0.08927986	-0.1069671	0.0006835333	0.000549241	-0.2238451	0.2698142	-0.001096746	-0.0007204277	
0.0006187373	0.0009251666	-0.1052402	-0.1395065	-0.001096746	-0.0007204277	-0.1480355	0.2885411	

4.878e+10	-0.2727329	0.03011	-0.0006442206	-0.0003024608	-0.08625465	-0.1092173	0.001025698	0.0003601795	
-0.0006442206	-0.0003024608	-0.2676199	0.05864422	0.0008352058	3.070443e-05	-0.106495	-0.1383365	
-0.08625465	-0.1092173	0.0008352058	3.070443e-05	-0.2241365	0.283399	-0.001253331	7.204713e-05	
0.001025698	0.0003601795	-0.106495	-0.1383365	-0.001253331	7.204713e-05	-0.1470759	0.2882795	

4.88e+10	-0.2767797	0.03099691	-0.0006765249	0.0001393629	-0.08401231	-0.1118532	0.001012074	-0.0003174752	
-0.0006765249	0.0001393629	-0.267546	0.05813882	0.0006574615	-0.00044676	-0.1078034	-0.1371413	
-0.08401231	-0.1118532	0.0006574615	-0.00044676	-0.2215357	0.2966722	-0.0009250236	0.0007625306	
0.001012074	-0.0003174752	-0.1078034	-0.1371413	-0.0009250236	0.0007625306	-0.1460007	0.2877831	

4.882e+10	-0.2805597	0.03236262	-0.0004452562	0.0005002717	-0.0824744	-0.114733	0.000606514	-0.0008376816	
-0.0004452562	0.0005002717	-0.26754	0.05755101	0.0002572834	-0.0007105439	-0.1091159	-0.135907	
-0.0824744	-0.114733	0.0002572834	-0.0007105439	-0.2161052	0.3089745	-0.0002905021	0.001107328	
0.000606514	-0.0008376816	-0.1091159	-0.135907	-0.0002905021	0.001107328	-0.144902	0.2871062	

4.884e+10	-0.284022	0.03416927	-5.755435e-05	0.0006464128	-0.08163494	-0.1176763	-1.210364e-05	-0.001007927	
-5.755435e-05	0.0006464128	-0.2675914	0.05702476	-0.0001931303	-0.0006931159	-0.1103999	-0.1345946	
-0.08163494	-0.1176763	-0.0001931303	-0.0006931159	-0.208327	0.3195729	0.0003872134	0.001024893	
-1.210364e-05	-0.001007927	-0.1103999	-0.1345946	0.0003872134	0.001024893	-0.1441247	0.286311	

4.886e+10	-0.2871414	0.03632531	0.000327649	0.0005362911	-0.08139348	-0.12058	-0.0005942623	-0.0007817777	
0.000327649	0.0005362911	-0.2676319	0.05649646	-0.0005318759	-0.0004353353	-0.1116428	-0.1332395	
-0.08139348	-0.12058	-0.0005318759	-0.0004353353	-0.1987882	0.3279799	0.0008701407	0.0005923022	
-0.0005942623	-0.0007817777	-0.1116428	-0.1332395	0.0008701407	0.0005923022	-0.1435022	0.2856949	

4.888e+10	-0.2898936	0.03888606	0.000563555	0.0002291454	-0.08156741	-0.123422	-0.0009179805	-0.0002675669	
0.000563555	0.0002291454	-0.2676518	0.05601288	-0.0006579904	-5.120725e-05	-0.1127838	-0.1319595	
-0.08156741	-0.123422	-0.0006579904	-5.120725e-05	-0.1882364	0.3339295	0.001017047	-1.041885e-05	
-0.0009179805	-0.0002675669	-0.1127838	-0.1319595	0.001017047	-1.041885e-05	-0.1428754	0.2853157	

4.89e+10	-0.2922259	0.04179807	0.0005704834	-0.0001449903	-0.08214415	-0.1261532	-0.0008728462	0.0003218369	
0.0005704834	-0.0001449903	-0.2676218	0.05551924	-0.0005509022	0.000321019	-0.1139726	-0.1306953	
-0.08214415	-0.1261532	-0.0005509022	0.000321019	-0.1775202	0.3374104	0.0008069706	-0.0005713881	
-0.0008728462	0.0003218369	-0.1139726	-0.1306953	0.0008069706	-0.0005713881	-0.1421006	0.2850097	

4.892e+10	-0.2940967	0.04500312	0.0003610412	-0.0004398361	-0.08297097	-0.1288939	-0.0004963496	0.00075562	
0.0003610412	-0.0004398361	-0.2676102	0.05493248	-0.0002627742	0.0005612178	-0.1151582	-0.129478	
-0.08297097	-0.1288939	-0.0002627742	0.0005612178	-0.1671514	0.3388004	0.0003297386	-0.0009089592	
-0.0004963496	0.00075562	-0.1151582	-0.129478	0.0003297386	-0.0009089592	-0.1410353	0.2846124	

4.894e+10	-0.295466	0.04843737	2.912947e-05	-0.0005486773	-0.08414237	-0.131671	4.818811e-05	0.0008758954	
2.912947e-05	-0.0005486773	-0.2676557	0.05430924	0.0001022337	0.000596462	-0.116427	-0.1281762	
-0.08414237	-0.131671	0.0001022337	0.000596462	-0.1577086	0.3385157	-0.0002454673	-0.0009173772	
4.818811e-05	0.0008758954	-0.116427	-0.1281762	-0.0002454673	-0.0009173772	-0.1399162	0.2839719	

4.896e+10	-0.2962772	0.05208172	-0.0002902939	-0.0004427717	-0.08561609	-0.1345976	0.0005409201	0.0006549067	
-0.0002902939	-0.0004427717	-0.2677778	0.05365311	0.0004168492	0.0004210758	-0.1176473	-0.1268253	
-0.08561609	-0.1345976	0.0004168492	0.0004210758	-0.1493331	0.3371481	-0.0007171306	-0.0005996143	
0.0005409201	0.0006549067	-0.1176473	-0.1268253	-0.0007171306	-0.0005996143	-0.1390216	0.2831526	

4.898e+10	-0.2964541	0.05585483	-0.0004766229	-0.0001785813	-0.08757764	-0.1376283	0.0007957416	0.0002000389	
-0.0004766229	-0.0001785813	-0.2679185	0.05304929	0.0005714382	0.0001020562	-0.1188176	-0.1254267	
-0.08757764	-0.1376283	0.0005714382	0.0001020562	-0.1420585	0.3351566	-0.0009174012	-7.349005e-05	
0.0007957416	0.0002000389	-0.1188176	-0.1254267	-0.0009174012	-7.349005e-05	-0.138397	0.2823786	

4.9e+10	-0.2960039	0.05957734	-0.0004702568	0.0001307674	-0.09008312	-0.1407508	0.0007324539	-0.0002974038	
-0.0004702568	0.0001307674	-0.268048	0.05244318	0.0005142064	-0.0002415617	-0.1198927	-0.1240659	
-0.09008312	-0.1407508	0.0005142064	-0.0002415617	-0.1356127	0.332973	-0.000776586	0.000464225	
0.0007324539	-0.0002974038	-0.1198927	-0.1240659	-0.000776586	0.000464225	-0.1378342	0.2818524	

4.902e+10	-0.2948688	0.06326823	-0.0002912916	0.0003652867	-0.09327251	-0.1438468	0.0004012136	-0.0006454552	
-0.0002912916	0.0003652867	-0.2681285	0.05192467	0.0002733001	-0.000483194	-0.1209806	-0.1227246	
-0.09327251	-0.1438468	0.0002733001	-0.000483194	-0.1297671	0.3307868	-0.0003553058	0.0008132628	
0.0004012136	-0.0006454552	-0.1209806	-0.1227246	-0.0003553058	0.0008132628	-0.1371285	0.2815292	

4.904e+10	-0.2930774	0.06669314	-2.238763e-05	0.0004460986	-0.0971484	-0.1468309	-5.051485e-05	-0.0007276888	
-2.238763e-05	0.0004460986	-0.2682046	0.05121128	-5.524318e-05	-0.0005387149	-0.1220963	-0.1214587	
-0.0971484	-0.1468309	-5.524318e-05	-0.0005387149	-0.1241466	0.328718	0.0001792997	0.0008498825	
-5.051485e-05	-0.0007276888	-0.1220963	-0.1214587	0.0001792997	0.0008498825	-0.1361222	0.2812064	

4.906e+10	-0.2906778	0.06983923	0.0002298999	0.0003596365	-0.1017833	-0.1494888	-0.0004457168	-0.0005393539	
0.0002298999	0.0003596365	-0.2683191	0.05055393	-0.000347056	-0.0003972776	-0.1232761	-0.1201322	
-0.1017833	-0.1494888	-0.000347056	-0.0003972776	-0.1186947	0.326643	0.0006241639	0.0005748535	
-0.0004457168	-0.0005393539	-0.1232761	-0.1201322	0.0006241639	0.0005748535	-0.1350501	0.2806134	

4.908e+10	-0.2877269	0.072539	0.0003777191	0.0001539828	-0.1070964	-0.1517064	-0.0006481055	-0.0001746296	
0.0003777191	0.0001539828	-0.2685182	0.04981539	-0.0004986237	-0.0001212748	-0.124426	-0.118738	
-0.1070964	-0.1517064	-0.0004986237	-0.0001212748	-0.1130519	0.3244586	0.0008210347	0.0001055382	
-0.0006481055	-0.0001746296	-0.124426	-0.118738	0.0008210347	0.0001055382	-0.1340546	0.2797935	

4.91e+10	-0.2843023	0.07469139	0.0003803267	-8.663849e-05	-0.1130671	-0.1533045	-0.0006054769	0.0002209741	
0.0003803267	-8.663849e-05	-0.2687743	0.04908691	-0.0004645131	0.0001820407	-0.125537	-0.1172701	
-0.1130671	-0.1533045	-0.0004645131	0.0001820407	-0.1072374	0.3219921	0.0007136021	-0.0003773705	
-0.0006054769	0.0002209741	-0.125537	-0.1172701	0.0007136021	-0.0003773705	-0.1333403	0.278927	

4.912e+10	-0.2804651	0.07630581	0.0002517451	-0.0002759377	-0.1195966	-0.1541829	-0.0003557799	0.0005075406	
0.0002517451	-0.0002759377	-0.2690299	0.04840611	-0.0002688178	0.0004036855	-0.1265278	-0.1158601	
-0.1195966	-0.1541829	-0.0002688178	0.0004036855	-0.1011596	0.3190887	0.000358203	-0.0007009249	
-0.0003557799	0.0005075406	-0.1265278	-0.1158601	0.000358203	-0.0007009249	-0.1328409	0.2782568	

4.914e+10	-0.2763294	0.07730855	4.867145e-05	-0.0003550798	-0.1265417	-0.1542189	-3.168716e-06	0.0005972116	
4.867145e-05	-0.0003550798	-0.269236	0.04776433	9.180458e-06	0.0004716907	-0.1275327	-0.1144687	
-0.1265417	-0.1542189	9.180458e-06	0.0004716907	-0.09496355	0.3155293	-0.0001049201	-0.0007607994	
-3.168716e-06	0.0005972116	-0.1275327	-0.1144687	-0.0001049201	-0.0007607994	-0.1322344	0.277859	

4.916e+10	-0.2719783	0.07762904	-0.0001542976	-0.000308394	-0.1337754	-0.1534036	0.0003245407	0.0004769559	
-0.0001542976	-0.000308394	-0.2694208	0.04711838	0.0002685088	0.000372996	-0.1285553	-0.1131375	
-0.1337754	-0.1534036	0.0002685088	0.000372996	-0.08865046	0.3112099	-0.0005080257	-0.0005520869	
0.0003245407	0.0004769559	-0.1285553	-0.1131375	-0.0005080257	-0.0005520869	-0.1313698	0.2775388	

4.918e+10	-0.2674732	0.07730332	-0.0002906633	-0.0001622466	-0.1412034	-0.1515812	0.0005205784	0.000203719	
-0.0002906633	-0.0001622466	-0.2696383	0.04633233	0.000422353	0.0001514322	-0.1296334	-0.1117781	
-0.1412034	-0.1515812	0.000422353	0.0001514322	-0.08239107	0.3059918	-0.0007163684	-0.0001619662	
0.0005205784	0.000203719	-0.1296334	-0.1117781	-0.0007163684	-0.0001619662	-0.1302471	0.2770402	

4.92e+10	-0.2629203	0.07623616	-0.0003211976	2.781872e-05	-0.1486809	-0.1487847	0.0005298459	-0.000121419	
-0.0003211976	2.781872e-05	-0.2699304	0.04550995	0.0004245878	-0.0001115232	-0.1307204	-0.11035	
-0.1486809	-0.1487847	0.0004245878	-0.0001115232	-0.07635682	0.2997783	-0.0006690288	0.0002679989	
0.0005298459	-0.000121419	-0.1307204	-0.11035	-0.0006690288	0.0002679989	-0.1291753	0.2762616	

4.922e+10	-0.2583733	0.07442909	-0.0002433799	0.0001972259	-0.1560676	-0.1449255	0.0003610274	-0.0003886886	
-0.0002433799	0.0001972259	-0.270299	0.04469924	0.0002818253	-0.0003254169	-0.1317567	-0.1088438	
-0.1560676	-0.1449255	0.0002818253	-0.0003254169	-0.07081001	0.2924702	-0.0003932564	0.0005901093	
0.0003610274	-0.0003886886	-0.1317567	-0.1088438	-0.0003932564	0.0005901093	-0.1284437	0.275323	

4.924e+10	-0.2539331	0.07195157	-8.933837e-05	0.0002920303	-0.1632173	-0.139993	7.876089e-05	-0.0005135657	
-8.933837e-05	0.0002920303	-0.2706991	0.04398916	4.83642e-05	-0.000420377	-0.1326885	-0.1073724	
-0.1632173	-0.139993	4.83642e-05	-0.000420377	-0.06579407	0.2840804	9.841477e-06	0.0006995508	
7.876089e-05	-0.0005135657	-0.1326885	-0.1073724	9.841477e-06	0.0006995508	-0.1278504	0.2745514	

4.926e+10	-0.2496981	0.06863768	8.700983e-05	0.0002858091	-0.1699504	-0.1339781	-0.0002194167	-0.0004610517	
8.700983e-05	0.0002858091	-0.2710678	0.04327246	-0.0001941201	-0.000369118	-0.1335828	-0.1059523	
-0.1699504	-0.1339781	-0.0001941201	-0.000369118	-0.06177109	0.2745468	0.0003997921	0.0005648766	
-0.0002194167	-0.0004610517	-0.1335828	-0.1059523	0.0003997921	0.0005648766	-0.1273679	0.2740148	

4.928e+10	-0.2457602	0.06456568	0.0002275557	0.0001852396	-0.1760695	-0.1268919	-0.0004343732	-0.0002546415	
0.0002275557	0.0001852396	-0.2713852	0.04254631	-0.0003640876	-0.0001933443	-0.1345093	-0.1045619	
-0.1760695	-0.1268919	-0.0003640876	-0.0001933443	-0.05885211	0.2639383	0.0006440486	0.0002371424	
-0.0004343732	-0.0002546415	-0.1345093	-0.1045619	0.0006440486	0.0002371424	-0.1265729	0.273678	

4.93e+10	-0.2422758	0.05968802	0.0002880885	2.622825e-05	-0.1814312	-0.11868	-0.0004970217	3.336068e-05	
0.0002880885	2.622825e-05	-0.2717422	0.04167948	-0.0004062244	4.527822e-05	-0.1355051	-0.1031525	
-0.1814312	-0.11868	-0.0004062244	4.527822e-05	-0.05742928	0.2523681	0.0006611558	-0.0001690673	
-0.0004970217	3.336068e-05	-0.1355051	-0.1031525	0.0006611558	-0.0001690673	-0.1256091	0.2732194	

4.932e+10	-0.2393773	0.05403382	0.0002508115	-0.0001379589	-0.1857013	-0.1095174	-0.0003890014	0.0003052354	
0.0002508115	-0.0001379589	-0.2721558	0.04081966	-0.0003079047	0.0002653077	-0.136504	-0.1017099	
-0.1857013	-0.1095174	-0.0003079047	0.0002653077	-0.05787966	0.2399788	0.0004466126	-0.0005131718	
-0.0003890014	0.0003052354	-0.136504	-0.1017099	0.0004466126	-0.0005131718	-0.1245275	0.2724941	

4.934e+10	-0.2372212	0.04770294	0.0001293504	-0.0002530014	-0.1886811	-0.09948027	-0.0001478706	0.000469557	
0.0001293504	-0.0002530014	-0.2726558	0.0399706	-0.000103152	0.0003917987	-0.1374566	-0.1001983	
-0.1886811	-0.09948027	-0.000103152	0.0003917987	-0.06050547	0.2270773	7.44065e-05	-0.0006756956	
-0.0001478706	0.000469557	-0.1374566	-0.1001983	7.44065e-05	-0.0006756956	-0.1236455	0.2715665	

4.936e+10	-0.2360194	0.04068279	-3.525575e-05	-0.0002806139	-0.1900943	-0.08872322	0.0001440944	0.0004697568	
-3.525575e-05	-0.0002806139	-0.2732057	0.03917486	0.0001375652	0.0003805382	-0.1383264	-0.09866724	
-0.1900943	-0.08872322	0.0001375652	0.0003805382	-0.06561735	0.21409	-0.0003258062	-0.0005973228	
0.0001440944	0.0004697568	-0.1383264	-0.09866724	-0.0003258062	-0.0005973228	-0.1230604	0.2706572	

4.938e+10	-0.235957	0.03311959	-0.0001871256	-0.0002112097	-0.1896846	-0.07756336	0.000385958	0.0003041228	
-0.0001871256	-0.0002112097	-0.2737433	0.03837468	0.0003301478	0.0002342338	-0.1391453	-0.09717747	
-0.1896846	-0.07756336	0.0003301478	0.0002342338	-0.07348597	0.2015726	-0.0006110831	-0.0003022815	
0.000385958	0.0003041228	-0.1391453	-0.09717747	-0.0006110831	-0.0003022815	-0.122545	0.2700236	

4.94e+10	-0.2372236	0.02531002	-0.0002738154	-6.786391e-05	-0.1872398	-0.06641546	0.0004910706	2.872516e-05	
-0.0002738154	-6.786391e-05	-0.2742457	0.03766452	0.0004053985	3.050322e-06	-0.1399644	-0.0957639	
-0.1872398	-0.06641546	0.0004053985	3.050322e-06	-0.0843229	0.1901958	-0.0006749187	0.0001060515	
0.0004910706	2.872516e-05	-0.1399644	-0.0957639	-0.0006749187	0.0001060515	-0.1219512	0.26959	

4.942e+10	-0.2399661	0.01745359	-0.0002639586	0.0001003212	-0.1826356	-0.05573276	0.0004190197	-0.0002589737	
-0.0002639586	0.0001003212	-0.2747457	0.03680533	0.0003340885	-0.000231101	-0.140852	-0.09432782	
-0.1826356	-0.05573276	0.0003340885	-0.000231101	-0.09792111	0.1808749	-0.0004893027	0.0004783248	
0.0004190197	-0.0002589737	-0.140852	-0.09432782	-0.0004893027	0.0004783248	-0.1210317	0.269182	

4.944e+10	-0.2442679	0.009938919	-0.0001592667	0.0002336514	-0.1759331	-0.04608955	0.0001931249	-0.0004537182	
-0.0001592667	0.0002336514	-0.2753088	0.03590297	0.000139478	-0.000382216	-0.1417495	-0.0928643	
-0.1759331	-0.04608955	0.000139478	-0.000382216	-0.1140677	0.1744466	-0.0001196682	0.0006738567	
0.0001931249	-0.0004537182	-0.1417495	-0.0928643	-0.0001196682	0.0006738567	-0.1200044	0.2685247	

4.946e+10	-0.2500908	0.003099243	4.090161e-06	0.0002830104	-0.1672926	-0.03816151	-0.0001053987	-0.0004817859	
4.090161e-06	0.0002830104	-0.2759544	0.03495902	-0.0001082156	-0.0003923394	-0.1426224	-0.0913512	
-0.1672926	-0.03816151	-0.0001082156	-0.0003923394	-0.1319421	0.171826	0.000295833	0.0006157955	
-0.0001053987	-0.0004817859	-0.1426224	-0.0913512	0.000295833	0.0006157955	-0.1190398	0.267619	

4.948e+10	-0.2572677	-0.002514574	0.0001666835	0.0002286052	-0.1572286	-0.03238881	-0.0003651777	-0.0003304267	
0.0001666835	0.0002286052	-0.2766901	0.03407132	-0.0003157659	-0.0002555197	-0.1434441	-0.0897731	
-0.1572286	-0.03238881	-0.0003157659	-0.0002555197	-0.1505635	0.1736314	0.0005975993	0.000324524	
-0.0003651777	-0.0003304267	-0.1434441	-0.0897731	0.0005975993	0.000324524	-0.1183822	0.2666419	

4.95e+10	-0.2654761	-0.006673548	0.00026766	8.966687e-05	-0.146352	-0.02921746	-0.0004874963	-5.562937e-05	
0.00026766	8.966687e-05	-0.2774213	0.03327694	-0.0004035438	-2.319752e-05	-0.1441765	-0.08824768	
-0.146352	-0.02921746	-0.0004035438	-2.319752e-05	-0.1686156	0.1801235	0.0006687749	-8.684446e-05	
-0.0004874963	-5.562937e-05	-0.1441765	-0.08824768	0.0006687749	-8.684446e-05	-0.1179242	0.2658605	

4.952e+10	-0.2743023	-0.00900369	0.0002689203	-8.184782e-05	-0.1354293	-0.02881109	-0.0004256936	0.0002377172	
0.0002689203	-8.184782e-05	-0.2781346	0.03252568	-0.0003385052	0.0002150706	-0.1448969	-0.0867877	
-0.1354293	-0.02881109	-0.0003385052	0.0002150706	-0.1846388	0.1911323	0.0004848502	-0.0004568837	
-0.0004256936	0.0002377172	-0.1448969	-0.0867877	0.0004848502	-0.0004568837	-0.117417	0.2653414	

4.954e+10	-0.2832576	-0.009594594	0.0001704276	-0.0002213767	-0.1252721	-0.0309553	-0.0002053549	0.0004373918	
0.0001704276	-0.0002213767	-0.2788327	0.03162109	-0.0001477678	0.0003681408	-0.1456778	-0.085332	
-0.1252721	-0.0309553	-0.0001477678	0.0003681408	-0.1973854	0.2058316	0.0001240793	-0.0006436087	
-0.0002053549	0.0004373918	-0.1456778	-0.085332	0.0001240793	-0.0006436087	-0.1166213	0.2649166	

4.956e+10	-0.2918304	-0.008355461	1.019001e-05	-0.0002769726	-0.1164819	-0.03532329	8.677875e-05	0.0004698636	
1.019001e-05	-0.0002769726	-0.2795623	0.03076519	9.296906e-05	0.0003801056	-0.1464761	-0.0838537	
-0.1164819	-0.03532329	9.296906e-05	0.0003801056	-0.2058436	0.2231487	-0.00026863	-0.0005840436	
8.677875e-05	0.0004698636	-0.1464761	-0.0838537	-0.00026863	-0.0005840436	-0.1156471	0.2643285	

4.958e+10	-0.2996477	-0.005596579	-0.0001509689	-0.0002293046	-0.1095226	-0.04129778	0.0003393247	0.0003278881	
-0.0001509689	-0.0002293046	-0.2803891	0.02981647	0.0002917793	0.000251422	-0.147265	-0.08233739	
-0.1095226	-0.04129778	0.0002917793	0.000251422	-0.2096007	0.2416286	-0.0005455094	-0.0003138085	
0.0003393247	0.0003278881	-0.147265	-0.08233739	-0.0005455094	-0.0003138085	-0.1146265	0.2634972	

4.96e+10	-0.3064055	-0.00165783	-0.000253177	-9.835343e-05	-0.1045831	-0.04825774	0.0004604782	6.961037e-05	
-0.000253177	-9.835343e-05	-0.2813023	0.02887129	0.0003768387	3.563701e-05	-0.1479997	-0.08075911	
-0.1045831	-0.04825774	0.0003768387	3.563701e-05	-0.208808	0.2597976	-0.0006131766	5.612717e-05	
0.0004604782	6.961037e-05	-0.1479997	-0.08075911	-0.0006131766	5.612717e-05	-0.1139148	0.2624872	

4.962e+10	-0.3119435	0.003212333	-0.0002604283	6.546339e-05	-0.101592	-0.05559695	0.0004104382	-0.0002068599	
-0.0002604283	6.546339e-05	-0.2822673	0.02807451	0.0003227773	-0.0001845871	-0.1486684	-0.0791816	
-0.101592	-0.05559695	0.0003227773	-0.0001845871	-0.2039834	0.2764742	-0.0004610059	0.0003886158	
0.0004104382	-0.0002068599	-0.1486684	-0.0791816	-0.0004610059	0.0003886158	-0.1134175	0.2615911	

4.964e+10	-0.3161728	0.008610607	-0.000172709	0.000201503	-0.1003745	-0.06289161	0.0002127729	-0.000400623	
-0.000172709	0.000201503	-0.2832101	0.02727003	0.0001557849	-0.0003304608	-0.1492975	-0.07768624	
-0.1003745	-0.06289161	0.0001557849	-0.0003304608	-0.1959511	0.2908378	-0.0001549564	0.0005707282	
0.0002127729	-0.000400623	-0.1492975	-0.07768624	-0.0001549564	0.0005707282	-0.112925	0.2609544	

4.966e+10	-0.3190987	0.01432277	-2.452053e-05	0.0002611514	-0.1006724	-0.06986498	-5.648107e-05	-0.0004441633	
-2.452053e-05	0.0002611514	-0.2841162	0.02650671	-5.982131e-05	-0.0003544372	-0.1499561	-0.07620875	
-0.1006724	-0.06986498	-5.982131e-05	-0.0003544372	-0.1857672	0.3024332	0.0001922344	0.0005489968	
-5.648107e-05	-0.0004441633	-0.1499561	-0.07620875	0.0001922344	0.0005489968	-0.1122914	0.2604873	

4.968e+10	-0.3207863	0.02001354	0.0001289735	0.0002249727	-0.1022267	-0.07636406	-0.0002980049	-0.0003264714	
0.0001289735	0.0002249727	-0.2850436	0.02558991	-0.0002473716	-0.0002537567	-0.1506669	-0.07472616	
-0.1022267	-0.07636406	-0.0002473716	-0.0002537567	-0.1744243	0.3112021	0.0004623688	0.0003403026	
-0.0002980049	-0.0003264714	-0.1506669	-0.07472616	0.0004623688	0.0003403026	-0.1114147	0.2599499	

4.97e+10	-0.3213231	0.02545797	0.0002323304	0.0001084362	-0.104841	-0.0823241	-0.0004261788	-9.463765e-05	
0.0002323304	0.0001084362	-0.2860535	0.02472462	-0.0003436349	-6.754307e-05	-0.1513668	-0.07320618	
-0.104841	-0.0823241	-0.0003436349	-6.754307e-05	-0.1626272	0.3173915	0.0005684185	2.055289e-05	
-0.0004261788	-9.463765e-05	-0.1513668	-0.07320618	0.0005684185	2.055289e-05	-0.1104388	0.2591707	

4.972e+10	-0.3208637	0.03050006	0.0002496037	-4.438927e-05	-0.1084337	-0.08762005	-0.0003985432	0.000165082	
0.0002496037	-4.438927e-05	-0.2871844	0.02381272	-0.000318321	0.0001378817	-0.1520312	-0.07160528	
-0.1084337	-0.08762005	-0.000318321	0.0001378817	-0.1508968	0.3213997	0.0004785929	-0.0003013044	
-0.0003985432	0.000165082	-0.1520312	-0.07160528	0.0004785929	-0.0003013044	-0.1096373	0.2581641	

4.974e+10	-0.3195295	0.03499417	0.000176873	-0.0001776836	-0.1128194	-0.09227589	-0.0002294936	0.0003595401	
0.000176873	-0.0001776836	-0.2883603	0.02304896	-0.0001828046	0.000291868	-0.1526179	-0.07003508	
-0.1128194	-0.09227589	-0.0001828046	0.000291868	-0.1395072	0.323621	0.0002250899	-0.0005172023	
-0.0002294936	0.0003595401	-0.1526179	-0.07003508	0.0002250899	-0.0005172023	-0.1090649	0.2571903	

4.976e+10	-0.3175129	0.03876069	4.264275e-05	-0.0002443571	-0.1179478	-0.09616163	1.714863e-05	0.0004216414	
4.264275e-05	-0.0002443571	-0.2895441	0.02227921	1.446651e-05	0.0003423044	-0.1531644	-0.06851377	
-0.1179478	-0.09616163	1.446651e-05	0.0003423044	-0.128574	0.3244099	-0.000105655	-0.0005538627	
1.714863e-05	0.0004216414	-0.1531644	-0.06851377	-0.000105655	-0.0005538627	-0.1086357	0.2564273	

4.978e+10	-0.3149781	0.04180326	-0.0001037731	-0.0002226436	-0.1236836	-0.0992311	0.0002521959	0.0003331604	
-0.0001037731	-0.0002226436	-0.290696	0.02150041	0.000205026	0.000273218	-0.1537209	-0.06703123	
-0.1236836	-0.0992311	0.000205026	0.000273218	-0.118069	0.32404	-0.0004005018	-0.0003982712	
0.0002521959	0.0003331604	-0.1537209	-0.06703123	-0.0004005018	-0.0003982712	-0.1080909	0.2558869	

4.98e+10	-0.3121117	0.04408666	-0.0002105114	-0.0001225206	-0.1299252	-0.1013992	0.0003935557	0.000129326	
-0.0002105114	-0.0001225206	-0.2918521	0.02076663	0.0003234122	0.0001092614	-0.1543204	-0.06553692	
-0.1299252	-0.1013992	0.0003234122	0.0001092614	-0.108016	0.3226388	-0.0005574531	-0.0001031166	
0.0003935557	0.000129326	-0.1543204	-0.06553692	-0.0005574531	-0.0001031166	-0.1073457	0.2553653	

4.982e+10	-0.309019	0.04563196	-0.0002411875	1.919366e-05	-0.1364966	-0.1026709	0.000394829	-0.0001160473	
-0.0002411875	1.919366e-05	-0.2930732	0.01992834	0.0003291239	-9.29962e-05	-0.154937	-0.06398701	
-0.1364966	-0.1026709	0.0003291239	-9.29962e-05	-0.09835346	0.3202995	-0.0005215199	0.0002307792	
0.000394829	-0.0001160473	-0.154937	-0.06398701	-0.0005215199	0.0002307792	-0.1064173	0.2546484	

4.984e+10	-0.3058295	0.04647078	-0.0001865811	0.0001523346	-0.1433246	-0.1029892	0.0002588135	-0.0003179481	
-0.0001865811	0.0001523346	-0.2943984	0.01914109	0.0002197768	-0.0002640935	-0.1555304	-0.06239673	
-0.1433246	-0.1029892	0.0002197768	-0.0002640935	-0.08906421	0.3170684	-0.0003028806	0.0004890679	
0.0002588135	-0.0003179481	-0.1555304	-0.06239673	-0.0003028806	0.0004890679	-0.1055562	0.2537074	

4.986e+10	-0.3026561	0.04658322	-6.678737e-05	0.0002309364	-0.1502025	-0.1024228	3.387231e-05	-0.0004084178	
-6.678737e-05	0.0002309364	-0.2957981	0.01840272	3.189961e-05	-0.0003445866	-0.1560303	-0.06083368	
-0.1502025	-0.1024228	3.189961e-05	-0.0003445866	-0.08023252	0.3129385	2.642852e-05	0.0005813296	
3.387231e-05	-0.0004084178	-0.1560303	-0.06083368	2.642852e-05	0.0005813296	-0.1049707	0.2526729	

4.988e+10	-0.2995804	0.04605631	7.634904e-05	0.0002281965	-0.1570748	-0.1009177	-0.0002033683	-0.0003574118	
7.634904e-05	0.0002281965	-0.2972328	0.01771094	-0.0001707106	-0.0003050755	-0.1564949	-0.05929061	
-0.1570748	-0.1009177	-0.0001707106	-0.0003050755	-0.07177691	0.3079559	0.0003556393	0.0004715554	
-0.0002033683	-0.0003574118	-0.1564949	-0.05929061	0.0003556393	0.0004715554	-0.1045068	0.2518044	

4.99e+10	-0.2966607	0.04497164	0.000193321	0.0001450387	-0.1638218	-0.09847297	-0.0003724834	-0.0001814309	
0.000193321	0.0001450387	-0.29864	0.01711488	-0.0003178444	-0.0001564678	-0.1569723	-0.05775458	
-0.1638218	-0.09847297	-0.0003178444	-0.0001564678	-0.06387437	0.3020603	0.0005703805	0.0001909352	
-0.0003724834	-0.0001814309	-0.1569723	-0.05775458	0.0005703805	0.0001909352	-0.1040802	0.2511477	

4.992e+10	-0.2939553	0.04325028	0.0002434175	9.426468e-06	-0.1703246	-0.09519118	-0.0004146593	6.160135e-05	
0.0002434175	9.426468e-06	-0.3000218	0.01640615	-0.0003563676	5.281447e-05	-0.1574622	-0.05628663	
-0.1703246	-0.09519118	-0.0003563676	5.281447e-05	-0.05659765	0.295295	0.0005908474	-0.0001699363	
-0.0004146593	6.160135e-05	-0.1574622	-0.05628663	0.0005908474	-0.0001699363	-0.1034432	0.2505995	

4.994e+10	-0.2915305	0.04107572	0.0002078397	-0.0001325513	-0.1764864	-0.09105241	-0.0003119632	0.0002903003	
0.0002078397	-0.0001325513	-0.3014491	0.01574552	-0.0002680857	0.0002516612	-0.1579954	-0.05474168	
-0.1764864	-0.09105241	-0.0002680857	0.0002516612	-0.05000577	0.2876762	0.0003995467	-0.0004882723	
-0.0003119632	0.0002903003	-0.1579954	-0.05474168	0.0003995467	-0.0004882723	-0.1026125	0.2499466	

4.996e+10	-0.2894586	0.03836496	9.617125e-05	-0.0002311844	-0.1821847	-0.08615723	-9.369042e-05	0.0004250671	
9.617125e-05	-0.0002311844	-0.3029748	0.01508298	-7.753403e-05	0.0003685629	-0.1584756	-0.0532098	
-0.1821847	-0.08615723	-7.753403e-05	0.0003685629	-0.04424352	0.2792164	5.060137e-05	-0.0006481578	
-9.369042e-05	0.0004250671	-0.1584756	-0.0532098	5.060137e-05	-0.0006481578	-0.101745	0.24907	

4.998e+10	-0.2877614	0.0352307	-5.510925e-05	-0.0002491992	-0.1873183	-0.08051702	0.0001701597	0.0004130429	
-5.510925e-05	-0.0002491992	-0.3045964	0.01447097	0.0001527156	0.0003556264	-0.158921	-0.05160591	
-0.1873183	-0.08051702	0.0001527156	0.0003556264	-0.03944885	0.2699832	-0.0003421239	-0.0005791918	
0.0001701597	0.0004130429	-0.158921	-0.05160591	-0.0003421239	-0.0005791918	-0.1010748	0.2480474	

5e+10	-0.2865678	0.03173863	-0.0001931747	-0.0001754676	-0.1917433	-0.07425686	0.0003882947	0.0002476188	
-0.0001931747	-0.0001754676	-0.3062995	0.01401612	0.000340498	0.0002077267	-0.1592596	-0.05015326	
-0.1917433	-0.07425686	0.000340498	0.0002077267	-0.03589816	0.2601045	-0.0006377018	-0.0002853914	
0.0003882947	0.0002476188	-0.1592596	-0.05015326	-0.0006377018	-0.0002853914	-0.1006845	0.247213	

