!
#	Hz	S	RI	R	50
0	0.0568	7.586977e-20	0.95415	9.732214e-21	0.047483	9.819677e-21	-0.0001767	2.163951e-20	
0.95415	9.732214e-21	0.05549	2.557667e-19	-0.0010938	1.339519e-19	0.047768	1.537859e-21	
0.047483	9.819677e-21	-0.0010938	1.339519e-19	0.057005	3.754946e-20	0.95386	5.19584e-21	
-0.0001767	2.163951e-20	0.047768	1.537859e-21	0.95386	5.19584e-21	0.056259	1.368972e-19	

2e+07	0.07206281	0.007353294	0.742635	-0.5738907	0.06126045	0.0747684	-0.002509901	0.006401223	
0.742635	-0.5738907	0.07206281	0.007353294	-0.002509426	0.006400012	0.06126436	0.07476519	
0.06126045	0.0747684	-0.002509353	0.006399826	0.07202797	0.007408809	0.743103	-0.5733829	
-0.002509828	0.006401036	0.06126436	0.07476519	0.743103	-0.5733829	0.07203921	0.007397259	

4e+07	0.08196978	-0.02455625	0.252061	-0.8817706	0.1459755	0.04529029	0.00884201	0.007747412	
0.252061	-0.8817706	0.08197149	-0.02455053	0.008837574	0.007744888	0.1459811	0.04527246	
0.1459755	0.04529029	0.008837574	0.007744888	0.08207928	-0.02438157	0.2533799	-0.8814341	
0.00884228	0.007747103	0.1459811	0.04527246	0.2533799	-0.8814341	0.08209355	-0.02443883	

6e+07	0.0522924	-0.0512568	-0.3065709	-0.8510672	0.1441791	-0.04184971	0.01480387	-0.007036361	
-0.3065709	-0.8510672	0.05229274	-0.05126787	0.01479623	-0.007031464	0.1441586	-0.04188466	
0.1441791	-0.04184971	0.01479623	-0.007031464	0.0526562	-0.05121486	-0.3048079	-0.851764	
0.01480387	-0.007036361	0.1441586	-0.04188466	-0.3048079	-0.851764	0.05260897	-0.05133356	

8e+07	0.0131016	-0.03676108	-0.7431786	-0.5060123	0.06264524	-0.06632659	0.0006615983	-0.01756555	
-0.7431786	-0.5060123	0.01308925	-0.03677715	0.0006659727	-0.01755137	0.06258789	-0.06636559	
0.06264524	-0.06632659	0.0006659727	-0.01755137	0.01349365	-0.03706946	-0.7417317	-0.5082547	
0.0006615983	-0.01756555	0.06258789	-0.06636559	-0.7417317	-0.5082547	0.01330163	-0.03719296	

1e+08	0.01138458	0.004519889	-0.8899566	0.03138901	0.01602932	0.003429074	-0.01108392	-0.008734719	
-0.8899566	0.03138901	0.0113549	0.00451063	-0.01106221	-0.008736405	0.01592293	0.003433933	
0.01602932	0.003429074	-0.01106221	-0.008736405	0.01147801	0.004125777	-0.8901556	0.02812978	
-0.01108392	-0.008734719	0.01592293	0.003433933	-0.8901556	0.02812978	0.01112964	0.00414947	

1.2e+08	0.04900334	0.01912729	-0.6885598	0.5395118	0.06740283	0.06756537	-0.009109623	-0.00207969	
-0.6885598	0.5395118	0.04895538	0.01915387	-0.009105793	-0.00211061	0.06728581	0.06765793	
0.06740283	0.06756537	-0.009105793	-0.00211061	0.04909826	0.01918112	-0.6909626	0.5365452	
-0.009109623	-0.00207969	0.06728581	0.06765793	-0.6909626	0.5365452	0.04872536	0.01950947	

1.4e+08	0.07685561	-0.009910881	-0.243329	0.8235757	0.1428561	0.0412414	-0.01220999	-0.001337212	
-0.243329	0.8235757	0.07683035	-0.009840695	-0.01224934	-0.001354504	0.1428013	0.04143085	
0.1428561	0.0412414	-0.01224934	-0.001354504	0.07774096	-0.009669507	-0.2476378	0.8222903	
-0.01220999	-0.001337212	0.1428013	0.04143085	-0.2476378	0.8222903	0.07759013	-0.009031558	

1.6e+08	0.06511032	-0.04872115	0.2720671	0.8057783	0.1453531	-0.03659918	-0.01624008	0.01038197	
0.2720671	0.8057783	0.06513812	-0.04863386	-0.01628252	0.01042512	0.1454251	-0.03635293	
0.1453531	-0.03659918	-0.01628252	0.01042512	0.06680627	-0.04937993	0.2672822	0.807336	
-0.01624008	0.01038197	0.1454251	-0.03635293	0.2672822	0.807336	0.06710918	-0.04859501	

1.8e+08	0.02646344	-0.05971815	0.687424	0.498655	0.07487285	-0.06599768	-0.003198129	0.02375065	
0.687424	0.498655	0.02654538	-0.05965551	-0.003166724	0.02382547	0.07513219	-0.06579643	
0.07487285	-0.06599768	-0.003166724	0.02382547	0.02775537	-0.06188266	0.6840241	0.5032749	
-0.003198129	0.02375065	0.07513219	-0.06579643	0.6840241	0.5032749	0.02863613	-0.06129025	

2e+08	-0.0005772991	-0.03463219	0.8468091	0.001261455	0.02511048	-0.01014122	0.0162944	0.01808788	
0.8468091	0.001261455	-0.0004585994	-0.03461696	0.01639655	0.01808858	0.02551765	-0.01013047	
0.02511048	-0.01014122	0.01639655	0.01808858	-0.0009845872	-0.03732602	0.8468455	0.007646027	
0.0162944	0.01808788	0.02551765	-0.01013047	0.8468455	0.007646027	0.0003183012	-0.03737064	

2.2e+08	0.007241311	-0.006335048	0.6788287	-0.4902174	0.06215908	0.05236135	0.02148786	0.002055988	
0.6788287	-0.4902174	0.007374561	-0.006392777	0.02153509	0.001947796	0.06255709	0.05208547	
0.06215908	0.05236135	0.02153509	0.001947796	0.005471556	-0.00779738	0.6829827	-0.484707	
0.02148786	0.002055988	0.06255709	0.05208547	0.6829827	-0.484707	0.006686899	-0.008748	

2.4e+08	0.02700994	-0.004455728	0.2643965	-0.7816649	0.1307335	0.03678447	0.01771121	-0.008987351	
0.2643965	-0.7816649	0.02710543	-0.004606051	0.01762277	-0.009079046	0.1309231	0.03625407	
0.1307335	0.03678447	0.01762277	-0.009079046	0.02560657	-0.004189291	0.271386	-0.7794458	
0.01771121	-0.008987351	0.1309231	0.03625407	0.271386	-0.7794458	0.0261206	-0.005897072	

2.6e+08	0.02910493	-0.01732868	-0.2317259	-0.7843039	0.1380245	-0.03161944	0.01092725	-0.01841383	
-0.2317259	-0.7843039	0.02909095	-0.01753493	0.01080496	-0.01836296	0.1378476	-0.03225065	
0.1380245	-0.03161944	0.01080496	-0.01836296	0.02923316	-0.01651576	-0.2242332	-0.7866556	
0.01092725	-0.01841383	0.1378476	-0.03225065	-0.2242332	-0.7866556	0.02860325	-0.01847313	

2.8e+08	0.01501621	-0.01697692	-0.6412654	-0.5048074	0.07601919	-0.06084406	-0.003814812	-0.02298863	
-0.6412654	-0.5048074	0.01487117	-0.01715443	-0.003801394	-0.02285097	0.07543206	-0.06132821	
0.07601919	-0.06084406	-0.003801394	-0.02285097	0.01624549	-0.0170136	-0.636158	-0.5114842	
-0.003814812	-0.02298863	0.07543206	-0.06132821	-0.636158	-0.5114842	0.01435283	-0.01844831	

3e+08	0.01244805	0.004100414	-0.8127342	-0.03505839	0.0282016	-0.01100839	-0.01759838	-0.01357706	
-0.8127342	-0.03505839	0.01220479	0.004023829	-0.01745139	-0.01356109	0.02733447	-0.01105938	
0.0282016	-0.01100839	-0.01745139	-0.01356109	0.01356077	0.003097363	-0.8124617	-0.04414357	
-0.01759838	-0.01357706	0.02733447	-0.01105938	-0.8124617	-0.04414357	0.01085261	0.003035004	

3.2e+08	0.03780153	0.01809443	-0.6724804	0.4419051	0.06037763	0.05035833	-0.01844387	-0.0006408512	
-0.6724804	0.4419051	0.03752304	0.01817491	-0.01839062	-0.0007997359	0.05956107	0.05088075	
0.06037763	0.05035833	-0.01839062	-0.0007997359	0.03854069	0.01708049	-0.6777365	0.4340975	
-0.01844387	-0.0006408512	0.05956107	0.05088075	-0.6777365	0.4340975	0.03605836	0.0187956	

3.4e+08	0.06701792	-0.0001029322	-0.2886395	0.7387975	0.1283816	0.04100142	-0.01604129	0.005573616	
-0.2886395	0.7387975	0.06681382	0.0001562489	-0.01621063	0.005458628	0.1279781	0.04198799	
0.1283816	0.04100142	-0.01621063	0.005458628	0.06833758	-0.0009365314	-0.2978059	0.7352475	
-0.01604129	0.005573616	0.1279781	0.04198799	-0.2978059	0.7352475	0.06719395	0.00217047	

3.6e+08	0.0685913	-0.03745623	0.1854704	0.7639585	0.1442862	-0.02455057	-0.01522254	0.01474652	
0.1854704	0.7639585	0.06858084	-0.03709854	-0.01542596	0.01489148	0.1445287	-0.02339509	
0.1442862	-0.02455057	-0.01542596	0.01489148	0.0708488	-0.03936432	0.1754055	0.766291	
-0.01522254	0.01474652	0.1445287	-0.02339509	0.1754055	0.766291	0.07174703	-0.03582962	

3.8e+08	0.03852002	-0.06152537	0.59051	0.5178634	0.09028691	-0.0628703	-0.003257081	0.0266769	
0.59051	0.5178634	0.03872718	-0.06120829	-0.003194199	0.02697152	0.09125079	-0.06196276	
0.09028691	-0.0628703	-0.003194199	0.02697152	0.04022525	-0.06556969	0.5831333	0.5260515	
-0.003257081	0.0266769	0.09125079	-0.06196276	0.5831333	0.5260515	0.04328826	-0.06291421	

4e+08	0.003013137	-0.05088186	0.7817473	0.07801084	0.03669126	-0.02613396	0.01838236	0.02346245	
0.7817473	0.07801084	0.003383751	-0.05071725	0.01872131	0.02353759	0.03815435	-0.02593259	
0.03669126	-0.02613396	0.01872131	0.02353759	0.002036444	-0.05590992	0.7805048	0.08967943	
0.01838236	0.02346245	0.03815435	-0.02593259	0.7805048	0.08967943	0.00650538	-0.05550306	

4.2e+08	-0.005136641	-0.02024038	0.6756363	-0.3910227	0.05427628	0.03495455	0.02856832	0.004021626	
0.6756363	-0.3910227	-0.004690005	-0.02031464	0.028794	0.00372538	0.05570044	0.03418679	
0.05427628	0.03495455	0.028794	0.00372538	-0.008752868	-0.0233237	0.6818192	-0.3804471	
0.02856832	0.004021626	0.05570044	0.03418679	0.6818192	-0.3804471	-0.004577158	-0.02582654	

4.4e+08	0.01172546	-0.00431436	0.3195316	-0.7022522	0.1163686	0.0370686	0.0228261	-0.01305359	
0.3195316	-0.7022522	0.01207949	-0.004676113	0.02265173	-0.01338339	0.1171382	0.03550222	
0.1163686	0.0370686	0.02265173	-0.01338339	0.008272092	-0.003972024	0.3310679	-0.6971646	
0.0228261	-0.01305359	0.1171382	0.03550222	0.3310679	-0.6971646	0.01034439	-0.008739524	

4.6e+08	0.02457642	-0.01040171	-0.1411868	-0.7515228	0.1383313	-0.01993237	0.01174229	-0.02267836	
-0.1411868	-0.7515228	0.02463955	-0.01093985	0.01138927	-0.02265193	0.1380411	-0.021788	
0.1383313	-0.01993237	0.01138927	-0.02265193	0.02394433	-0.008250772	-0.1284993	-0.7540494	
0.01174229	-0.02267836	0.1380411	-0.021788	-0.1284993	-0.7540494	0.0228543	-0.01369807	

4.8e+08	0.02006501	-0.01747363	-0.5467382	-0.5320512	0.09265382	-0.05978916	-0.003624083	-0.02653567	
-0.5467382	-0.5320512	0.01978803	-0.01795528	-0.003708783	-0.02622	0.09123678	-0.06125081	
0.09265382	-0.05978916	-0.003708783	-0.02622	0.02231652	-0.01638052	-0.5374228	-0.5417549	
-0.003624083	-0.02653567	0.09123678	-0.06125081	-0.5374228	-0.5417549	0.01799656	-0.02052837	

5e+08	0.01318307	-0.008071952	-0.7533601	-0.1155494	0.039937	-0.0303556	-0.0199205	-0.01848537	
-0.7533601	-0.1155494	0.01267305	-0.008317993	-0.01964598	-0.01834584	0.03776819	-0.03074814	
0.039937	-0.0303556	-0.01964598	-0.01834584	0.0162106	-0.009372404	-0.751333	-0.1293726	
-0.0199205	-0.01848537	0.03776819	-0.03074814	-0.751333	-0.1293726	0.009826028	-0.01030249	

5.2e+08	0.02561552	0.006559318	-0.6748387	0.3432542	0.05056329	0.02841194	-0.02497845	-0.001957074	
-0.6748387	0.3432542	0.02502559	0.00664196	-0.02479567	-0.002221679	0.04844066	0.02942807	
0.05056329	0.02841194	-0.02479567	-0.002221679	0.02777771	0.003920416	-0.6814442	0.3304507	
-0.02497845	-0.001957074	0.04844066	0.02942807	-0.6814442	0.3304507	0.02170565	0.007092402	

5.4e+08	0.05053537	0.0004059885	-0.3470501	0.663	0.1083261	0.03724468	-0.0201707	0.01003038	
-0.3470501	0.663	0.05007695	0.0008404372	-0.02043484	0.009760055	0.1071182	0.03941608	
0.1083261	0.03724468	-0.02043484	0.009760055	0.05234912	-0.002375786	-0.3601298	0.6561584	
-0.0201707	0.01003038	0.1071182	0.03941608	-0.3601298	0.6561584	0.04908048	0.004022041	

5.6e+08	0.05989255	-0.02789019	0.09560718	0.7353307	0.135467	-0.01290178	-0.01420951	0.01867969	
0.09560718	0.7353307	0.05977883	-0.02725286	-0.01462978	0.01888781	0.1357208	-0.01028589	
0.135467	-0.01290178	-0.01462978	0.01888781	0.06220697	-0.03157578	0.08059831	0.7371267	
-0.01420951	0.01867969	0.1357208	-0.01028589	0.08059831	0.7371267	0.06320609	-0.0240893	

5.8e+08	0.04044396	-0.05329068	0.4992095	0.546034	0.09817028	-0.0549645	-0.002004749	0.02752308	
0.4992095	0.546034	0.04071268	-0.05270836	-0.00197646	0.02809557	0.09997997	-0.05280939	
0.09817028	-0.0549645	-0.00197646	0.02809557	0.04200742	-0.05922613	0.4873949	0.5564723	
-0.002004749	0.02752308	0.09997997	-0.05280939	0.4873949	0.5564723	0.04741037	-0.05328708	

6e+08	0.008322318	-0.05061639	0.7235508	0.1562522	0.04597696	-0.03346433	0.01848108	0.02487754	
0.7235508	0.1562522	0.008860545	-0.05026604	0.01909338	0.02513547	0.04890608	-0.03270887	
0.04597696	-0.03346433	0.01909338	0.02513547	0.006511504	-0.05776013	0.7198499	0.1723291	
0.01848108	0.02487754	0.04890608	-0.03270887	0.7198499	0.1723291	0.01487123	-0.05594521	

6.2e+08	-0.003956366	-0.02335425	0.6761037	-0.2934733	0.05002916	0.02392595	0.03047196	0.005767652	
0.6761037	-0.2934733	-0.003274199	-0.02334148	0.03101831	0.005300887	0.05301763	0.02274858	
0.05002916	0.02392595	0.03101831	0.005300887	-0.009525899	-0.02796614	0.6828435	-0.2778017	
0.03047196	0.005767652	0.05301763	0.02274858	0.6828435	-0.2778017	-0.001294292	-0.0315925	

6.4e+08	0.01249031	-0.003953283	0.3763491	-0.6248669	0.1067682	0.039209	0.02511021	-0.0133064	
0.3763491	-0.6248669	0.01310093	-0.00436826	0.02494386	-0.01400586	0.1085868	0.03638322	
0.1067682	0.039209	0.02494386	-0.01400586	0.006719546	-0.003486058	0.3912293	-0.6159796	
0.02511021	-0.0133064	0.1085868	0.03638322	0.3912293	-0.6159796	0.01145279	-0.01150408	

6.6e+08	0.0322204	-0.01021534	-0.0507694	-0.7206138	0.1419839	-0.008532386	0.01320507	-0.02309659	
-0.0507694	-0.7206138	0.03246085	-0.01094068	0.01255147	-0.02325612	0.1418403	-0.01203508	
0.1419839	-0.008532386	0.01255147	-0.02325612	0.03045392	-0.006374916	-0.0332631	-0.7219441	
0.01320507	-0.02309659	0.1418403	-0.01203508	-0.0332631	-0.7219441	0.02973085	-0.01597095	

6.8e+08	0.03278008	-0.02738994	-0.4531706	-0.5594194	0.1122176	-0.05923073	-0.0008756553	-0.02767915	
-0.4531706	-0.5594194	0.03254392	-0.02810504	-0.001241433	-0.0272127	0.1099933	-0.06217549	
0.1122176	-0.05923073	-0.001241433	-0.0272127	0.03599246	-0.02443291	-0.4392212	-0.5707524	
-0.0008756553	-0.02767915	0.1099933	-0.06217549	-0.4392212	-0.5707524	0.02968031	-0.03224997	

7e+08	0.01829307	-0.03169475	-0.6933728	-0.1952901	0.05584686	-0.05201065	-0.01850647	-0.02340804	
-0.6933728	-0.1952901	0.01771235	-0.03214285	-0.01822696	-0.0229967	0.05213115	-0.05320671	
0.05584686	-0.05201065	-0.01822696	-0.0229967	0.02383979	-0.03260517	-0.6883354	-0.2130754	
-0.01850647	-0.02340804	0.05213115	-0.05320671	-0.6883354	-0.2130754	0.01369312	-0.035505	

7.2e+08	0.01197374	-0.01885304	-0.6759988	0.2437744	0.04311894	-0.0003030187	-0.02953987	-0.006370558	
-0.6759988	0.2437744	0.01123389	-0.01891327	-0.02916085	-0.006566333	0.03920835	0.0009558349	
0.04311894	-0.0003030187	-0.02916085	-0.006566333	0.0165544	-0.02313403	-0.6824062	0.2259486	
-0.02953987	-0.006370558	0.03920835	0.0009558349	-0.6824062	0.2259486	0.006199139	-0.01941745	

7.4e+08	0.02403089	-0.01036774	-0.4056689	0.5862975	0.08436565	0.02558561	-0.02590072	0.01217139	
-0.4056689	0.5862975	0.02337291	-0.009981447	-0.02610489	0.01175391	0.08182313	0.0290201	
0.08436565	0.02558561	-0.02610489	0.01175391	0.02692702	-0.01582517	-0.4214917	0.5752631	
-0.02590072	0.01217139	0.08182313	0.0290201	-0.4214917	0.5752631	0.02047392	-0.006510052	

7.6e+08	0.03610082	-0.02095133	0.006366634	0.7069213	0.1176795	-0.004616851	-0.01458878	0.02338324	
0.006366634	0.7069213	0.03580575	-0.02025545	-0.0151648	0.02354019	0.1175699	-0.000183751	
0.1176795	-0.004616851	-0.0151648	0.02354019	0.03834695	-0.02717729	-0.01326547	0.7069456	
-0.01458878	0.02338324	0.1175699	-0.000183751	-0.01326547	0.7069456	0.03839788	-0.01552856	

7.8e+08	0.02915068	-0.03738912	0.410035	0.5726464	0.09701762	-0.04346719	0.000458726	0.02884835	
0.410035	0.5726464	0.02930001	-0.03669298	0.00038721	0.02961847	0.09957345	-0.03960295	
0.09701762	-0.04346719	0.00038721	0.02961847	0.03012402	-0.04553314	0.3934736	0.584162	
0.000458726	0.02884835	0.09957345	-0.03960295	0.3934736	0.584162	0.03705811	-0.03564562	

8e+08	0.009052185	-0.03622821	0.665185	0.229951	0.05162914	-0.03264111	0.01920428	0.02409385	
0.665185	0.229951	0.00951178	-0.03573786	0.02001499	0.02457844	0.05616149	-0.0308878	
0.05162914	-0.03264111	0.02001499	0.02457844	0.006117397	-0.04547236	0.6581115	0.2495595	
0.01920428	0.02409385	0.05616149	-0.0308878	0.6581115	0.2495595	0.01796436	-0.04125217	

8.2e+08	0.002622785	-0.01417337	0.6719463	-0.1992309	0.04828059	0.0192454	0.03001122	0.005728204	
0.6719463	-0.1992309	0.003278252	-0.01397361	0.03091835	0.005172293	0.05317284	0.01795975	
0.04828059	0.0192454	0.03091835	0.005172293	-0.005000399	-0.02037333	0.6779111	-0.1787448	
0.03001122	0.005728204	0.05317284	0.01795975	0.6779111	-0.1787448	0.007451436	-0.02401975	

8.4e+08	0.02304131	0.00190592	0.4271053	-0.5465125	0.1006318	0.04316826	0.02452137	-0.01258875	
0.4271053	-0.5465125	0.02373754	0.001695282	0.02447164	-0.01369075	0.1039468	0.03916422	
0.1006318	0.04316826	0.02447164	-0.01369075	0.0146813	0.002304045	0.4441245	-0.5332818	
0.02452137	-0.01258875	0.1039468	0.03916422	0.4441245	-0.5332818	0.02278922	-0.008094267	

8.6e+08	0.04896749	-0.009934072	0.035128	-0.6849198	0.1469306	0.003402315	0.01326223	-0.02090034	
0.035128	-0.6849198	0.04939975	-0.01052728	0.01231823	-0.02138491	0.1473578	-0.001898228	
0.1469306	0.003402315	0.01231823	-0.02138491	0.0455059	-0.004367372	0.05671888	-0.683892	
0.01326223	-0.02090034	0.1473578	-0.001898228	0.05671888	-0.683892	0.04621461	-0.0176911	

8.8e+08	0.05310401	-0.03979631	-0.3604636	-0.5791091	0.1330547	-0.05638793	0.002508823	-0.02549988	
-0.3604636	-0.5791091	0.05310485	-0.04049169	0.001714626	-0.0249712	0.1303273	-0.06114965	
0.1330547	-0.05638793	0.001714626	-0.0249712	0.05677373	-0.03441862	-0.3418287	-0.5906354	
0.002508823	-0.02549988	0.1303273	-0.06114965	-0.3418287	-0.5906354	0.04968347	-0.04606541	

9e+08	0.03073391	-0.0605327	-0.6279721	-0.2677233	0.07671149	-0.07174015	-0.01349491	-0.02619076	
-0.6279721	-0.2677233	0.03038722	-0.06108075	-0.01338482	-0.02540807	0.07154195	-0.07421076	
0.07671149	-0.07174015	-0.01338482	-0.02540807	0.0388825	-0.06016534	-0.6189548	-0.2883604	
-0.01349491	-0.02619076	0.07154195	-0.07421076	-0.6189548	-0.2883604	0.0260078	-0.06589309	

9.2e+08	0.002969829	-0.05448412	-0.667877	0.1452545	0.04214435	-0.03295284	-0.02999937	-0.0129446	
-0.667877	0.1452545	0.002397212	-0.05477357	-0.02941158	-0.0128496	0.03623873	-0.03193188	
0.04214435	-0.03295284	-0.02941158	-0.0128496	0.01075867	-0.05987814	-0.6725492	0.1225867	
-0.02999937	-0.0129446	0.03623873	-0.03193188	-0.6725492	0.1225867	-0.003510482	-0.05700401	

9.4e+08	-0.005617649	-0.03326296	-0.4578604	0.5044186	0.0612099	0.005277566	-0.03169323	0.01007804	
-0.4578604	0.5044186	-0.006269219	-0.0331789	-0.03161957	0.009624846	0.05685415	0.009713764	
0.0612099	0.005277566	-0.03161957	0.009624846	-0.000811806	-0.04167309	-0.4751475	0.4884343	
-0.03169323	0.01007804	0.05685415	0.009713764	-0.4751475	0.4884343	-0.01096189	-0.03078455	

9.6e+08	0.002232797	-0.02117963	-0.08100059	0.6721066	0.09384941	-0.002473597	-0.01777027	0.02675653	
-0.08100059	0.6721066	0.00177923	-0.02073681	-0.01831073	0.02673213	0.09285526	0.003849092	
0.09384941	-0.002473597	-0.01831073	0.02673213	0.004650461	-0.03056929	-0.1046983	0.6690475	
-0.01777027	0.02675653	0.09285526	0.003849092	-0.1046983	0.6690475	0.002626789	-0.01558011	

9.8e+08	0.006442345	-0.02082215	0.320051	0.5930843	0.08813998	-0.03182621	0.001633699	0.03125633	
0.320051	0.5930843	0.006337586	-0.02027036	0.001440248	0.03201262	0.09106842	-0.02592262	
0.08813998	-0.03182621	0.001440248	0.03201262	0.006664054	-0.03153046	0.2985443	0.6044303	
0.001633699	0.03125633	0.09106842	-0.02592262	0.2985443	0.6044303	0.01375201	-0.01783094	

1e+09	0.002291822	-0.01517188	0.6028003	0.2978701	0.0531417	-0.02740734	0.02018706	0.0236118	
0.6028003	0.2978701	0.002439365	-0.01469998	0.02101872	0.02425098	0.05913908	-0.02420287	
0.0531417	-0.02740734	0.02101872	0.02425098	-0.001824976	-0.02660548	0.5916198	0.3200478	
0.02018706	0.0236118	0.05913908	-0.02420287	0.5916198	0.3200478	0.01221285	-0.01936444	

1.02e+09	0.007573734	0.002832306	0.6602867	-0.1077463	0.04668648	0.0180326	0.02912646	0.005131273	
0.6602867	-0.1077463	0.007908564	0.003193501	0.03027909	0.004596581	0.05359817	0.01709711	
0.04668648	0.0180326	0.03027909	0.004596581	-0.001969383	-0.005195361	0.6642862	-0.08282717	
0.02912646	0.005131273	0.05359817	0.01709711	0.6642862	-0.08282717	0.01391852	-0.00759524	

1.04e+09	0.0352167	0.0132448	0.4698718	-0.4658055	0.09466638	0.04753359	0.02280091	-0.01184918	
0.4698718	-0.4658055	0.03572284	0.01338465	0.02292075	-0.0132381	0.09981017	0.04267357	
0.09466638	0.04753359	0.02292075	-0.0132381	0.02418055	0.01301988	0.4877788	-0.4478919	
0.02280091	-0.01184918	0.09981017	0.04267357	0.4877788	-0.4478919	0.03570393	0.001754334	

1.06e+09	0.06772055	-0.005806176	0.1153435	-0.6426612	0.1493229	0.01602233	0.01206102	-0.01785632	
0.1153435	-0.6426612	0.06820685	-0.005985799	0.01092596	-0.0186908	0.1507697	0.009032105	
0.1493229	0.01602233	0.01092596	-0.0186908	0.0619548	0.001008296	0.1401869	-0.6382969	
0.01206102	-0.01785632	0.1507697	0.009032105	0.1401869	-0.6382969	0.06493698	-0.01476762	

1.08e+09	0.07613045	-0.0479716	-0.269082	-0.5890836	0.1512486	-0.04897444	0.005105725	-0.02104346	
-0.269082	-0.5890836	0.0764134	-0.04835136	0.003869771	-0.0205549	0.1484615	-0.05568179	
0.1512486	-0.04897444	0.003869771	-0.0205549	0.07933216	-0.04009789	-0.2459922	-0.599493	
0.005105725	-0.02104346	0.1484615	-0.05568179	-0.2459922	-0.599493	0.07290184	-0.05489559	

1.1e+09	0.04926866	-0.08539088	-0.5566658	-0.3303926	0.1000966	-0.08447743	-0.006534403	-0.02584268	
-0.5566658	-0.3303926	0.04934429	-0.08582969	-0.006727711	-0.02469394	0.0938268	-0.08858811	
0.1000966	-0.08447743	-0.006727711	-0.02469394	0.0593563	-0.08296306	-0.5431119	-0.3524315	
-0.006534403	-0.02584268	0.0938268	-0.08858811	-0.5431119	-0.3524315	0.04544454	-0.09175241	

1.12e+09	0.003411988	-0.09109612	-0.647516	0.04982364	0.04949865	-0.0631711	-0.02564643	-0.01964366	
-0.647516	0.04982364	0.003264219	-0.09155083	-0.02491431	-0.01908981	0.04170149	-0.06295394	
0.04949865	-0.0631711	-0.02491431	-0.01908981	0.01453522	-0.09658845	-0.6490203	0.02334479	
-0.02564643	-0.01964366	0.04170149	-0.06295394	-0.6490203	0.02334479	-0.002339834	-0.09580843	

1.14e+09	-0.0286155	-0.0640307	-0.4994995	0.4161673	0.04470798	-0.02038968	-0.03521151	0.003291269	
-0.4994995	0.4161673	-0.02903469	-0.06433465	-0.0347013	0.002944448	0.03825898	-0.01550659	
0.04470798	-0.02038968	-0.0347013	0.002944448	-0.02118258	-0.07490756	-0.5165602	0.3949401	
-0.03521151	0.003291269	0.03825898	-0.01550659	-0.5165602	0.3949401	-0.03474007	-0.06425041	

1.16e+09	-0.03182537	-0.03098126	-0.1650584	0.6269359	0.06989036	-0.007531559	-0.02374796	0.02623633	
-0.1650584	0.6269359	-0.03232327	-0.03095362	-0.02402617	0.02593683	0.06744272	0.0004161681	
0.06989036	-0.007531559	-0.02402617	0.02593683	-0.02867147	-0.04361496	-0.1918925	0.6195219	
-0.02374796	0.02623633	0.06744272	0.0004161681	-0.1918925	0.6195219	-0.03355696	-0.02687458	

1.18e+09	-0.02107125	-0.01086171	0.2272686	0.6045101	0.0754932	-0.02371024	-0.001074509	0.03388997	
0.2272686	0.6045101	-0.02140877	-0.01059948	-0.001358858	0.03437115	0.0781953	-0.01564483	
0.0754932	-0.02371024	-0.001358858	0.03437115	-0.02131914	-0.02423292	0.2008418	0.6141857	
-0.001074509	0.03388997	0.0781953	-0.01564483	0.2008418	0.6141857	-0.01557558	-0.007586626	

1.2e+09	-0.01056098	0.00282388	0.5337909	0.3599245	0.05193367	-0.0226925	0.01952483	0.02553464	
0.5337909	0.3599245	-0.01072856	0.003155552	0.02016041	0.02616748	0.05897769	-0.0176078	
0.05193367	-0.0226925	0.02016041	0.02616748	-0.01543741	-0.01080137	0.5177202	0.3834705	
0.01952483	0.02553464	0.05897769	-0.0176078	0.5177202	0.3834705	-0.0009393835	-0.0004506821	

1.22e+09	0.006541532	0.01895392	0.6400401	-0.01752467	0.04391021	0.01557012	0.02873423	0.00667345	
0.6400401	-0.01752467	0.006525061	0.01934414	0.02989078	0.00626847	0.05274157	0.01557071	
0.04391021	0.01557012	0.02989078	0.00626847	-0.00425379	0.008725426	0.6408209	0.01127284	
0.02873423	0.00667345	0.05274157	0.01557071	0.6408209	0.01127284	0.0136881	0.008636551	

1.24e+09	0.04088391	0.02535898	0.5051462	-0.381665	0.08552485	0.04906185	0.02264253	-0.01036943	
0.5051462	-0.381665	0.04109772	0.0257306	0.02291017	-0.01180558	0.09274279	0.04388091	
0.08552485	0.04906185	0.02291017	-0.01180558	0.02753419	0.02350894	0.522593	-0.3588191	
0.02264253	-0.01036943	0.09274279	0.04388091	0.522593	-0.3588191	0.04195398	0.01300699	

1.26e+09	0.07944747	0.002273707	0.1908576	-0.5940954	0.1448528	0.02803062	0.01177424	-0.01570807	
0.1908576	-0.5940954	0.07983751	0.002447067	0.0106167	-0.0167758	0.1477906	0.01964072	
0.1448528	0.02803062	0.0106167	-0.0167758	0.07090183	0.009159343	0.217992	-0.5855058	
0.01177424	-0.01570807	0.1477906	0.01964072	0.217992	-0.5855058	0.07660376	-0.007479075	

1.28e+09	0.09397	-0.04762628	-0.1792356	-0.5906749	0.1620462	-0.03628992	0.00674782	-0.01718573	
-0.1792356	-0.5906749	0.09437703	-0.04768567	0.005218848	-0.01681158	0.1597509	-0.04493403	
0.1620462	-0.03628992	0.005218848	-0.01681158	0.09547625	-0.03789042	-0.1520637	-0.5987521	
0.00674782	-0.01718573	0.1597509	-0.04493403	-0.1520637	-0.5987521	0.09089677	-0.05472647	

1.3e+09	0.06855619	-0.09819627	-0.4815181	-0.3834286	0.1214207	-0.08670447	-0.0003039644	-0.02372605	
-0.4815181	-0.3834286	0.06890434	-0.09845314	-0.0008106646	-0.0223423	0.1145474	-0.09271896	
0.1214207	-0.08670447	-0.0008106646	-0.0223423	0.0791686	-0.09337553	-0.4631459	-0.4055964	
-0.0003039644	-0.02372605	0.1145474	-0.09271896	-0.4631459	-0.4055964	0.06587378	-0.104902	

1.32e+09	0.01329053	-0.1177825	-0.6163426	-0.03985709	0.06349226	-0.08419285	-0.01871651	-0.02457783	
-0.6163426	-0.03985709	0.01343836	-0.1182589	-0.01794769	-0.02356824	0.05411582	-0.08530251	
0.06349226	-0.08419285	-0.01794769	-0.02356824	0.02692532	-0.1222193	-0.6136035	-0.06926046	
-0.01871651	-0.02457783	0.05411582	-0.08530251	-0.6136035	-0.06926046	0.009079186	-0.1242287	

1.34e+09	-0.03772456	-0.093701	-0.5287253	0.3241302	0.0386293	-0.04503139	-0.03542328	-0.005946893	
-0.5287253	0.3241302	-0.03796286	-0.09419796	-0.03447032	-0.006071844	0.03002774	-0.04037494	
0.0386293	-0.04503139	-0.03447032	-0.006071844	-0.0275428	-0.1058141	-0.5439703	0.2976917	
-0.03542328	-0.005946893	0.03002774	-0.04037494	-0.5439703	0.2976917	-0.04360404	-0.09697812	

1.36e+09	-0.05529857	-0.0480195	-0.2432012	0.5710054	0.05229292	-0.01788552	-0.03074443	0.02131228	
-0.2432012	0.5710054	-0.05582006	-0.04818258	-0.03060502	0.02074453	0.04790186	-0.008830532	
0.05229292	-0.01788552	-0.03060502	0.02074453	-0.05081017	-0.06314995	-0.2716713	0.5582446	
-0.03074443	0.02131228	0.04790186	-0.008830532	-0.2716713	0.5582446	-0.05881218	-0.0464304	

1.38e+09	-0.04407445	-0.01146411	0.1324411	0.6050954	0.06440961	-0.0211108	-0.007996309	0.0353386	
0.1324411	0.6050954	-0.0445005	-0.01124383	-0.008299418	0.03535699	0.06617556	-0.01099042	
0.06440961	-0.0211108	-0.008299418	0.03535699	-0.0441438	-0.02703016	0.1015274	0.6114888	
-0.007996309	0.0353386	0.06617556	-0.01099042	0.1015274	0.6114888	-0.04092286	-0.008683493	

1.4e+09	-0.02420695	0.009918124	0.4575013	0.4150697	0.05102891	-0.02227808	0.01579478	0.03006677	
0.4575013	0.4150697	-0.0243654	0.01029736	0.0160709	0.03051472	0.05849598	-0.01497352	
0.05102891	-0.02227808	0.0160709	0.03051472	-0.02891962	-0.005548105	0.4359249	0.4385501	
0.01579478	0.03006677	0.05849598	-0.01497352	0.4359249	0.4385501	-0.01558574	0.007568028	

1.42e+09	-0.0002027642	0.02520018	0.6106242	0.07144772	0.04081374	0.007625551	0.02856098	0.01197544	
0.6106242	0.07144772	-0.0001285484	0.02557368	0.02945547	0.01176465	0.05126782	0.009201444	
0.04081374	0.007625551	0.02945547	0.01176465	-0.01093236	0.01252759	0.6068485	0.1033131	
0.02856098	0.01197544	0.05126782	0.009201444	0.6068485	0.1033131	0.00757528	0.01539297	

1.44e+09	0.03573661	0.03082634	0.5331545	-0.2938074	0.07218407	0.04377824	0.02560397	-0.0069291	
0.5331545	-0.2938074	0.03603528	0.03108177	0.02593952	-0.008140888	0.08163162	0.03893628	
0.07218407	0.04377824	0.02593952	-0.008140888	0.0211447	0.02608545	0.5487021	-0.2657967	
0.02560397	-0.0069291	0.08163162	0.03893628	0.5487021	-0.2657967	0.03768754	0.01766938	

1.46e+09	0.07703554	0.01027682	0.2624467	-0.5397682	0.1308482	0.03629972	0.01468414	-0.01521331	
0.2624467	-0.5397682	0.07744415	0.01026888	0.01368552	-0.01630861	0.1357651	0.026929	
0.1308482	0.03629972	0.01368552	-0.01630861	0.06569963	0.01539398	0.2909331	-0.5260258	
0.01468414	-0.01521331	0.1357651	0.026929	0.2909331	-0.5260258	0.07421657	-0.0007133048	

1.48e+09	0.09869513	-0.03899648	-0.09104885	-0.5857054	0.1615612	-0.02012666	0.008256243	-0.01671626	
-0.09104885	-0.5857054	0.09900858	-0.03926425	0.006685701	-0.01649131	0.1603193	-0.03063475	
0.1615612	-0.02012666	0.006685701	-0.01649131	0.09729853	-0.02886548	-0.06004822	-0.5903439	
0.008256243	-0.01671626	0.1603193	-0.03063475	-0.06004822	-0.5903439	0.09530767	-0.04669074	

1.5e+09	0.08104287	-0.09544421	-0.4048618	-0.4285787	0.1356469	-0.07819269	0.002958107	-0.02249332	
-0.4048618	-0.4285787	0.08114959	-0.09587813	0.002241393	-0.02108118	0.1286714	-0.08631375	
0.1356469	-0.07819269	0.002241393	-0.02108118	0.09032504	-0.08867854	-0.3815422	-0.4497399	
0.002958107	-0.02249332	0.1286714	-0.08631375	-0.3815422	-0.4497399	0.07877031	-0.1023851	

1.52e+09	0.02736287	-0.1267296	-0.5779263	-0.1224204	0.07935771	-0.09210891	-0.01309017	-0.02703014	
-0.5779263	-0.1224204	0.02715134	-0.1272455	-0.01239515	-0.02573224	0.0687505	-0.09497858	
0.07935771	-0.09210891	-0.01239515	-0.02573224	0.04180526	-0.1293312	-0.5702446	-0.153757	
-0.01309017	-0.02703014	0.0687505	-0.09497858	-0.5702446	-0.153757	0.02429502	-0.1342595	

1.54e+09	-0.03225923	-0.1121319	-0.5463249	0.2325767	0.04216359	-0.06198131	-0.03344897	-0.01376618	
-0.5463249	0.2325767	-0.03292778	-0.1124585	-0.03220549	-0.01365052	0.03148383	-0.05816018	
0.04216359	-0.06198131	-0.03220549	-0.01365052	-0.02015416	-0.1239421	-0.5583569	0.2014613	
-0.03344897	-0.01376618	0.03148383	-0.05816018	-0.5583569	0.2014613	-0.03767363	-0.117834	

1.56e+09	-0.06152002	-0.06512387	-0.3123102	0.5072562	0.04476926	-0.02863004	-0.03614052	0.01443323	
-0.3123102	0.5072562	-0.06239321	-0.06481349	-0.03558776	0.01370364	0.03810752	-0.01905039	
0.04476926	-0.02863004	-0.03558776	0.01370364	-0.05557218	-0.08128279	-0.3409583	0.4885706	
-0.03614052	0.01443323	0.03810752	-0.01905039	-0.3409583	0.4885706	-0.06641669	-0.0659316	

1.58e+09	-0.05403227	-0.02088183	0.03938137	0.5943267	0.0596233	-0.02271309	-0.01640806	0.03477434	
0.03938137	0.5943267	-0.05448353	-0.0199058	-0.01664209	0.03431875	0.05981286	-0.01080515	
0.0596233	-0.02271309	-0.01664209	0.03431875	-0.05329591	-0.03747089	0.004743734	0.5960311	
-0.01640806	0.03477434	0.05981286	-0.01080515	0.004743734	0.5960311	-0.05316001	-0.01860595	

1.6e+09	-0.03127074	0.003623679	0.375842	0.4607128	0.05422498	-0.02684677	0.009585899	0.03512443	
0.375842	0.4607128	-0.03089784	0.004744592	0.009475887	0.03527336	0.06143417	-0.01714233	
0.05422498	-0.02684677	0.009475887	0.03527336	-0.03469585	-0.01275184	0.3485122	0.4824959	
0.009585899	0.03512443	0.06143417	-0.01714233	0.3485122	0.4824959	-0.02361287	0.0025485	

1.62e+09	-0.0075868	0.01621818	0.5716397	0.1564794	0.04060987	-0.007507535	0.02747638	0.01987643	
0.5716397	0.1564794	-0.006488771	0.01688621	0.02793685	0.01984855	0.05226477	-0.003789848	
0.04060987	-0.007507535	0.02793685	0.01984855	-0.01645389	0.001407703	0.5620864	0.1903104	
0.02747638	0.01987643	0.05226477	-0.003789848	0.5620864	0.1903104	0.001457911	0.00739618	

1.64e+09	0.02165143	0.0224701	0.5522334	-0.2033684	0.05719573	0.02843701	0.03059911	-0.0009863675	
0.5522334	-0.2033684	0.02304538	0.02230524	0.03089278	-0.001779644	0.06889859	0.024634	
0.05719573	0.02843701	0.03089278	-0.001779644	0.007727445	0.01382494	0.5642464	-0.1703131	
0.03059911	-0.0009863675	0.06889859	0.024634	0.5642464	-0.1703131	0.0256442	0.008277416	

1.66e+09	0.05840305	0.01105965	0.3290596	-0.4796091	0.107827	0.0363213	0.02130462	-0.01541234	
0.3290596	-0.4796091	0.05950635	0.009989447	0.02059354	-0.01631814	0.1151603	0.02645562	
0.107827	0.0363213	0.02059354	-0.01631814	0.04515042	0.01223579	0.3577782	-0.4598016	
0.02130462	-0.01541234	0.1151603	0.02645562	0.3577782	-0.4598016	0.05638086	-0.002425263	

1.68e+09	0.0850251	-0.02718076	-0.004853392	-0.5745295	0.147743	-0.004770523	0.01093919	-0.02029337	
-0.004853392	-0.5745295	0.08529907	-0.02882237	0.009593258	-0.02019971	0.1481545	-0.01702939	
0.147743	-0.004770523	0.009593258	-0.02019971	0.08002582	-0.0189114	0.02970933	-0.5745624	
0.01093919	-0.02029337	0.1481545	-0.01702939	0.02970933	-0.5745624	0.08094343	-0.03705025	

1.7e+09	0.07944133	-0.07924746	-0.3281746	-0.466599	0.1385213	-0.06179537	0.002918585	-0.02427417	
-0.3281746	-0.466599	0.07867243	-0.08087804	0.002166259	-0.02304541	0.131924	-0.07222331	
0.1385213	-0.06179537	0.002166259	-0.02304541	0.08552242	-0.07189929	-0.299531	-0.4859301	
0.002918585	-0.02427417	0.131924	-0.07222331	-0.299531	-0.4859301	0.07620999	-0.08737346	

1.72e+09	0.03750867	-0.1158387	-0.5352132	-0.1972384	0.09126874	-0.08685331	-0.01163066	-0.02779035	
-0.5352132	-0.1972384	0.03579434	-0.1169028	-0.01107819	-0.0264703	0.07974226	-0.0918689	
0.09126874	-0.08685331	-0.01107819	-0.0264703	0.05051404	-0.1166417	-0.5220444	-0.2298138	
-0.01163066	-0.02779035	0.07974226	-0.0918689	-0.5220444	-0.2298138	0.0339641	-0.1243138	

1.74e+09	-0.01794262	-0.1122956	-0.554022	0.1453449	0.05065825	-0.06712334	-0.03168193	-0.01740289	
-0.554022	0.1453449	-0.02028912	-0.1122003	-0.0303979	-0.01712134	0.03798994	-0.06461785	
0.05065825	-0.06712334	-0.0303979	-0.01712134	-0.005666292	-0.1226091	-0.561927	0.1101439	
-0.03168193	-0.01740289	0.03798994	-0.06461785	-0.561927	0.1101439	-0.02394765	-0.1194124	

1.76e+09	-0.05061911	-0.07348628	-0.3699417	0.4399428	0.04666498	-0.03408736	-0.03843523	0.009277161	
-0.3699417	0.4399428	-0.05277107	-0.07178657	-0.03764231	0.008531399	0.03754156	-0.0244693	
0.04666498	-0.03408736	-0.03764231	0.008531399	-0.04395622	-0.08889958	-0.3974438	0.4153203	
-0.03843523	0.009277161	0.03754156	-0.0244693	-0.3974438	0.4153203	-0.0571904	-0.07550963	

1.78e+09	-0.04664361	-0.03252693	-0.04701381	0.5730647	0.06330307	-0.02448122	-0.02243371	0.03276361	
-0.04701381	0.5730647	-0.04739475	-0.02948916	-0.02256693	0.03200252	0.06145172	-0.01109345	
0.06330307	-0.02448122	-0.02256693	0.03200252	-0.04496366	-0.04838666	-0.08422475	0.5691316	
-0.02243371	0.03276361	0.06145172	-0.01109345	-0.08422475	0.5691316	-0.04792723	-0.02970457	

1.8e+09	-0.02556634	-0.01261902	0.2927051	0.4937957	0.06438543	-0.0339351	0.003416859	0.03798563	
0.2927051	0.4937957	-0.0241761	-0.009459909	0.003029858	0.03785594	0.07075283	-0.02180291	
0.06438543	-0.0339351	0.003029858	0.03785594	-0.02683676	-0.02828993	0.2599553	0.5123777	
0.003416859	0.03798563	0.07075283	-0.02180291	0.2599553	0.5123777	-0.01840642	-0.01134143	

1.82e+09	-0.008516189	-0.007500109	0.5233733	0.232791	0.04708596	-0.02816363	0.02474315	0.0269108	
0.5233733	0.232791	-0.005241815	-0.00566461	0.02477397	0.02700197	0.05946198	-0.02190957	
0.04708596	-0.02816363	0.02477397	0.02700197	-0.01373146	-0.02330209	0.5073466	0.2670976	
0.02474315	0.0269108	0.05946198	-0.02190957	0.5073466	0.2670976	0.002967995	-0.01435335	

1.84e+09	0.005560022	-0.002994014	0.5591773	-0.1133493	0.04563239	0.002485021	0.03450986	0.006298885	
0.5591773	-0.1133493	0.0095906	-0.003502071	0.03468441	0.00596143	0.05947192	0.0003588447	
0.04563239	0.002485021	0.03468441	0.00596143	-0.005192179	-0.0156997	0.5660882	-0.07587121	
0.03450986	0.006298885	0.05947192	0.0003588447	0.5660882	-0.07587121	0.01358779	-0.0181104	

1.86e+09	0.02765466	-0.002286165	0.3871949	-0.4130858	0.0798336	0.02412447	0.02946156	-0.01439674	
0.3871949	-0.4130858	0.030837	-0.005281423	0.02907112	-0.01497197	0.08991786	0.01431367	
0.0798336	0.02412447	0.02907112	-0.01497197	0.01447333	-0.006953414	0.4146314	-0.3865959	
0.02946156	-0.01439674	0.08991786	0.01431367	0.4146314	-0.3865959	0.02828456	-0.01971764	

1.88e+09	0.05256874	-0.02006248	0.07812981	-0.5551491	0.1213747	0.004274769	0.01545806	-0.02575402	
0.07812981	-0.5551491	0.05345096	-0.02463784	0.0145255	-0.02574497	0.1239918	-0.009562203	
0.1213747	0.004274769	0.0145255	-0.02574497	0.04426431	-0.01642658	0.1155856	-0.5493008	
0.01545806	-0.02575402	0.1239918	-0.009562203	0.1155856	-0.5493008	0.04822543	-0.03461266	

1.9e+09	0.05947949	-0.05608985	-0.251233	-0.4964952	0.1277779	-0.04230799	0.001206341	-0.029098	
-0.251233	-0.4964952	0.05746393	-0.06060517	0.0005913618	-0.0282078	0.1220434	-0.05523299	
0.1277779	-0.04230799	0.0005913618	-0.0282078	0.06097786	-0.05042915	-0.2171702	-0.5128649	
0.001206341	-0.029098	0.1220434	-0.05523299	-0.2171702	-0.5128649	0.05399216	-0.06758158	

1.92e+09	0.03650446	-0.08867187	-0.4885983	-0.2638536	0.09477047	-0.07130581	-0.0143986	-0.02816157	
-0.4885983	-0.2638536	0.0319887	-0.09145283	-0.01401489	-0.02708372	0.08256936	-0.07881956	
0.09477047	-0.07130581	-0.01401489	-0.02708372	0.04576101	-0.08865654	-0.469526	-0.296822	
-0.0143986	-0.02816157	0.08256936	-0.07881956	-0.469526	-0.296822	0.03021597	-0.09894932	

1.94e+09	-0.003126562	-0.0930725	-0.5526716	0.06404404	0.05875593	-0.06021154	-0.03169911	-0.01663535	
-0.5526716	0.06404404	-0.008894253	-0.09279472	-0.03062453	-0.01633138	0.04414052	-0.05940493	
0.05875593	-0.06021154	-0.03062453	-0.01633138	0.007028026	-0.1014468	-0.5558128	0.02533652	
-0.03169911	-0.01663535	0.04414052	-0.05940493	-0.5558128	0.02533652	-0.01188421	-0.1010133	

1.96e+09	-0.02862477	-0.06753403	-0.4151146	0.3718076	0.05416274	-0.03114118	-0.03776209	0.00799903	
-0.4151146	0.3718076	-0.03360842	-0.06363631	-0.03698971	0.007371134	0.04244753	-0.02184317	
0.05416274	-0.03114118	-0.03698971	0.007371134	-0.02279688	-0.08072375	-0.4405437	0.3414745	
-0.03776209	0.00799903	0.04244753	-0.02184317	-0.4405437	0.3414745	-0.03817494	-0.06926803	

1.98e+09	-0.02393433	-0.0391646	-0.1234656	0.5425593	0.07396231	-0.02259279	-0.02372286	0.03052828	
-0.1234656	0.5425593	-0.02582991	-0.03257755	-0.02378974	0.02973697	0.0697674	-0.007995003	
0.07396231	-0.02259279	-0.02378974	0.02973697	-0.02190676	-0.05247267	-0.1620286	0.5326303	
-0.02372286	0.03052828	0.0697674	-0.007995003	-0.1620286	0.5326303	-0.02777952	-0.03412181	

2e+09	-0.005849755	-0.03177909	0.2116793	0.5125057	0.08124077	-0.03975901	-0.0001055679	0.03710785	
0.2116793	0.5125057	-0.003349024	-0.02488768	-0.0005782343	0.03684946	0.08632862	-0.02528024	
0.08124077	-0.03975901	-0.0005782343	0.03684946	-0.004758237	-0.04485734	0.1743595	0.5267211	
-0.0001055679	0.03710785	0.08632862	-0.02528024	0.1743595	0.5267211	0.00107099	-0.02649236	

2.02e+09	0.00135137	-0.03973203	0.4670417	0.2960165	0.06150654	-0.04989416	0.02066687	0.02963297	
0.4670417	0.2960165	0.007783623	-0.03532257	0.02044494	0.02977318	0.07414352	-0.04089735	
0.06150654	-0.04989416	0.02044494	0.02977318	0.0009675154	-0.05471745	0.444457	0.3292411	
0.02066687	0.02963297	0.07414352	-0.04089735	0.444457	0.3292411	0.01632181	-0.04300589	

2.04e+09	-0.004679089	-0.0420062	0.5511425	-0.02773644	0.04199066	-0.03026012	0.03426888	0.01243426	
0.5511425	-0.02773644	0.00362364	-0.04215554	0.03433296	0.01242768	0.05770419	-0.03019524	
0.04199066	-0.03026012	0.03433296	0.01242768	-0.009895839	-0.05777767	0.5517302	0.01285579	
0.03426888	0.01243426	0.05770419	-0.03019524	0.5517302	0.01285579	0.009513842	-0.05704205	

2.06e+09	-0.006101236	-0.03162382	0.4321169	-0.3401279	0.05342155	-0.0003932951	0.03515965	-0.01071115	
0.4321169	-0.3401279	0.0009815934	-0.03689494	0.03503456	-0.01096708	0.06643153	-0.009546775	
0.05342155	-0.0003932951	0.03503456	-0.01096708	-0.01648463	-0.04301122	0.4563959	-0.3070323	
0.03515965	-0.01071115	0.06643153	-0.009546775	0.4563959	-0.3070323	-0.000133978	-0.05368083	

2.08e+09	0.007482857	-0.02439307	0.1555365	-0.5241081	0.08713181	0.002867928	0.02109291	-0.02900421	
0.1555365	-0.5241081	0.01031089	-0.03327824	0.02060627	-0.02903982	0.09249057	-0.0122479	
0.08713181	0.002867928	0.02060627	-0.02903982	-0.002641831	-0.02791125	0.1946629	-0.5112437	
0.02109291	-0.02900421	0.09249057	-0.0122479	0.1946629	-0.5112437	0.004553554	-0.04608458	

2.1e+09	0.02272099	-0.03453026	-0.1730719	-0.5151649	0.1047794	-0.02508375	0.0006530577	-0.03451382	
-0.1730719	-0.5151649	0.01974663	-0.0438543	0.0002653929	-0.03401696	0.1004405	-0.04063771	
0.1047794	-0.02508375	0.0002653929	-0.03401696	0.01917505	-0.03327785	-0.1336938	-0.527192	
0.0006530577	-0.03451382	0.1004405	-0.04063771	-0.1336938	-0.527192	0.01464086	-0.05231076	

2.12e+09	0.02147421	-0.05339992	-0.4359229	-0.321625	0.08861082	-0.05039729	-0.0183598	-0.02910977	
-0.4359229	-0.321625	0.01328934	-0.05962907	-0.01814955	-0.0284343	0.07601611	-0.06078068	
0.08861082	-0.05039729	-0.01814955	-0.0284343	0.02518278	-0.05428639	-0.4104061	-0.3541281	
-0.0183598	-0.02910977	0.07601611	-0.06078068	-0.4104061	-0.3541281	0.01049593	-0.06740268	

2.14e+09	0.005309094	-0.06015116	-0.5412307	-0.01228224	0.06303947	-0.04496893	-0.03293505	-0.01389199	
-0.5412307	-0.01228224	-0.005550313	-0.06058931	-0.03224914	-0.01367566	0.046509	-0.0462645	
0.06303947	-0.04496893	-0.03224914	-0.01367566	0.01117389	-0.06695198	-0.5389221	-0.05379158	
-0.03293505	-0.01389199	0.046509	-0.0462645	-0.5389221	-0.05379158	-0.008606139	-0.06928152	

2.16e+09	-0.004509128	-0.04836827	-0.4481446	0.3022773	0.06247656	-0.02133205	-0.03542599	0.009439369	
-0.4481446	0.3022773	-0.0141439	-0.04210065	-0.03490463	0.00902695	0.0480288	-0.01268617	
0.06247656	-0.02133205	-0.03490463	0.00902695	-0.001288157	-0.05865986	-0.4704092	0.2667954	
-0.03542599	0.009439369	0.0480288	-0.01268617	-0.4704092	0.2667954	-0.0189298	-0.04898135	

2.18e+09	0.005908514	-0.03719564	-0.1897898	0.5033267	0.08668208	-0.01624403	-0.02124936	0.02852898	
-0.1897898	0.5033267	0.00151518	-0.02595481	-0.02129739	0.02797708	0.07987719	-0.0006705317	
0.08668208	-0.01624403	-0.02129739	0.02797708	0.007149256	-0.04674242	-0.2285678	0.4872756	
-0.02124936	0.02852898	0.07987719	-0.0006705317	-0.2285678	0.4872756	-0.001620814	-0.02856105	

2.2e+09	0.02231222	-0.0467051	0.1338779	0.5171832	0.1003397	-0.04133449	-0.0006759011	0.0331231	
0.1338779	0.5171832	0.02535728	-0.0344983	-0.001037347	0.03293567	0.1037715	-0.02461088	
0.1003397	-0.04133449	-0.001037347	0.03293567	0.02514039	-0.05570571	0.09301454	0.5262227	
-0.0006759011	0.0331231	0.1037715	-0.02461088	0.09301454	0.5262227	0.02844382	-0.03581906	

2.22e+09	0.02040817	-0.07076602	0.4041628	0.3450656	0.08084029	-0.067022	0.01607796	0.0274558	
0.4041628	0.3450656	0.03028881	-0.06215357	0.01587079	0.02759568	0.09329198	-0.05518151	
0.08084029	-0.067022	0.01587079	0.02759568	0.02488248	-0.08307985	0.3755223	0.3756796	
0.01607796	0.0274558	0.09329198	-0.05518151	0.3755223	0.3756796	0.03895474	-0.06859226	

2.24e+09	-0.004740671	-0.08431784	0.5278901	0.05081329	0.04730629	-0.06204221	0.02923703	0.01567939	
0.5278901	0.05081329	0.00892022	-0.08281196	0.02928291	0.01577777	0.06452295	-0.05936515	
0.04730629	-0.06204221	0.02928291	0.01577777	-0.003160496	-0.1013007	0.5215125	0.09282979	
0.02923703	0.01567939	0.06452295	-0.05936515	0.5215125	0.09282979	0.01685442	-0.09735381	

2.26e+09	-0.03239451	-0.07085374	0.4607437	-0.2620261	0.03516144	-0.03151977	0.03554764	-0.004457308	
0.4607437	-0.2620261	-0.01970784	-0.07782751	0.03557158	-0.004554742	0.05109566	-0.03935037	
0.03516144	-0.03151977	0.03557158	-0.004554742	-0.03746955	-0.08827273	0.4800269	-0.223198	
0.03554764	-0.004457308	0.05109566	-0.03935037	0.4800269	-0.223198	-0.01853802	-0.09662985	

2.28e+09	-0.03814786	-0.04176259	0.224796	-0.479126	0.05352635	-0.009085787	0.02621102	-0.02676114	
0.224796	-0.479126	-0.03154776	-0.05544394	0.02603053	-0.02683235	0.06214379	-0.02496527	
0.05352635	-0.009085787	0.02603053	-0.02683235	-0.04774591	-0.05370196	0.2636742	-0.4584879	
0.02621102	-0.02676114	0.06214379	-0.02496527	0.2636742	-0.4584879	-0.03696447	-0.07170945	

2.3e+09	-0.02217654	-0.02242565	-0.09263696	-0.5195357	0.07558371	-0.01476319	0.003691614	-0.03718219	
-0.09263696	-0.5195357	-0.02488175	-0.03803779	0.003493027	-0.03700752	0.0733666	-0.03293994	
0.07558371	-0.01476319	0.003493027	-0.03700752	-0.02999035	-0.02789803	-0.04872291	-0.5255162	
0.003691614	-0.03718219	0.0733666	-0.03293994	-0.04872291	-0.5255162	-0.03163652	-0.04903387	

2.32e+09	-0.004469528	-0.02099144	-0.3742087	-0.370052	0.07536095	-0.03059325	-0.01924232	-0.03103468	
-0.3742087	-0.370052	-0.01617183	-0.03257793	-0.01918765	-0.03074247	0.06288645	-0.04429251	
0.07536095	-0.03059325	-0.01918765	-0.03074247	-0.007016449	-0.02471327	-0.341897	-0.4004514	
-0.01924232	-0.03103468	0.06288645	-0.04429251	-0.341897	-0.4004514	-0.0207118	-0.04116294	

2.34e+09	0.004139468	-0.02459407	-0.5179898	-0.08575266	0.06261464	-0.02819532	-0.03342194	-0.01296352	
-0.5179898	-0.08575266	-0.01273847	-0.02736761	-0.03315119	-0.01286516	0.04429024	-0.03218938	
0.06261464	-0.02819532	-0.03315119	-0.01286516	0.004423458	-0.03082624	-0.5092468	-0.1292376	
-0.03342194	-0.01296352	0.04429024	-0.03218938	-0.5092468	-0.1292376	-0.01646946	-0.03637419	

2.36e+09	0.01286502	-0.02355697	-0.4700194	0.2291422	0.06726365	-0.01010195	-0.03337037	0.01000524	
-0.4700194	0.2291422	-0.00302713	-0.01573445	-0.03318591	0.009836415	0.04986002	-0.002623612	
0.06726365	-0.01010195	-0.03318591	0.009836415	0.01223819	-0.03127478	-0.4880972	0.1886347	
-0.03337037	0.01000524	0.04986002	-0.002623612	-0.4880972	0.1886347	-0.008140372	-0.02358785	

2.38e+09	0.03144837	-0.02807663	-0.2487523	0.4552982	0.09490571	-0.007815844	-0.01876663	0.02631956	
-0.2487523	0.4552982	0.0228208	-0.01202899	-0.01882441	0.02613914	0.08505533	0.008439428	
0.09490571	-0.007815844	-0.01882441	0.02613914	0.03071436	-0.03389224	-0.2866892	0.4328118	
-0.01876663	0.02631956	0.08505533	0.008439428	-0.2866892	0.4328118	0.01856717	-0.01578626	

2.4e+09	0.04851313	-0.05272623	0.05786281	0.51031	0.1147085	-0.0374593	-0.0006149229	0.02859339	
0.05786281	0.51031	0.05074668	-0.03423165	-0.0007470302	0.02860425	0.1159991	-0.01853145	
0.1147085	-0.0374593	-0.0007470302	0.02860425	0.05176063	-0.05728663	0.01434111	0.5134197	
-0.0006149229	0.02859339	0.1159991	-0.01853145	0.01434111	0.5134197	0.05222249	-0.0355637	

2.42e+09	0.04179715	-0.09115414	0.3363386	0.3825364	0.0991566	-0.07479043	0.01176647	0.02337673	
0.3363386	0.3825364	0.05443512	-0.07686725	0.0117759	0.02348726	0.1109536	-0.05989982	
0.0991566	-0.07479043	0.0117759	0.02348726	0.0498764	-0.09964431	0.3021245	0.4093876	
0.01176647	0.02337673	0.1109536	-0.05989982	0.3021245	0.4093876	0.06256463	-0.08199711	

2.44e+09	0.00434813	-0.1173495	0.492623	0.1221035	0.05880564	-0.08456298	0.02196914	0.01658923	
0.492623	0.1221035	0.02345757	-0.1125107	0.02209907	0.01659124	0.07715223	-0.07882654	
0.05880564	-0.08456298	0.02209907	0.01659124	0.01228676	-0.1334857	0.4790466	0.1639956	
0.02196914	0.01658923	0.07715223	-0.07882654	0.4790466	0.1639956	0.03290991	-0.1259825	

2.46e+09	-0.04419599	-0.1081371	0.4742059	-0.1815465	0.02846693	-0.06002149	0.03151781	0.002673494	
0.4742059	-0.1815465	-0.02492787	-0.115296	0.03157674	0.002530787	0.04725377	-0.06580662	
0.02846693	-0.06002149	0.03157674	0.002530787	-0.04281224	-0.1295281	0.4870745	-0.138269	
0.03151781	0.002673494	0.04725377	-0.06580662	0.4870745	-0.138269	-0.02114714	-0.1351354	

2.48e+09	-0.07111202	-0.06705946	0.2842644	-0.4218522	0.02944424	-0.02690891	0.02959539	-0.01944719	
0.2842644	-0.4218522	-0.05895914	-0.08473637	0.02949586	-0.01957252	0.04181497	-0.0428449	
0.02944424	-0.02690891	0.02949586	-0.01957252	-0.07790625	-0.08676698	0.3207458	-0.3933433	
0.02959539	-0.01944719	0.04181497	-0.0428449	0.3207458	-0.3933433	-0.06304379	-0.1041797	

2.5e+09	-0.06215302	-0.02357249	-0.01122078	-0.5089463	0.04921385	-0.01333699	0.01036646	-0.03562123	
-0.01122078	-0.5089463	-0.06254778	-0.04584515	0.01022915	-0.03560993	0.05004475	-0.03394147	
0.04921385	-0.01333699	0.01022915	-0.03560993	-0.07236061	-0.03669476	0.03574773	-0.507272	
0.01036646	-0.03562123	0.05004475	-0.03394147	0.03574773	-0.507272	-0.07030548	-0.05994053	

2.52e+09	-0.03324881	-0.001393538	-0.3031391	-0.408475	0.06047618	-0.01789779	-0.0149098	-0.0336935	
-0.3031391	-0.408475	-0.04696962	-0.01985041	-0.01495455	-0.03362004	0.04895493	-0.03540492	
0.06047618	-0.01789779	-0.01495455	-0.03362004	-0.04126961	-0.0093838	-0.2639707	-0.4348391	
-0.0149098	-0.0336935	0.04895493	-0.03540492	-0.2639707	-0.4348391	-0.0532928	-0.02979655	

2.54e+09	-0.005380961	0.001438805	-0.4826382	-0.1572844	0.0588686	-0.01702495	-0.03174013	-0.01622128	
-0.4826382	-0.1572844	-0.02789613	-0.005771933	-0.03174595	-0.0162033	0.03905968	-0.02462291	
0.0588686	-0.01702495	-0.03174595	-0.0162033	-0.01052909	-0.00547176	-0.4662607	-0.2014792	
-0.03174013	-0.01622128	0.03905968	-0.02462291	-0.4662607	-0.2014792	-0.03243372	-0.01517926	

2.56e+09	0.01816729	-0.003524453	-0.4821681	0.1511023	0.0663213	-0.00386808	-0.03310412	0.006813366	
-0.4821681	0.1511023	-0.004861939	0.003906306	-0.0331815	0.006829291	0.04563424	0.001562962	
0.0663213	-0.00386808	-0.0331815	0.006829291	0.01355878	-0.009906095	-0.4945411	0.1058399	
-0.03310412	0.006813366	0.04563424	0.001562962	-0.4945411	0.1058399	-0.01005627	-0.00500292	

2.58e+09	0.04308937	-0.01747751	-0.3029678	0.3990007	0.09379182	-0.001572561	-0.01987347	0.0234257	
-0.3029678	0.3990007	0.02843919	0.002287064	-0.01995836	0.02356743	0.0801148	0.01490771	
0.09379182	-0.001572561	-0.01995836	0.02356743	0.03971624	-0.02092848	-0.3388497	0.3695305	
-0.01987347	0.0234257	0.0801148	0.01490771	-0.3388497	0.3695305	0.02332402	-0.003196197	

2.6e+09	0.06219881	-0.0498449	-0.01780407	0.4949799	0.118309	-0.02957672	-0.002675732	0.02632838	
-0.01780407	0.4949799	0.0615941	-0.02500451	-0.002594243	0.02655357	0.1166132	-0.008324777	
0.118309	-0.02957672	-0.002594243	0.02655357	0.06432435	-0.0510304	-0.06341435	0.4912842	
-0.002675732	0.02632838	0.1166132	-0.008324777	-0.06341435	0.4912842	0.06111969	-0.02719051	

2.62e+09	0.05644074	-0.09599735	0.2653423	0.412236	0.1102244	-0.07175024	0.008342871	0.02157619	
0.2653423	0.412236	0.07018632	-0.07496077	0.008619091	0.02166873	0.1208102	-0.05331135	
0.1102244	-0.07175024	0.008619091	0.02166873	0.06590586	-0.1006763	0.2257781	0.434456	
0.008342871	0.02157619	0.1208102	-0.05331135	0.2257781	0.434456	0.07673991	-0.07925584	

2.64e+09	0.01665485	-0.1320035	0.4501504	0.1872689	0.07112449	-0.09305053	0.01644144	0.01720258	
0.4501504	0.1872689	0.04029844	-0.1221229	0.01670905	0.01703534	0.09036447	-0.0835935	
0.07112449	-0.09305053	0.01670905	0.01703534	0.02894569	-0.1458657	0.4293485	0.2280388	
0.01644144	0.01720258	0.09036447	-0.0835935	0.4293485	0.2280388	0.05008301	-0.1341243	

2.66e+09	-0.04160621	-0.1315576	0.4766765	-0.1021558	0.03149428	-0.07784543	0.02695232	0.008410196	
0.4766765	-0.1021558	-0.01573457	-0.1368685	0.02699428	0.008102267	0.05320588	-0.08086281	
0.03149428	-0.07784543	0.02699428	0.008102267	-0.03448113	-0.1543863	0.4824348	-0.05561654	
0.02695232	0.008410196	0.05320588	-0.08086281	0.4824348	-0.05561654	-0.009939288	-0.1565849	

2.68e+09	-0.08390524	-0.09019804	0.3336017	-0.3576439	0.01899229	-0.04286056	0.03124085	-0.01114711	
0.3336017	-0.3576439	-0.0650312	-0.1100056	0.03106268	-0.01135196	0.03562016	-0.05815644	
0.01899229	-0.04286056	0.03106268	-0.01135196	-0.08681371	-0.1152894	0.3660144	-0.321812	
0.03124085	-0.01114711	0.03562016	-0.05815644	0.3660144	-0.321812	-0.06741695	-0.1314613	

2.7e+09	-0.08540228	-0.03469563	0.06716245	-0.4861325	0.0333194	-0.01789117	0.01789278	-0.03146885	
0.06716245	-0.4861325	-0.08132741	-0.0626984	0.01769242	-0.03147987	0.03816223	-0.04063296	
0.0333194	-0.01789117	0.01769242	-0.03147987	-0.0959425	-0.0544365	0.115492	-0.4758965	
0.01789278	-0.03146885	0.03816223	-0.04063296	0.115492	-0.4758965	-0.08925207	-0.07949276	

2.72e+09	-0.05427382	0.00162029	-0.2265112	-0.4362387	0.05062253	-0.0141836	-0.007321497	-0.03611535	
-0.2265112	-0.4362387	-0.06761831	-0.02423749	-0.007422976	-0.03606604	0.04107346	-0.03594064	
0.05062253	-0.0141836	-0.007422976	-0.03606604	-0.06586409	-0.01083288	-0.1810006	-0.4566895	
-0.007321497	-0.03611535	0.04107346	-0.03594064	-0.1810006	-0.4566895	-0.07518568	-0.03558828	

2.74e+09	-0.01687929	0.009950599	-0.4370219	-0.224406	0.05593158	-0.0155091	-0.02808545	-0.02246048	
-0.4370219	-0.224406	-0.04334712	-0.003571399	-0.02817935	-0.02245505	0.03515563	-0.02776424	
0.05593158	-0.0155091	-0.02817935	-0.02245505	-0.02593327	0.00154072	-0.4122533	-0.2676181	
-0.02808545	-0.02246048	0.03515563	-0.02776424	-0.4122533	-0.2676181	-0.04825003	-0.01333558	

2.76e+09	0.01286221	0.002275825	-0.4846473	0.07044325	0.06164589	-0.007562283	-0.03432179	0.0001198061	
-0.4846473	0.07044325	-0.01702534	0.006788976	-0.03450646	0.0001927224	0.03737616	-0.005349169	
0.06164589	-0.007562283	-0.03450646	0.0001927224	0.005538065	-0.004230955	-0.4897546	0.02112623	
-0.03432179	0.0001198061	0.03737616	-0.005349169	-0.4897546	0.02112623	-0.02151753	-0.003292646	

2.78e+09	0.03764246	-0.01402978	-0.3516874	0.3360797	0.08307947	-0.002954916	-0.02498515	0.01968964	
-0.3516874	0.3360797	0.01572957	0.007266748	-0.02511973	0.01997398	0.06457057	0.01305959	
0.08307947	-0.002954916	-0.02511973	0.01997398	0.03209365	-0.01735587	-0.3841765	0.2991809	
-0.02498515	0.01968964	0.06457057	0.01305959	-0.3841765	0.2991809	0.01056001	-0.0007964392	

2.8e+09	0.05652074	-0.04395902	-0.09239054	0.472665	0.1081809	-0.0226179	-0.007873979	0.02713777	
-0.09239054	0.472665	0.05091546	-0.01377905	-0.007712391	0.02751142	0.102334	0.001105135	
0.1081809	-0.0226179	-0.007712391	0.02751142	0.05652768	-0.04421354	-0.1395833	0.4611583	
-0.007873979	0.02713777	0.102334	0.001105135	-0.1395833	0.4611583	0.04851893	-0.01830185	

2.82e+09	0.05544781	-0.08724046	0.1929565	0.435924	0.1087758	-0.06097474	0.005898496	0.02424994	
0.1929565	0.435924	0.06809347	-0.05914895	0.006345433	0.02438492	0.1174442	-0.03819845	
0.1087758	-0.06097474	0.006345433	0.02438492	0.06390789	-0.08967829	0.1480113	0.4527609	
0.005898496	0.02424994	0.1174442	-0.03819845	0.1480113	0.4527609	0.07206949	-0.0638784	

2.84e+09	0.02291776	-0.125647	0.4041429	0.2468351	0.07752444	-0.08749612	0.01524815	0.019266	
0.4041429	0.2468351	0.04944682	-0.1094158	0.01565851	0.01900272	0.09759377	-0.07342474	
0.07752444	-0.08749612	0.01565851	0.01900272	0.03655194	-0.1371219	0.3760563	0.2859081	
0.01524815	0.019266	0.09759377	-0.07342474	0.3760563	0.2859081	0.0579149	-0.1203168	

2.86e+09	-0.03180294	-0.1332884	0.4721352	-0.02688501	0.03796998	-0.08068301	0.02558724	0.01128425	
0.4721352	-0.02688501	-0.0001153167	-0.13484	0.02565166	0.01081933	0.06295027	-0.08025749	
0.03796998	-0.08068301	0.02565166	0.01081933	-0.02134808	-0.1556226	0.470639	0.02215032	
0.02558724	0.01128425	0.06295027	-0.08025749	0.470639	0.02215032	0.006175755	-0.153696	

2.88e+09	-0.0778495	-0.09982226	0.3731508	-0.292535	0.01985646	-0.04911932	0.03207315	-0.00646883	
0.3731508	-0.292535	-0.05199594	-0.1196396	0.03180288	-0.006777317	0.04128637	-0.063338	
0.01985646	-0.04911932	0.03180288	-0.006777317	-0.07763151	-0.1273307	0.4006878	-0.250222	
0.03207315	-0.00646883	0.04128637	-0.063338	0.4006878	-0.250222	-0.05328652	-0.1416914	

2.9e+09	-0.08609962	-0.04605019	0.1377649	-0.4555235	0.03103006	-0.02122367	0.02269065	-0.02817512	
0.1377649	-0.4555235	-0.07612727	-0.07801051	0.02237857	-0.02818013	0.04061189	-0.04592761	
0.03103006	-0.02122367	0.02237857	-0.02818013	-0.09588864	-0.06974391	0.1859648	-0.4368119	
0.02269065	-0.02817512	0.04061189	-0.04592761	0.1859648	-0.4368119	-0.08394752	-0.09616307	

2.92e+09	-0.0578821	-0.007692277	-0.1507858	-0.4524875	0.05171586	-0.01589012	-0.001232086	-0.03731767	
-0.1507858	-0.4524875	-0.06855724	-0.04017406	-0.001369869	-0.03719879	0.04494112	-0.04215974	
0.05171586	-0.01589012	-0.001369869	-0.03719879	-0.07093645	-0.02304865	-0.1002337	-0.4659612	
-0.001232086	-0.03731767	0.04494112	-0.04215974	-0.1002337	-0.4659612	-0.07669104	-0.05209961	

2.94e+09	-0.02063867	-0.0003098063	-0.3848128	-0.28195	0.05991053	-0.0233196	-0.02438853	-0.02759531	
-0.3848128	-0.28195	-0.048647	-0.02083003	-0.02445141	-0.02755966	0.03871505	-0.04098871	
0.05991053	-0.0233196	-0.02445141	-0.02755966	-0.0311211	-0.009794534	-0.3517262	-0.3226367	
-0.02438853	-0.02759531	0.03871505	-0.04098871	-0.3517262	-0.3226367	-0.0530571	-0.0303615	

2.96e+09	0.004661486	-0.01181572	-0.4762476	-0.007065794	0.05897161	-0.02349866	-0.03519808	-0.006415616	
-0.4762476	-0.007065794	-0.03049131	-0.01222035	-0.03537961	-0.006378547	0.03106942	-0.02551889	
0.05897161	-0.02349866	-0.03537961	-0.006378547	-0.002821047	-0.01922715	-0.4731229	-0.05918215	
-0.03519808	-0.006415616	0.03106942	-0.02551889	-0.4731229	-0.05918215	-0.03298383	-0.02320724	

2.98e+09	0.01896581	-0.02679629	-0.3906863	0.2692146	0.06690683	-0.01741047	-0.03058382	0.01588702	
-0.3906863	0.2692146	-0.01014093	-0.00646795	-0.03080406	0.01615878	0.04279139	-0.002594895	
0.06690683	-0.01741047	-0.03080406	0.01615878	0.0133346	-0.03231053	-0.4182748	0.2251236	
-0.03058382	0.01588702	0.04279139	-0.002594895	-0.4182748	0.2251236	-0.01376792	-0.01781361	

3e+09	0.02941266	-0.04500037	-0.1616029	0.4425578	0.08418383	-0.02390099	-0.01367486	0.02924584	
-0.1616029	0.4425578	0.01756231	-0.01133029	-0.01360679	0.02976097	0.07321479	0.002456801	
0.08418383	-0.02390099	-0.01360679	0.02976097	0.02770447	-0.04787935	-0.209156	0.4226377	
-0.01367486	0.02924584	0.07321479	0.002456801	-0.209156	0.4226377	0.01409769	-0.02003148	

3.02e+09	0.03166092	-0.07020281	0.1214006	0.4496187	0.09013344	-0.04638794	0.004675578	0.02771133	
0.1214006	0.4496187	0.04176086	-0.03625995	0.005360994	0.02804215	0.09698899	-0.01887735	
0.09013344	-0.04638794	0.005360994	0.02804215	0.03678187	-0.07358637	0.07158814	0.4600939	
0.004675578	0.02771133	0.09698899	-0.01887735	0.07158814	0.4600939	0.04257789	-0.0433533	

3.04e+09	0.01624293	-0.101772	0.353371	0.2997653	0.07433893	-0.07113421	0.01582121	0.02324702	
0.353371	0.2997653	0.04299725	-0.07939585	0.01630188	0.02284006	0.0944524	-0.05232996	
0.07433893	-0.07113421	0.01630188	0.02284006	0.02809709	-0.1118757	0.3177052	0.336481	
0.01582121	0.02324702	0.0944524	-0.05232996	0.3177052	0.336481	0.04855936	-0.09052868	

3.06e+09	-0.02413415	-0.11248	0.4612116	0.04351612	0.04152462	-0.06929473	0.02798819	0.01238747	
0.4612116	0.04351612	0.01115326	-0.1089506	0.02808095	0.01185031	0.06942321	-0.0647246	
0.04152462	-0.06929473	0.02808095	0.01185031	-0.01371863	-0.133688	0.4524076	0.09468594	
0.02798819	0.01238747	0.06942321	-0.0647246	0.4524076	0.09468594	0.01586637	-0.1270934	

3.08e+09	-0.0601248	-0.08930669	0.4027207	-0.2292702	0.0264341	-0.04203519	0.03287717	-0.006725396	
0.4027207	-0.2292702	-0.02862686	-0.1066136	0.03261216	-0.007216209	0.05265137	-0.05439465	
0.0264341	-0.04203519	0.03261216	-0.007216209	-0.0594546	-0.1166862	0.425454	-0.1812171	
0.03287717	-0.006725396	0.05265137	-0.05439465	0.425454	-0.1812171	-0.03069346	-0.1283408	

3.1e+09	-0.06730394	-0.04907888	0.1983364	-0.4186002	0.03941664	-0.01817716	0.02383343	-0.02684329	
0.1983364	-0.4186002	-0.05054943	-0.0823923	0.02315858	-0.02678313	0.05440689	-0.0441617	
0.03941664	-0.01817716	0.02315858	-0.02678313	-0.07633389	-0.07309934	0.2452704	-0.3926976	
0.02383343	-0.02684329	0.05440689	-0.0441617	0.2452704	-0.3926976	-0.05910234	-0.09969816	

3.12e+09	-0.04172446	-0.01983008	-0.0798004	-0.4573299	0.06407679	-0.01675048	0.0009366529	-0.03739027	
-0.0798004	-0.4573299	-0.04809027	-0.05710903	0.0008121746	-0.03701409	0.0608416	-0.04724973	
0.06407679	-0.01675048	0.0008121746	-0.03701409	-0.05475676	-0.03562743	-0.0260086	-0.463601	
0.0009366529	-0.03739027	0.0608416	-0.04724973	-0.0260086	-0.463601	-0.05618701	-0.06791843	

3.14e+09	-0.0099315	-0.02259244	-0.3289142	-0.3267399	0.0739334	-0.0351995	-0.02228125	-0.02910054	
-0.3289142	-0.3267399	-0.0369177	-0.04925922	-0.02213805	-0.02896584	0.05328063	-0.05836201	
0.0739334	-0.0351995	-0.02213805	-0.02896584	-0.01963964	-0.03170021	-0.2888519	-0.3632667	
-0.02228125	-0.02910054	0.05328063	-0.05836201	-0.2888519	-0.3632667	-0.03980096	-0.05745846	

3.16e+09	0.00283253	-0.04291763	-0.4562741	-0.07684538	0.06381806	-0.04795254	-0.03434164	-0.009775994	
-0.4562741	-0.07684538	-0.0347305	-0.04906981	-0.0343217	-0.009867525	0.03324173	-0.05494487	
0.06381806	-0.04795254	-0.0343217	-0.009867525	-0.002123003	-0.05080166	-0.4447685	-0.1297224	
-0.03434164	-0.009775994	0.03324173	-0.05494487	-0.4447685	-0.1297224	-0.03378037	-0.06022054	

3.18e+09	-0.002611662	-0.05782505	-0.4160914	0.2003407	0.05310037	-0.04433899	-0.03334127	0.01223417	
-0.4160914	0.2003407	-0.03699544	-0.04102996	-0.03355421	0.0122459	0.02374369	-0.0321981	
0.05310037	-0.04433899	-0.03355421	0.0122459	-0.00544933	-0.06652318	-0.4372509	0.1503868	
-0.03334127	0.01223417	0.02374369	-0.0321981	-0.4372509	0.1503868	-0.0370509	-0.0557872	

3.2e+09	-0.009938106	-0.06092173	-0.2230875	0.402958	0.05478284	-0.03795607	-0.0193143	0.02988967	
-0.2230875	0.402958	-0.02828281	-0.02714119	-0.01948442	0.03021073	0.03771174	-0.01066211	
0.05478284	-0.03795607	-0.01948442	0.03021073	-0.01123928	-0.06905737	-0.2693136	0.3743757	
-0.0193143	0.02988967	0.03771174	-0.01066211	-0.2693136	0.3743757	-0.03097353	-0.04167549	

3.22e+09	-0.01189845	-0.06249236	0.05081013	0.4559275	0.05882414	-0.04251902	0.002944105	0.03496527	
0.05081013	0.4559275	-0.007140412	-0.02424541	0.003145803	0.03542259	0.06088475	-0.009990666	
0.05882414	-0.04251902	0.003145803	0.03542259	-0.009220495	-0.0707618	-0.003318574	0.459268	
0.002944105	0.03496527	0.06088475	-0.009990666	-0.003318574	0.459268	-0.009312699	-0.03661526	

3.24e+09	-0.01671772	-0.06750265	0.3035365	0.340658	0.04982206	-0.04933575	0.02291307	0.02495009	
0.3035365	0.340658	0.009640846	-0.03920913	0.0235421	0.02515236	0.07098497	-0.02387667	
0.04982206	-0.04933575	0.0235421	0.02515236	-0.0100532	-0.08053999	0.2612434	0.3744558	
0.02291307	0.02495009	0.07098497	-0.02387667	0.2612434	0.3744558	0.01035617	-0.0524514	

3.26e+09	-0.02546401	-0.06602584	0.4391404	0.1019084	0.03786345	-0.03877304	0.02937588	0.005830968	
0.4391404	0.1019084	0.01182893	-0.06022023	0.03008698	0.005146698	0.0698678	-0.03265415	
0.03786345	-0.03877304	0.03008698	0.005146698	-0.02058853	-0.08595565	0.4238242	0.1535143	
0.02937588	0.005830968	0.0698678	-0.03265415	0.4238242	0.1535143	0.01262085	-0.07767434	

3.28e+09	-0.03656602	-0.05967032	0.4185325	-0.1657003	0.03748165	-0.0230156	0.03011363	-0.008997297	
0.4185325	-0.1657003	-0.004654241	-0.07354688	0.02973498	-0.009734977	0.06485829	-0.03365669	
0.03748165	-0.0230156	0.02973498	-0.009734977	-0.03762929	-0.08412132	0.435301	-0.1136795	
0.03011363	-0.008997297	0.06485829	-0.03365669	0.435301	-0.1136795	-0.008797476	-0.09369589	

3.3e+09	-0.03301015	-0.03781359	0.2452596	-0.3781723	0.05666702	-0.006114983	0.01859035	-0.0288311	
0.2452596	-0.3781723	-0.01337951	-0.06588011	0.01818329	-0.02898216	0.0748419	-0.0289917	
0.05666702	-0.006114983	0.01818329	-0.02898216	-0.04335373	-0.05951824	0.290158	-0.3453193	
0.01859035	-0.0288311	0.0748419	-0.0289917	0.290158	-0.3453193	-0.02321761	-0.08204929	

3.32e+09	-0.01056246	-0.03352023	-0.01764515	-0.44455	0.08407416	-0.01915211	-0.003538505	-0.03013093	
-0.01764515	-0.44455	-0.006586885	-0.0689752	-0.004116042	-0.030005	0.08946801	-0.04952355	
0.08407416	-0.01915211	-0.004116042	-0.030005	-0.02220316	-0.04634157	0.03738132	-0.444511	
-0.003538505	-0.03013093	0.08946801	-0.04952355	0.03738132	-0.444511	-0.01534715	-0.07722579	

3.34e+09	0.006060244	-0.04702108	-0.2635714	-0.3527081	0.08739213	-0.04584688	-0.0149059	-0.02154291	
-0.2635714	-0.3527081	-0.01162698	-0.08473603	-0.01510352	-0.02080348	0.07420822	-0.07996104	
0.08739213	-0.04584688	-0.01510352	-0.02080348	-0.000906907	-0.05539158	-0.2191069	-0.383513	
-0.0149059	-0.02154291	0.07420822	-0.07996104	-0.2191069	-0.383513	-0.01260821	-0.09016877	

3.36e+09	0.01195384	-0.07801854	-0.4218236	-0.139015	0.0769506	-0.07019908	-0.02803646	-0.01121946	
-0.4218236	-0.139015	-0.02830609	-0.09246958	-0.02762238	-0.01117699	0.04208323	-0.08535889	
0.0769506	-0.07019908	-0.02762238	-0.01117699	0.0107211	-0.08536943	-0.402353	-0.1899337	
-0.02803646	-0.01121946	0.04208323	-0.08535889	-0.402353	-0.1899337	-0.02320107	-0.102784	

3.38e+09	-0.01624588	-0.09951261	-0.4245027	0.1291357	0.04831961	-0.07609254	-0.02988341	0.006888143	
-0.4245027	0.1291357	-0.05572667	-0.08760826	-0.02986245	0.006664105	0.01225731	-0.06772981	
0.04831961	-0.07609254	-0.02986245	0.006664105	-0.01412765	-0.1109441	-0.4376554	0.07591092	
-0.02988341	0.006888143	0.01225731	-0.06772981	-0.4376554	0.07591092	-0.05085698	-0.1049688	

3.4e+09	-0.04877799	-0.09135306	-0.2728211	0.3499499	0.02914891	-0.06243037	-0.02158147	0.02396865	
-0.2728211	0.3499499	-0.07374175	-0.05912055	-0.02181152	0.02397895	0.004637747	-0.0347398	
0.02914891	-0.06243037	-0.02181152	0.02397895	-0.04731496	-0.1059227	-0.3146233	0.313527	
-0.02158147	0.02396865	0.004637747	-0.0347398	-0.3146233	0.313527	-0.07377171	-0.07983373	

3.42e+09	-0.06338688	-0.06568491	-0.02075811	0.4434644	0.02381103	-0.04706229	-0.002734723	0.03388583	
-0.02075811	0.4434644	-0.06497899	-0.02506028	-0.002815943	0.03418522	0.01991108	-0.009992904	
0.02381103	-0.04706229	-0.002815943	0.03418522	-0.062483	-0.08116513	-0.07648803	0.4379407	
-0.002734723	0.03388583	0.01991108	-0.009992904	-0.07648803	0.4379407	-0.06892298	-0.04434976	

3.44e+09	-0.05945396	-0.0420179	0.2396134	0.3734369	0.02151752	-0.03557588	0.01964372	0.02894831	
0.2396134	0.3734369	-0.03711656	-0.008174187	0.01990557	0.0292177	0.04012107	-0.002917374	
0.02151752	-0.03557588	0.01990557	0.0292177	-0.05779116	-0.05953181	0.190854	0.4014854	
0.01964372	0.02894831	0.04012107	-0.002917374	0.190854	0.4014854	-0.04147087	-0.02562293	

3.46e+09	-0.04809199	-0.02607922	0.410851	0.1648779	0.01955792	-0.01869387	0.03379233	0.0101369	
0.410851	0.1648779	-0.01035448	-0.01172421	0.03418677	0.01008052	0.05396009	-0.002956095	
0.01955792	-0.01869387	0.03418677	0.01008052	-0.04819763	-0.04794593	0.387403	0.216122	
0.03379233	0.0101369	0.05396009	-0.002956095	0.387403	0.216122	-0.01498631	-0.02987486	

3.48e+09	-0.03158307	-0.01317264	0.4281924	-0.1038676	0.03182628	0.005769471	0.03232833	-0.01372456	
0.4281924	-0.1038676	0.007152146	-0.02354048	0.03251901	-0.01404394	0.06906996	-0.001621693	
0.03182628	0.005769471	0.03251901	-0.01404394	-0.03842784	-0.03707047	0.4389238	-0.04854371	
0.03232833	-0.01372456	0.06906996	-0.001621693	0.4389238	-0.04854371	-0.0008479194	-0.04183941	

3.5e+09	-0.003516035	-0.00755048	0.2859587	-0.3304226	0.06743992	0.01839256	0.0150625	-0.03053836	
0.2859587	-0.3304226	0.02149863	-0.03825377	0.01497653	-0.03082651	0.09326697	-0.009355317	
0.06743992	0.01839256	0.01497653	-0.03082651	-0.01753932	-0.0261111	0.3267808	-0.2918578	
0.0150625	-0.03053836	0.09326697	-0.009355317	0.3267808	-0.2918578	0.01004494	-0.05188459	

3.52e+09	0.03082624	-0.02450888	0.04176416	-0.4298057	0.1082633	-0.002817769	-0.007959746	-0.03027615	
0.04176416	-0.4298057	0.03323319	-0.0632677	-0.008124985	-0.03038649	0.1130834	-0.0400916	
0.1082633	-0.002817769	-0.008124985	-0.03038649	0.01687834	-0.0328417	0.09675527	-0.4221848	
-0.007959746	-0.03027615	0.1130834	-0.0400916	0.09675527	-0.4221848	0.02422722	-0.06948127	

3.54e+09	0.04843745	-0.06813545	-0.209716	-0.3711251	0.1216701	-0.0516008	-0.02161587	-0.01606507	
-0.209716	-0.3711251	0.02862151	-0.1004832	-0.0217098	-0.01611136	0.1044383	-0.08448194	
0.1216701	-0.0516008	-0.0217098	-0.01611136	0.04312438	-0.07001824	-0.1610206	-0.3959511	
-0.02161587	-0.01606507	0.1044383	-0.08448194	-0.1610206	-0.3959511	0.02829724	-0.1037503	

3.56e+09	0.02963314	-0.1184907	-0.3799576	-0.1835969	0.09596295	-0.09564859	-0.02236855	-0.001575932	
-0.3799576	-0.1835969	-0.004341505	-0.1336895	-0.02248324	-0.001694469	0.06342525	-0.1129162	
0.09596295	-0.09564859	-0.02248324	-0.001694469	0.03461146	-0.12292	-0.3538922	-0.2310517	
-0.02236855	-0.001575932	0.06342525	-0.1129162	-0.3538922	-0.2310517	0.00362414	-0.1421938	

3.58e+09	-0.02203632	-0.1451771	-0.4149827	0.06446523	0.0503205	-0.1094902	-0.01892738	0.007398512	
-0.4149827	0.06446523	-0.05842089	-0.1387744	-0.01922494	0.007310551	0.01355849	-0.1055628	
0.0503205	-0.1094902	-0.01922494	0.007310551	-0.01244788	-0.1582712	-0.4199546	0.01026347	
-0.01892738	0.007398512	0.01355849	-0.1055628	-0.4199546	0.01026347	-0.04895274	-0.1568798	

3.6e+09	-0.07995487	-0.1302703	-0.3047161	0.2894681	0.01185535	-0.09364757	-0.01482961	0.01609323	
-0.3047161	0.2894681	-0.1065311	-0.1043594	-0.01525078	0.01629164	-0.0167822	-0.06931636	
0.01185535	-0.09364757	-0.01525078	0.01629164	-0.07282788	-0.1514604	-0.3400513	0.2468804	
-0.01482961	0.01609323	-0.0167822	-0.06931636	-0.3400513	0.2468804	-0.1026136	-0.1294662	

3.62e+09	-0.1130529	-0.08256054	-0.08419147	0.4134449	-0.00798514	-0.06424566	-0.004120814	0.02481923	
-0.08419147	0.4134449	-0.1200998	-0.04566962	-0.004329711	0.02539657	-0.01778513	-0.02710619	
-0.00798514	-0.06424566	-0.004329711	0.02539657	-0.1114606	-0.1073359	-0.1386223	0.3987411	
-0.004120814	0.02481923	-0.01778513	-0.02710619	-0.1386223	0.3987411	-0.1236061	-0.07150789	

3.64e+09	-0.1097783	-0.02839059	0.17076	0.3872746	-0.01400874	-0.03192794	0.0134938	0.02417503	
0.17076	0.3872746	-0.09394514	0.005959913	0.01382983	0.02482691	-0.0001572848	0.004691864	
-0.01400874	-0.03192794	0.01382983	0.02482691	-0.1127506	-0.05380343	0.1173464	0.4074902	
0.0134938	0.02417503	-0.0001572848	0.004691864	0.1173464	0.4074902	-0.1016318	-0.01691617	

3.66e+09	-0.07917811	0.01143795	0.3638698	0.2162907	-0.004185082	0.0004443013	0.02748222	0.009882289	
0.3638698	0.2162907	-0.04617428	0.03000885	0.02825777	0.01010439	0.02891213	0.02229832	
-0.004185082	0.0004443013	0.02825777	0.01010439	-0.08678532	-0.01391629	0.3324218	0.2641929	
0.02748222	0.009882289	0.02891213	0.02229832	0.3324218	0.2641929	-0.05577519	0.00974436	

3.68e+09	-0.03449567	0.0288224	0.4199436	-0.03583796	0.02323857	0.02886889	0.02715532	-0.01122534	
0.4199436	-0.03583796	0.002845829	0.02443886	0.02786975	-0.01165074	0.06303603	0.0270759	
0.02323857	0.02886889	0.02786975	-0.01165074	-0.04807543	0.00570712	0.4226029	0.02111458	
0.02715532	-0.01122534	0.06303603	0.0270759	0.4226029	0.02111458	-0.008925584	0.006585318	

3.7e+09	0.01466113	0.02294967	0.3174231	-0.2707985	0.07002805	0.03875968	0.0113838	-0.02568537	
0.3174231	-0.2707985	0.04180214	-0.002142256	0.0115699	-0.0264535	0.1009959	0.01406123	
0.07002805	0.03875968	0.0115699	-0.0264535	-0.003799604	0.007505655	0.3524621	-0.2266939	
0.0113838	-0.02568537	0.1009959	0.01406123	0.3524621	-0.2266939	0.02813637	-0.01467622	

3.72e+09	0.05827886	-0.01140323	0.1006499	-0.3984957	0.1190051	0.01230869	-0.008738376	-0.02340921	
0.1006499	-0.3984957	0.06547769	-0.04663068	-0.009084256	-0.0240281	0.1296387	-0.02522503	
0.1190051	0.01230869	-0.009084256	-0.0240281	0.04219859	-0.01560638	0.1536655	-0.3831436	
-0.008738376	-0.02340921	0.1296387	-0.02522503	0.1536655	-0.3831436	0.05497962	-0.05164375	

3.74e+09	0.07616244	-0.0715363	-0.1434541	-0.3778442	0.1386347	-0.04478846	-0.01794537	-0.008861363	
-0.1434541	-0.3778442	0.06235725	-0.1034728	-0.01849408	-0.009096208	0.1261258	-0.08091539	
0.1386347	-0.04478846	-0.01849408	-0.009096208	0.07117172	-0.06891482	-0.09233203	-0.3948995	
-0.01794537	-0.008861363	0.1261258	-0.08091539	-0.09233203	-0.3948995	0.06124564	-0.1049691	

3.76e+09	0.0517569	-0.136208	-0.3279491	-0.2264059	0.1143632	-0.100807	-0.01366667	0.002706073	
-0.3279491	-0.2264059	0.0232679	-0.1544168	-0.01416394	0.002763454	0.08424628	-0.123357	
0.1143632	-0.100807	-0.01416394	0.002763454	0.05998434	-0.1368947	-0.2953964	-0.2684133	
-0.01366667	0.002706073	0.08424628	-0.123357	-0.2953964	-0.2684133	0.03206534	-0.1607634	

3.78e+09	-0.01161634	-0.1745238	-0.3952756	-0.001862706	0.06194561	-0.1264635	-0.007692321	0.004462671	
-0.3952756	-0.001862706	-0.04490219	-0.1739997	-0.008109135	0.004689362	0.02451887	-0.1285934	
0.06194561	-0.1264635	-0.008109135	0.004689362	0.003768449	-0.1865919	-0.3912348	-0.05491483	
-0.007692321	0.004462671	0.02451887	-0.1285934	-0.3912348	-0.05491483	-0.03249653	-0.1910561	

3.8e+09	-0.08797819	-0.164354	-0.3270148	0.2213224	0.009238921	-0.1156114	-0.00789072	0.00457225	
-0.3270148	0.2213224	-0.1154922	-0.1455061	-0.008233314	0.004996098	-0.02349551	-0.09645561	
0.009238921	-0.1156114	-0.008233314	0.004996098	-0.07467824	-0.1889046	-0.3536654	0.1741783	
-0.00789072	0.00457225	-0.02349551	-0.09645561	-0.3536654	0.1741783	-0.1077786	-0.1724148	

3.82e+09	-0.1411784	-0.1082126	-0.1442708	0.3696541	-0.02457267	-0.08037359	-0.007946464	0.01075472	
-0.1442708	0.3696541	-0.153553	-0.07669261	-0.00804402	0.01144124	-0.04128816	-0.04532739	
-0.02457267	-0.08037359	-0.00804402	0.01144124	-0.1364248	-0.1402398	-0.1943987	0.3454249	
-0.007946464	0.01075472	-0.04128816	-0.04532739	-0.1943987	0.3454249	-0.155055	-0.1072451	

3.84e+09	-0.1478615	-0.03386481	0.09434417	0.3884884	-0.03443097	-0.03675514	0.0007677679	0.01743811	
0.09434417	0.3884884	-0.1397695	-0.0003659166	0.001202591	0.0181923	-0.0278676	0.002560673	
-0.03443097	-0.03675514	0.001202591	0.0181923	-0.152736	-0.06688751	0.03825465	0.3982368	
0.0007677679	0.01743811	-0.0278676	0.002560673	0.03825465	0.3982368	-0.1489837	-0.02809691	

3.86e+09	-0.1117078	0.02585138	0.3034941	0.2636654	-0.02320644	0.004894595	0.01450946	0.01378534	
0.3034941	0.2636654	-0.08524601	0.04856433	0.01549404	0.01409948	0.005655534	0.03358008	
-0.02320644	0.004894595	0.01549404	0.01409948	-0.1242558	-0.004295681	0.2635289	0.3051074	
0.01450946	0.01378534	0.005655534	0.03358008	0.2635289	0.3051074	-0.09795969	0.02568097	

3.88e+09	-0.05296973	0.05403428	0.400344	0.03753771	0.007886921	0.03854845	0.02079269	-0.0007980477	
0.400344	0.03753771	-0.01820935	0.05671549	0.02182026	-0.00131746	0.04850812	0.04478396	
0.007886921	0.03854845	0.02182026	-0.00131746	-0.07185086	0.02927792	0.3926308	0.09448702	
0.02079269	-0.0007980477	0.04850812	0.04478396	0.3926308	0.09448702	-0.03247341	0.03804836	

3.9e+09	0.01035841	0.04855745	0.3447289	-0.2015402	0.05817736	0.05234821	0.01303077	-0.01498596	
0.3447289	-0.2015402	0.03959571	0.03040372	0.01339839	-0.01612756	0.09455695	0.03348252	
0.05817736	0.05234821	0.01339839	-0.01612756	-0.01251782	0.03326787	0.371622	-0.151588	
0.01303077	-0.01498596	0.09455695	0.03348252	0.371622	-0.151588	0.02435308	0.01708771	

3.92e+09	0.06404438	0.009984538	0.1616416	-0.3592831	0.1130875	0.03054511	-0.002002347	-0.01699142	
0.1616416	-0.3592831	0.07675302	-0.02104909	-0.002531407	-0.01803016	0.1312951	-0.005493255	
0.1130875	0.03054511	-0.002531407	-0.01803016	0.04415271	0.007106742	0.2114478	-0.3347748	
-0.002002347	-0.01699142	0.1312951	-0.005493255	0.2114478	-0.3347748	0.06424631	-0.0270819	

3.94e+09	0.08986073	-0.05622321	-0.07291793	-0.3804451	0.1433073	-0.0254521	-0.01028542	-0.007279789	
-0.07291793	-0.3804451	0.08266598	-0.0878243	-0.0112901	-0.007646844	0.1376398	-0.06453965	
0.1433073	-0.0254521	-0.0112901	-0.007646844	0.08201869	-0.05062611	-0.01939088	-0.3884163	
-0.01028542	-0.007279789	0.1376398	-0.06453965	-0.01939088	-0.3884163	0.0788799	-0.08926105	

3.96e+09	0.07169953	-0.1303294	-0.2718833	-0.2673656	0.1297057	-0.08847922	-0.006659433	0.001191023	
-0.2718833	-0.2673656	0.0487967	-0.1517473	-0.007539689	0.001499737	0.1036043	-0.1170292	
0.1297057	-0.08847922	-0.007539689	0.001499737	0.07950122	-0.1267505	-0.2325937	-0.3030125	
-0.006659433	0.001191023	0.1036043	-0.1170292	-0.2325937	-0.3030125	0.05574102	-0.1563403	

3.98e+09	0.009715083	-0.182091	-0.3713235	-0.06694546	0.08121335	-0.1271462	-0.001132746	-0.0002554831	
-0.3713235	-0.06694546	-0.02055629	-0.1873356	-0.001608746	0.0003829607	0.04407801	-0.1364682	
0.08121335	-0.1271462	-0.001608746	0.0003829607	0.02796828	-0.1905282	-0.3579875	-0.1181158	
-0.001132746	-0.0002554831	0.04407801	-0.1364682	-0.3579875	-0.1181158	-0.007794524	-0.2020697	

4e+09	-0.07402161	-0.1858193	-0.343682	0.1527297	0.02346812	-0.1288299	-0.004106455	-0.004806342	
-0.343682	0.1527297	-0.1022136	-0.1737321	-0.004220237	-0.004102568	-0.01289671	-0.1161663	
0.02346812	-0.1288299	-0.004220237	-0.004102568	-0.05552622	-0.2097136	-0.3609703	0.1018722	
-0.004106455	-0.004806342	-0.01289671	-0.1161663	-0.3609703	0.1018722	-0.09205353	-0.1997712	

4.02e+09	-0.1429891	-0.1367867	-0.1986389	0.3212474	-0.02141743	-0.1000738	-0.01172772	-0.0009848045	
-0.1986389	0.3212474	-0.1601323	-0.1107156	-0.01153765	-0.0002779444	-0.04515768	-0.06874599	
-0.02141743	-0.1000738	-0.01153765	-0.0002779444	-0.1333943	-0.1720949	-0.2427793	0.2880035	
-0.01172772	-0.0009848045	-0.04515768	-0.06874599	-0.2427793	0.2880035	-0.1589943	-0.142908	

4.04e+09	-0.1665396	-0.05757187	0.01951604	0.3807802	-0.04270264	-0.05521092	-0.01162718	0.01075558	
0.01951604	0.3807802	-0.165937	-0.02559944	-0.01104046	0.01138491	-0.04461046	-0.01483992	
-0.04270264	-0.05521092	-0.01104046	0.01138491	-0.1694744	-0.09635313	-0.03740849	0.3790686	
-0.01162718	0.01075558	-0.04461046	-0.01483992	-0.03740849	0.3790686	-0.174273	-0.05649026	

4.06e+09	-0.1392612	0.01539918	0.2373807	0.3032112	-0.03887692	-0.007796604	0.0001341358	0.0181685	
0.2373807	0.3032112	-0.1198036	0.04172002	0.001163913	0.0183872	-0.01652123	0.02717265	
-0.03887692	-0.007796604	0.001163913	0.0183872	-0.153033	-0.02012001	0.1894314	0.3359536	
0.0001341358	0.0181685	-0.01652123	0.02717265	0.1894314	0.3359536	-0.1332777	0.01629361	

4.08e+09	-0.08015652	0.05639767	0.3714505	0.1096268	-0.01210545	0.03227443	0.01374882	0.01264712	
0.3714505	0.1096268	-0.04852994	0.06635634	0.01484312	0.01205064	0.02717866	0.04774991	
-0.01210545	0.03227443	0.01484312	0.01205064	-0.1015968	0.02783185	0.3521105	0.1646859	
0.01374882	0.01264712	0.02717866	0.04774991	0.3521105	0.1646859	-0.06340266	0.04606473	

4.1e+09	-0.01274717	0.05986797	0.3652242	-0.127349	0.03488291	0.05440671	0.01742183	-0.001008503	
0.3652242	-0.127349	0.01860601	0.04918225	0.01784763	-0.002329406	0.07591222	0.04369202	
0.03488291	0.05440671	0.01784763	-0.002329406	-0.03863496	0.04153254	0.3819538	-0.07188788	
0.01742183	-0.001008503	0.07591222	0.04369202	0.3819538	-0.07188788	0.003277	0.03360259	

4.12e+09	0.04664128	0.02912321	0.2210445	-0.3133506	0.09126381	0.04473931	0.009866133	-0.01070082	
0.2210445	-0.3133506	0.06539039	0.002415813	0.009212389	-0.01199195	0.1179546	0.01226016	
0.09126381	0.04473931	0.009212389	-0.01199195	0.02252764	0.02390324	0.2662195	-0.2786899	
0.009866133	-0.01070082	0.1179546	0.01226016	0.2662195	-0.2786899	0.0515855	-0.006975641	

4.14e+09	0.08270042	-0.03065747	-0.0004026935	-0.3782398	0.1323173	-0.0008396532	0.0008183045	-0.01026243	
-0.0004026935	-0.3782398	0.08247628	-0.0624465	-0.0005236375	-0.01071421	0.1352228	-0.04201625	
0.1323173	-0.0008396532	-0.0005236375	-0.01071421	0.0695548	-0.02510848	0.05517191	-0.3758017	
0.0008183045	-0.01026243	0.1352228	-0.04201625	0.05517191	-0.3758017	0.07526076	-0.06643771	

4.16e+09	0.07918402	-0.1047608	-0.213233	-0.3056624	0.1349231	-0.06333762	-0.001169054	-0.006122589	
-0.213233	-0.3056624	0.06150842	-0.1300809	-0.002361949	-0.005583358	0.1143867	-0.09815909	
0.1349231	-0.06333762	-0.002361949	-0.005583358	0.08274904	-0.09810072	-0.1668343	-0.3341796	
-0.001169054	-0.006122589	0.1143867	-0.09815909	-0.1668343	-0.3341796	0.06437681	-0.1346964	

4.18e+09	0.03059007	-0.1661169	-0.3447311	-0.1299193	0.09870155	-0.1119667	-3.909349e-05	-0.007367996	
-0.3447311	-0.1299193	0.002465238	-0.1772129	-0.000536699	-0.006323866	0.06279126	-0.1292331	
0.09870155	-0.1119667	-0.000536699	-0.006323866	0.04785739	-0.1698256	-0.3218566	-0.1788489	
-3.909349e-05	-0.007367996	0.06279126	-0.1292331	-0.3218566	-0.1788489	0.01267091	-0.1898677	

4.2e+09	-0.04781736	-0.186642	-0.3562493	0.08598836	0.04422886	-0.1277397	-0.005299311	-0.01151623	
-0.3562493	0.08598836	-0.0773426	-0.1806279	-0.005120283	-0.01054012	0.004773398	-0.122417	
0.04422886	-0.1277397	-0.005120283	-0.01054012	-0.0268219	-0.2068281	-0.3640582	0.03197902	
-0.005299311	-0.01151623	0.004773398	-0.122417	-0.3640582	0.03197902	-0.06737406	-0.2043183	

4.22e+09	-0.1229964	-0.1544616	-0.2468376	0.2721285	-0.005333747	-0.1110019	-0.01635037	-0.007770721	
-0.2468376	0.2721285	-0.1447127	-0.1329304	-0.01578749	-0.007108431	-0.03574584	-0.08441667	
-0.005333747	-0.1110019	-0.01578749	-0.007108431	-0.109039	-0.1890135	-0.2843833	0.230618	
-0.01635037	-0.007770721	-0.03574584	-0.08441667	-0.2843833	0.230618	-0.1422277	-0.1640764	

4.24e+09	-0.1610944	-0.08443303	-0.04980362	0.3673897	-0.03556995	-0.07315591	-0.02126241	0.007073064	
-0.04980362	0.3673897	-0.1672314	-0.05356336	-0.02049264	0.007418232	-0.046113	-0.03307457	
-0.03556995	-0.07315591	-0.02049264	0.007418232	-0.160235	-0.1254147	-0.1060616	0.3544206	
-0.02126241	0.007073064	-0.046113	-0.03307457	-0.1060616	0.3544206	-0.174189	-0.08488238	

4.26e+09	-0.1490837	-0.01073876	0.1714628	0.3336735	-0.04164142	-0.02795023	-0.01137655	0.02237598	
0.1714628	0.3336735	-0.1360035	0.01896884	-0.01042754	0.0223314	-0.02692313	0.0120433	
-0.04164142	-0.02795023	-0.01042754	0.0223314	-0.160795	-0.04986665	0.1169019	0.3565656	
-0.01137655	0.02237598	-0.02692313	0.0120433	0.1169019	0.3565656	-0.1485849	-0.007215026	

4.28e+09	-0.1011955	0.03683215	0.3360624	0.1746598	-0.02495456	0.01334129	0.00770551	0.02490941	
0.3360624	0.1746598	-0.07254406	0.05367978	0.008624854	0.02423077	0.01108781	0.03778267	
-0.02495456	0.01334129	0.008624854	0.02423077	-0.1217228	0.004335738	0.3051693	0.2259288	
0.00770551	0.02490941	0.01108781	0.03778267	0.3051693	0.2259288	-0.08592085	0.03262111	

4.3e+09	-0.04197941	0.04974633	0.3763564	-0.05378395	0.01136433	0.04162661	0.02206537	0.01270763	
0.3763564	-0.05378395	-0.008513283	0.04638523	0.0223915	0.01140559	0.0553632	0.04018682	
0.01136433	0.04162661	0.0223915	0.01140559	-0.06784141	0.02661408	0.3816257	0.005817573	
0.02206537	0.01270763	0.0553632	0.04018682	0.3816257	0.005817573	-0.02148855	0.02842326	

4.32e+09	0.01260734	0.03303611	0.2738075	-0.2621228	0.06081209	0.04584017	0.02308544	-0.004437198	
0.2738075	-0.2621228	0.03760952	0.0105751	0.02236188	-0.005740723	0.09552127	0.01883231	
0.06081209	0.04584017	0.02236188	-0.005740723	-0.01381338	0.02219212	0.3125925	-0.2172979	
0.02308544	-0.004437198	0.09552127	0.01883231	0.3125925	-0.2172979	0.024871	-0.003735726	

4.34e+09	0.05276373	-0.009066372	0.07054406	-0.3691398	0.1061	0.01772288	0.01382863	-0.01526316	
0.07054406	-0.3691398	0.05979943	-0.041523	0.01233619	-0.01570412	0.118413	-0.02399671	
0.1061	0.01772288	0.01233619	-0.01570412	0.03404788	-0.00767864	0.1272046	-0.3552102	
0.01382863	-0.01526316	0.118413	-0.02399671	0.1272046	-0.3552102	0.05024171	-0.05104251	

4.36e+09	0.06499657	-0.0699324	-0.1527923	-0.3387126	0.1241209	-0.03432615	0.003763901	-0.01745888	
-0.1527923	-0.3387126	0.05231732	-0.09996753	0.002415055	-0.0167407	0.1104546	-0.07487337	
0.1241209	-0.03432615	0.002415055	-0.0167407	0.06164093	-0.06349754	-0.099181	-0.3590949	
0.003763901	-0.01745888	0.1104546	-0.07487337	-0.099181	-0.3590949	0.05013365	-0.1077918	

4.38e+09	0.03809655	-0.1304406	-0.3152722	-0.1892849	0.1052285	-0.08499967	-0.003328077	-0.01701049	
-0.3152722	-0.1892849	0.01114032	-0.1478509	-0.003780879	-0.01566416	0.0715734	-0.1103989	
0.1052285	-0.08499967	-0.003780879	-0.01566416	0.05033247	-0.1306501	-0.2825128	-0.2356315	
-0.003328077	-0.01701049	0.0715734	-0.1103989	-0.2825128	-0.2356315	0.01617334	-0.1604771	

4.4e+09	-0.02243573	-0.1634877	-0.364866	0.02218832	0.06180078	-0.1112808	-0.01184706	-0.01609247	
-0.364866	0.02218832	-0.0543929	-0.1630359	-0.01136616	-0.01493103	0.01992696	-0.1136259	
0.06180078	-0.1112808	-0.01136616	-0.01493103	-0.002884161	-0.1788267	-0.3632245	-0.03471863	
-0.01184706	-0.01609247	0.01992696	-0.1136259	-0.3632245	-0.03471863	-0.04788639	-0.1846311	

4.42e+09	-0.09074645	-0.1513264	-0.2887643	0.2244733	0.01568596	-0.1071176	-0.02279054	-0.008639113	
-0.2887643	0.2244733	-0.1174393	-0.1330682	-0.02185935	-0.008103374	-0.02071978	-0.08564532	
0.01568596	-0.1071176	-0.02185935	-0.008103374	-0.07519037	-0.1820646	-0.3197247	0.175407	
-0.02279054	-0.008639113	-0.02071978	-0.08564532	-0.3197247	0.175407	-0.1164331	-0.1616168	

4.44e+09	-0.134134	-0.1004546	-0.1113598	0.3510506	-0.01659861	-0.08071905	-0.02736318	0.008653838	
-0.1113598	0.3510506	-0.1463189	-0.06960253	-0.02645278	0.008620559	-0.03502891	-0.04177544	
-0.01659861	-0.08071905	-0.02645278	0.008620559	-0.1301204	-0.1396836	-0.1661854	0.3277111	
-0.02736318	0.008653838	-0.03502891	-0.04177544	-0.1661854	0.3277111	-0.153373	-0.09853935	

4.46e+09	-0.1353493	-0.03937383	0.1105165	0.35533	-0.02876999	-0.04524693	-0.01674937	0.02716193	
0.1105165	0.35533	-0.127473	-0.006122969	-0.0160018	0.02676885	-0.02148834	-0.001744011	
-0.02876999	-0.04524693	-0.0160018	0.02676885	-0.1434836	-0.07855496	0.05095668	0.3684531	
-0.01674937	0.02716193	-0.02148834	-0.001744011	0.05095668	0.3684531	-0.1389096	-0.03008408	

4.48e+09	-0.1040479	0.002960843	0.2981548	0.2285095	-0.0226832	-0.01127978	0.005667931	0.03316922	
0.2981548	0.2285095	-0.07761257	0.02602907	0.006209029	0.032432	0.009119947	0.02054257	
-0.0226832	-0.01127978	0.006209029	0.032432	-0.1206754	-0.0311863	0.2570756	0.2746882	
0.005667931	0.03316922	0.009119947	0.02054257	0.2570756	0.2746882	-0.08795886	0.006598222	

4.5e+09	-0.0632282	0.01803489	0.3774264	0.01299337	-0.001876175	0.01551296	0.02630268	0.02163757	
0.3774264	0.01299337	-0.0276682	0.02123055	0.02637528	0.02055183	0.04306426	0.02277538	
-0.001876175	0.01551296	0.02637528	0.02055183	-0.08521502	-0.009272362	0.3711986	0.07469845	
0.02630268	0.02163757	0.04306426	0.02277538	0.3711986	0.07469845	-0.03570175	0.002365049	

4.52e+09	-0.02627359	0.01384663	0.3146954	-0.2089723	0.03145065	0.02909407	0.03341977	-0.000286435	
0.3146954	-0.2089723	0.004611456	-0.004660001	0.03268296	-0.001329767	0.07223782	0.008558092	
0.03145065	0.02909407	0.03268296	-0.001329767	-0.0510391	-0.004241022	0.345556	-0.1553498	
0.03341977	-0.000286435	0.07223782	0.008558092	0.345556	-0.1553498	-0.003699604	-0.02403392	

4.54e+09	0.005258915	-0.00459201	0.1344742	-0.3513983	0.06962218	0.02061113	0.02478999	-0.02010034	
0.1344742	-0.3513983	0.01941068	-0.03770271	0.02340089	-0.02039161	0.0906274	-0.01971027	
0.06962218	0.02061113	0.02340089	-0.02039161	-0.01651665	-0.01134733	0.190374	-0.3257731	
0.02478999	-0.02010034	0.0906274	-0.01971027	0.190374	-0.3257731	0.01038999	-0.05511929	

4.56e+09	0.02601555	-0.03909878	-0.09255879	-0.3620663	0.09550832	-0.01150687	0.007634614	-0.02893266	
-0.09255879	-0.3620663	0.0183224	-0.07405401	0.006389902	-0.02812526	0.08931365	-0.05609806	
0.09550832	-0.01150687	0.006389902	-0.02812526	0.01525231	-0.03778687	-0.03265895	-0.3731435	
0.007634614	-0.02893266	0.08931365	-0.05609806	-0.03265895	-0.3731435	0.01184362	-0.08887028	

4.58e+09	0.02293963	-0.08380719	-0.2816399	-0.2414799	0.09433395	-0.05264586	-0.008894153	-0.0269882	
-0.2816399	-0.2414799	-0.003211984	-0.1078422	-0.009196677	-0.02555875	0.06405268	-0.08527296	
0.09433395	-0.05264586	-0.009196677	-0.02555875	0.0268496	-0.08408531	-0.2389859	-0.2843081	
-0.008894153	-0.0269882	0.06405268	-0.08527296	-0.2389859	-0.2843081	-0.005059573	-0.1238167	

4.6e+09	-0.009501009	-0.1187606	-0.3671573	-0.03722974	0.06844611	-0.0813054	-0.02165532	-0.01858053	
-0.3671573	-0.03722974	-0.04457241	-0.1237369	-0.02092119	-0.01744325	0.0253128	-0.09095438	
0.06844611	-0.0813054	-0.02092119	-0.01744325	0.004030413	-0.1302777	-0.3560283	-0.09659732	
-0.02165532	-0.01858053	0.0253128	-0.09095438	-0.3560283	-0.09659732	-0.04474888	-0.1449183	

4.62e+09	-0.05702916	-0.1237626	-0.3225893	0.1783728	0.03461093	-0.08662556	-0.0301495	-0.004366097	
-0.3225893	0.1783728	-0.08903187	-0.1080043	-0.02899505	-0.004074988	-0.006503682	-0.07022749	
0.03461093	-0.08662556	-0.02899505	-0.004074988	-0.04407162	-0.1491656	-0.3471054	0.1225075	
-0.0301495	-0.004366097	-0.006503682	-0.07022749	-0.3471054	0.1225075	-0.09294217	-0.133577	

4.64e+09	-0.09297579	-0.09732761	-0.1635672	0.3316815	0.009010592	-0.07331134	-0.02952151	0.01517199	
-0.1635672	0.3316815	-0.1106859	-0.06566824	-0.02863772	0.01473675	-0.01578256	-0.03612485	
0.009010592	-0.07331134	-0.02863772	0.01473675	-0.08849004	-0.1313897	-0.2165068	0.2992024	
-0.02952151	0.01517199	-0.01578256	-0.03612485	-0.2165068	0.2992024	-0.1203591	-0.09017121	

4.66e+09	-0.1001761	-0.05988296	0.05671582	0.3675499	-0.002703056	-0.05328548	-0.0149847	0.03219346	
0.05671582	0.3675499	-0.09642507	-0.02302505	-0.01459382	0.03151166	-0.00165121	-0.008022739	
-0.002703056	-0.05328548	-0.01459382	0.03151166	-0.1052265	-0.09494613	-0.00614493	0.3717492	
-0.0149847	0.03219346	-0.00165121	-0.008022739	-0.00614493	0.3717492	-0.1076995	-0.04194699	

4.68e+09	-0.08543366	-0.03507374	0.2597512	0.2686235	-0.004527451	-0.03476443	0.00875534	0.0357639	
0.2597512	0.2686235	-0.06053973	-0.006769221	0.008813608	0.03510141	0.02285364	0.001869796	
-0.004527451	-0.03476443	0.008813608	0.03510141	-0.09653668	-0.06719474	0.2107097	0.30897	
0.00875534	0.0357639	0.02285364	0.001869796	0.2107097	0.30897	-0.0673681	-0.02187623	

4.7e+09	-0.06865013	-0.02776433	0.3680348	0.0686897	-0.0008299254	-0.01788375	0.02946053	0.02285275	
0.3680348	0.0686897	-0.03146175	-0.01918927	0.02926138	0.02218566	0.04296684	-0.003982359	
-0.0008299254	-0.01788375	0.02926138	0.02218566	-0.08352523	-0.056785	0.3515032	0.1301366	
0.02946053	0.02285275	0.04296684	-0.003982359	0.3515032	0.1301366	-0.03294845	-0.03673455	

4.72e+09	-0.05880921	-0.02566867	0.3395321	-0.1570153	0.01042885	-0.001995258	0.03736187	-9.866761e-05	
0.3395321	-0.1570153	-0.02332061	-0.04049035	0.03674387	-0.0006712608	0.05414601	-0.01618074	
0.01042885	-0.001995258	0.03674387	-0.0006712608	-0.0775485	-0.05051467	0.3615738	-0.09723522	
0.03736187	-9.866761e-05	0.05414601	-0.01618074	0.3615738	-0.09723522	-0.02446794	-0.06367472	

4.74e+09	-0.04823687	-0.02123478	0.1857546	-0.3236643	0.03144481	0.006372375	0.02935003	-0.02283851	
0.1857546	-0.3236643	-0.02791103	-0.05412298	0.02834511	-0.02290676	0.05872707	-0.03048935	
0.03144481	0.006372375	0.02834511	-0.02290676	-0.06882607	-0.03849713	0.2383549	-0.2875183	
0.02935003	-0.02283851	0.05872707	-0.03048935	0.2383549	-0.2875183	-0.03313824	-0.08012141	

4.76e+09	-0.03050187	-0.02229948	-0.03514214	-0.3703163	0.05493349	-0.001124411	0.009260324	-0.0354267	
-0.03514214	-0.3703163	-0.03310384	-0.06096969	0.008392251	-0.03470266	0.05577319	-0.04678102	
0.05493349	-0.001124411	0.008392251	-0.03470266	-0.04672578	-0.0308568	0.02872029	-0.3712207	
0.009260324	-0.0354267	0.05577319	-0.04678102	0.02872029	-0.3712207	-0.0417154	-0.08552924	

4.78e+09	-0.01445914	-0.03804395	-0.2413307	-0.2812672	0.06715956	-0.02250517	-0.01335745	-0.03312741	
-0.2413307	-0.2812672	-0.03898413	-0.06807013	-0.01343934	-0.03193971	0.04159908	-0.06000954	
0.06715956	-0.02250517	-0.01343934	-0.03193971	-0.02038985	-0.04321312	-0.1897908	-0.3187564	
-0.01335745	-0.03312741	0.04159908	-0.06000954	-0.1897908	-0.3187564	-0.04787361	-0.09072361	

4.8e+09	-0.0143665	-0.06222814	-0.3579819	-0.09084932	0.06194421	-0.04417622	-0.0295268	-0.01885415	
-0.3579819	-0.09084932	-0.05172429	-0.0726488	-0.02872457	-0.01800492	0.01971047	-0.06003095	
0.06194421	-0.04417622	-0.02872457	-0.01800492	-0.01070468	-0.07265868	-0.3372943	-0.1510204	
-0.0295268	-0.01885415	0.01971047	-0.06003095	-0.3372943	-0.1510204	-0.06049937	-0.09570054	

4.82e+09	-0.03082549	-0.07773736	-0.3442993	0.1311998	0.04717751	-0.05437685	-0.03501057	0.001553084	
-0.3442993	0.1311998	-0.06751322	-0.0647881	-0.03393956	0.001529315	0.00365212	-0.04314872	
0.04717751	-0.05437685	-0.03393956	0.001529315	-0.02475152	-0.09781704	-0.3618153	0.06987113	
-0.03501057	0.001553084	0.00365212	-0.04314872	-0.3618153	0.06987113	-0.07883026	-0.088074	

4.84e+09	-0.04858424	-0.07626198	-0.2058754	0.3051079	0.03489787	-0.0539439	-0.02786742	0.02209536	
-0.2058754	0.3051079	-0.07129949	-0.04432824	-0.02725826	0.02141934	0.00577075	-0.01974082	
0.03489787	-0.0539439	-0.02725826	0.02141934	-0.0468782	-0.1031032	-0.2557361	0.26473	
-0.02786742	0.02209536	0.00577075	-0.01974082	-0.2557361	0.26473	-0.0856666	-0.06387718	

4.86e+09	-0.05445961	-0.06780677	0.007739656	0.3676485	0.02849939	-0.05173108	-0.009087652	0.0346894	
0.007739656	0.3676485	-0.05452293	-0.02835865	-0.009131051	0.03398263	0.02451022	-0.007010141	
0.02849939	-0.05173108	-0.009131051	0.03398263	-0.0580202	-0.09576501	-0.0564629	0.363511	
-0.009087652	0.0346894	0.02451022	-0.007010141	-0.0564629	0.363511	-0.06704836	-0.04111949	

4.88e+09	-0.05309642	-0.06720761	0.2181593	0.294933	0.02182171	-0.05197273	0.01347554	0.03280945	
0.2181593	0.294933	-0.03019737	-0.0348977	0.01314858	0.03244927	0.04440719	-0.01337265	
0.02182171	-0.05197273	0.01314858	0.03244927	-0.05878288	-0.09414538	0.1634322	0.3286126	
0.01347554	0.03280945	0.04440719	-0.01337265	0.1634322	0.3286126	-0.03448634	-0.04436351	

4.9e+09	-0.05969772	-0.07379952	0.3468452	0.1145133	0.01045367	-0.04888273	0.02954011	0.01821018	
0.3468452	0.1145133	-0.02232664	-0.06068202	0.0292541	0.01807193	0.05089345	-0.03057987	
0.01045367	-0.04888273	0.0292541	0.01807193	-0.06626811	-0.1016939	0.3214481	0.1732846	
0.02954011	0.01821018	0.05089345	-0.03057987	0.3214481	0.1732846	-0.01784017	-0.07517615	

4.92e+09	-0.07793034	-0.07191205	0.3478997	-0.1053817	0.0003722964	-0.03597007	0.03426391	-0.001995986	
0.3478997	-0.1053817	-0.03979559	-0.08268914	0.03396797	-0.002102921	0.04365568	-0.04417535	
0.0003722964	-0.03597007	0.03396797	-0.002102921	-0.08804909	-0.1013961	0.3605127	-0.04259229	
0.03426391	-0.001995986	0.04365568	-0.04417535	0.3605127	-0.04259229	-0.0334103	-0.1074663	

4.94e+09	-0.09289336	-0.05149163	0.2235835	-0.2849929	0.001450659	-0.01690387	0.02717381	-0.02151994	
0.2235835	-0.2849929	-0.06777557	-0.08230611	0.02673605	-0.02148021	0.03207916	-0.04829948	
0.001450659	-0.01690387	0.02673605	-0.02148021	-0.1085782	-0.07888666	0.2701182	-0.2403369	
0.02717381	-0.02151994	0.03207916	-0.04829948	0.2701182	-0.2403369	-0.0673139	-0.1151017	

4.96e+09	-0.08748494	-0.02257628	0.01940271	-0.3611792	0.01552489	-0.003082742	0.009492607	-0.03404228	
0.01940271	-0.3611792	-0.08464213	-0.06247199	0.00909437	-0.03362588	0.02254989	-0.04632848	
0.01552489	-0.003082742	0.00909437	-0.03362588	-0.1058363	-0.04319098	0.08374414	-0.3513579	
0.009492607	-0.03404228	0.02254989	-0.04632848	0.08374414	-0.3513579	-0.09274632	-0.09664741	

4.98e+09	-0.06223879	-0.005751806	-0.1918545	-0.306436	0.03384682	-0.002257241	-0.01303493	-0.03331256	
-0.1918545	-0.306436	-0.08310013	-0.04015428	-0.01298735	-0.03263578	0.01462758	-0.04160447	
0.03384682	-0.002257241	-0.01298735	-0.03263578	-0.07691614	-0.01959138	-0.1334142	-0.3359375	
-0.01303493	-0.03331256	0.01462758	-0.04160447	-0.1334142	-0.3359375	-0.09706176	-0.07098645	

5e+09	-0.03456704	-0.0106144	-0.3332551	-0.1395403	0.04611324	-0.01130175	-0.03051615	-0.01862714	
-0.3332551	-0.1395403	-0.07165798	-0.02663513	-0.02992192	-0.01820712	0.007736119	-0.03219355	
0.04611324	-0.01130175	-0.02992192	-0.01820712	-0.04214706	-0.02310353	-0.3027654	-0.1975963	
-0.03051615	-0.01862714	0.007736119	-0.03219355	-0.3027654	-0.1975963	-0.08836224	-0.05342979	

5.02e+09	-0.01911443	-0.02823189	-0.3519528	0.07854178	0.05071643	-0.02173604	-0.03525547	0.003562471	
-0.3519528	0.07854178	-0.0587108	-0.01976978	-0.03456994	0.003340886	0.007528897	-0.01651149	
0.05071643	-0.02173604	-0.03456994	0.003340886	-0.02226463	-0.04453907	-0.3607435	0.01360616	
-0.03525547	0.003562471	0.007528897	-0.01651149	-0.3607435	0.01360616	-0.07745443	-0.04249295	

5.04e+09	-0.01489525	-0.04603415	-0.2409182	0.266723	0.05273265	-0.030969	-0.02548323	0.02381344	
-0.2409182	0.266723	-0.04223722	-0.01614572	-0.02528604	0.02317851	0.02081708	-0.001825835	
0.05273265	-0.030969	-0.02528604	0.02317851	-0.01820514	-0.06600333	-0.2855264	0.219013	
-0.02548323	0.02381344	0.02081708	-0.001825835	-0.2855264	0.219013	-0.06183058	-0.03246178	

5.06e+09	-0.01469476	-0.06289826	-0.04210488	0.3550522	0.0530192	-0.0430691	-0.005614345	0.03334262	
-0.04210488	0.3550522	-0.01959731	-0.02280812	-0.005978431	0.03289718	0.04406002	-0.00122332	
0.0530192	-0.0430691	-0.005978431	0.03289718	-0.01881339	-0.0834137	-0.1056637	0.3419782	
-0.005614345	0.03334262	0.04406002	-0.00122332	-0.1056637	0.3419782	-0.03479594	-0.03114396	

5.08e+09	-0.02071817	-0.08403265	0.1693239	0.3118688	0.04503633	-0.05828071	0.01459325	0.0285214	
0.1693239	0.3118688	-0.001649063	-0.04876012	0.01413985	0.02857716	0.0617241	-0.01953618	
0.04503633	-0.05828071	0.01413985	0.02857716	-0.02295606	-0.1048463	0.1103376	0.3374386	
0.01459325	0.0285214	0.0617241	-0.01953618	0.1103376	0.3374386	-0.005966362	-0.05354562	

5.1e+09	-0.04269405	-0.1047754	0.3150218	0.1563782	0.02507013	-0.06731085	0.02643113	0.01420196	
0.3150218	0.1563782	-0.00716423	-0.08702862	0.02630114	0.01450763	0.06037935	-0.04554373	
0.02507013	-0.06731085	0.02630114	0.01450763	-0.04263208	-0.1295138	0.2813056	0.2104588	
0.02643113	0.01420196	0.06037935	-0.04554373	0.2813056	0.2104588	0.0001244811	-0.09770192	

5.12e+09	-0.0806884	-0.1083702	0.3449874	-0.05149839	0.001084074	-0.06029726	0.02863794	-0.002046965	
0.3449874	-0.05149839	-0.04167634	-0.1139476	0.02877333	-0.001884895	0.04191456	-0.06242721	
0.001084074	-0.06029726	0.02877333	-0.001884895	-0.08268091	-0.1394168	0.3475709	0.01205788	
0.02863794	-0.002046965	0.04191456	-0.06242721	0.3475709	0.01205788	-0.03007311	-0.1375816	

5.14e+09	-0.1167334	-0.08280488	0.2528381	-0.2376884	-0.01317112	-0.03833864	0.02339579	-0.01686365	
0.2528381	-0.2376884	-0.08778512	-0.1094562	0.02349079	-0.01690286	0.01906852	-0.06299106	
-0.01317112	-0.03833864	0.02349079	-0.01690286	-0.1259873	-0.1171976	0.2911437	-0.18623	
0.02339579	-0.01686365	0.01906852	-0.06299106	0.2911437	-0.18623	-0.08182384	-0.1452139	

5.16e+09	-0.1272999	-0.03650266	0.07221319	-0.3390961	-0.01006123	-0.01280392	0.01075102	-0.02810702	
0.07221319	-0.3390961	-0.1185586	-0.0750945	0.0107081	-0.02812125	0.002531296	-0.05140672	
-0.01006123	-0.01280392	0.0107081	-0.02812125	-0.14445	-0.0676346	0.1339595	-0.3183971	
0.01075102	-0.02810702	0.002531296	-0.05140672	0.1339595	-0.3183971	-0.1239074	-0.1157478	

5.18e+09	-0.104201	0.005187431	-0.1350894	-0.320113	0.007026792	0.003931166	-0.007974299	-0.03057005	
-0.1350894	-0.320113	-0.1192632	-0.03180035	-0.007959954	-0.03044978	-0.004783469	-0.03512074	
0.007026792	0.003931166	-0.007959954	-0.03044978	-0.1241989	-0.01816295	-0.07191785	-0.3392202	
-0.007974299	-0.03057005	-0.004783469	-0.03512074	-0.07191785	-0.3392202	-0.1348322	-0.06965173	

5.2e+09	-0.06216751	0.02068038	-0.2954837	-0.184567	0.02797346	0.007004134	-0.02562137	-0.02020551	
-0.2954837	-0.184567	-0.09609191	-0.0009895359	-0.02540698	-0.02015899	-0.004357958	-0.0181522	
0.02797346	0.007004134	-0.02540698	-0.02015899	-0.07891694	0.003707824	-0.2550304	-0.2373208	
-0.02562137	-0.02020551	-0.004357958	-0.0181522	-0.2550304	-0.2373208	-0.1174348	-0.03239104	

5.22e+09	-0.02425866	0.008695413	-0.3481283	0.02013391	0.04497898	-3.803164e-05	-0.03296984	-0.000276214	
-0.3481283	0.02013391	-0.06462591	0.0107567	-0.03277168	-0.0005319823	0.004046225	-0.001713272	
0.04497898	-3.803164e-05	-0.03277168	-0.0005319823	-0.03604792	-0.006577017	-0.3460767	-0.04629945	
-0.03296984	-0.000276214	0.004046225	-0.001713272	-0.3460767	-0.04629945	-0.08838105	-0.01365052	

5.24e+09	-0.00199543	-0.0176727	-0.2716054	0.2175969	0.05673376	-0.01281464	-0.02590206	0.01983946	
-0.2716054	0.2175969	-0.03360898	0.007487865	-0.02606837	0.01945201	0.02266182	0.009565738	
0.05673376	-0.01281464	-0.02606837	0.01945201	-0.01083495	-0.03350567	-0.308418	0.1626104	
-0.02590206	0.01983946	0.02266182	0.009565738	-0.308418	0.1626104	-0.05731567	-0.008954898	

5.26e+09	0.005861102	-0.04865424	-0.09496913	0.3329506	0.06239473	-0.03103955	-0.0080479	0.03050319	
-0.09496913	0.3329506	-0.005156822	-0.01002548	-0.008559262	0.03043016	0.04787556	0.006604791	
0.06239473	-0.03103955	-0.008559262	0.03043016	-0.0006245469	-0.06424196	-0.1562698	0.3096301	
-0.0080479	0.03050319	0.04787556	0.006604791	-0.1562698	0.3096301	-0.02397009	-0.01773046	

5.28e+09	-0.0003786753	-0.08218313	0.1138512	0.32402	0.05676605	-0.05285191	0.01113314	0.02754303	
0.1138512	0.32402	0.01286136	-0.0447203	0.01075227	0.02797266	0.0665908	-0.01436216	
0.05676605	-0.05285191	0.01075227	0.02797266	-0.002371727	-0.0983094	0.05101567	0.3399332	
0.01113314	0.02754303	0.0665908	-0.01436216	0.05101567	0.3399332	0.005362945	-0.04763909	

5.3e+09	-0.02608387	-0.1124443	0.276654	0.1977801	0.03648322	-0.06891354	0.02296038	0.01516777	
0.276654	0.1977801	0.005815236	-0.08968266	0.02309523	0.01575627	0.06606282	-0.04349757	
0.03648322	-0.06891354	0.02309523	0.01575627	-0.02323397	-0.1335236	0.2344151	0.2459537	
0.02296038	0.01516777	0.06606282	-0.04349757	0.2344151	0.2459537	0.01152035	-0.0971171	

5.32e+09	-0.07070508	-0.1240095	0.3369128	0.004278985	0.008556416	-0.06835455	0.0259337	0.0008308118	
0.3369128	0.004278985	-0.03198055	-0.1233931	0.02646987	0.001082529	0.04671262	-0.06424959	
0.008556416	-0.06835455	0.02646987	0.001082529	-0.0677138	-0.1538913	0.3289981	0.06759346	
0.0259337	0.0008308118	0.04671262	-0.06424959	0.3289981	0.06759346	-0.01927176	-0.1437842	

5.34e+09	-0.1175984	-0.1032763	0.2779619	-0.1868742	-0.01290756	-0.04969508	0.02277009	-0.01228556	
0.2779619	-0.1868742	-0.08545085	-0.1244713	0.0232639	-0.01250538	0.02067069	-0.06760656	
-0.01290756	-0.04969508	0.0232639	-0.01250538	-0.1214906	-0.1403515	0.3071061	-0.1295688	
0.02277009	-0.01228556	0.02067069	-0.06760656	0.3071061	-0.1295688	-0.07623905	-0.1590519	

5.36e+09	-0.1413703	-0.05457859	0.1225824	-0.311337	-0.01751237	-0.02246326	0.0136635	-0.02358501	
0.1225824	-0.311337	-0.12674	-0.09030265	0.01382709	-0.02401597	0.0001804903	-0.05620271	
-0.01751237	-0.02246326	0.01382709	-0.02401597	-0.1555952	-0.09198208	0.1800207	-0.2801099	
0.0136635	-0.02358501	0.0001804903	-0.05620271	0.1800207	-0.2801099	-0.1287693	-0.1327869	

5.38e+09	-0.1274017	-0.002157079	-0.07694716	-0.3267829	-0.004938894	7.06888e-05	-0.002158583	-0.02917124	
-0.07694716	-0.3267829	-0.1357663	-0.04019004	-0.002263672	-0.02951332	-0.009580111	-0.03805568	
-0.004938894	7.06888e-05	-0.002263672	-0.02951332	-0.148901	-0.03265629	-0.01080934	-0.3344754	
-0.002158583	-0.02917124	-0.009580111	-0.03805568	-0.01080934	-0.3344754	-0.1499474	-0.08172004	

5.4e+09	-0.0850275	0.02677644	-0.2517104	-0.224739	0.01635063	0.009199574	-0.0202292	-0.02346886	
-0.2517104	-0.224739	-0.1139898	0.000218845	-0.02040114	-0.02368504	-0.009609834	-0.01959879	
0.01635063	0.009199574	-0.02040114	-0.02368504	-0.1067079	0.00510688	-0.2018785	-0.2700531	
-0.0202292	-0.02346886	-0.009609834	-0.01959879	-0.2018785	-0.2700531	-0.1358669	-0.03470782	

5.42e+09	-0.0392556	0.02290237	-0.336569	-0.03846621	0.03609941	0.00512935	-0.03135743	-0.006465279	
-0.336569	-0.03846621	-0.0784764	0.01801675	-0.03159489	-0.006663848	-0.001981817	-0.003315314	
0.03609941	0.00512935	-0.03159489	-0.006663848	-0.05638172	0.006384016	-0.3225779	-0.1046874	
-0.03135743	-0.006465279	-0.001981817	-0.003315314	-0.3225779	-0.1046874	-0.1033177	-0.009239038	

5.44e+09	-0.009116553	-0.002683147	-0.2969866	0.1636075	0.04939617	-0.006821775	-0.02899899	0.0142567	
-0.2969866	0.1636075	-0.04389894	0.01616906	-0.029442	0.01415049	0.0134982	0.008512122	
0.04939617	-0.006821775	-0.029442	0.01415049	-0.02173114	-0.01793288	-0.3241703	0.1018374	
-0.02899899	0.0142567	0.0134982	0.008512122	-0.3241703	0.1018374	-0.06888729	-0.00341736	

5.46e+09	0.00256378	-0.03515564	-0.1469598	0.3046792	0.05554701	-0.02322784	-0.01410611	0.0286674	
-0.1469598	0.3046792	-0.01467944	0.0002741708	-0.01465949	0.0289455	0.03540034	0.01000127	
0.05554701	-0.02322784	-0.01465949	0.0289455	-0.006522508	-0.04998826	-0.2046	0.2703335	
-0.01410611	0.0286674	0.03540034	0.01000127	-0.2046	0.2703335	-0.03619798	-0.01108756	

5.48e+09	-0.0009498185	-0.06827739	0.05601837	0.3317639	0.05228262	-0.0420348	0.005766504	0.03042231	
0.05601837	0.3317639	0.005510869	-0.0297804	0.005512585	0.03114897	0.05515492	-0.003641438	
0.05228262	-0.0420348	0.005512585	0.03114897	-0.005259993	-0.08341933	-0.01022742	0.3368648	
0.005766504	0.03042231	0.05515492	-0.003641438	-0.01022742	0.3368648	-0.006881368	-0.03513955	

5.5e+09	-0.02115209	-0.09833069	0.2351984	0.2371026	0.03706651	-0.05697721	0.02135735	0.02050459	
0.2351984	0.2371026	0.005976773	-0.07095272	0.02174846	0.02128354	0.06125214	-0.02763839	
0.03706651	-0.05697721	0.02174846	0.02128354	-0.01992039	-0.1175643	0.1842044	0.2786721	
0.02135735	0.02050459	0.06125214	-0.02763839	0.1842044	0.2786721	0.006132015	-0.0778278	

5.52e+09	-0.05896239	-0.1142865	0.3261059	0.05899895	0.01412752	-0.05899502	0.02807531	0.005167981	
0.3261059	0.05899895	-0.02149947	-0.1073992	0.02895235	0.005445485	0.05030488	-0.04884766	
0.01412752	-0.05899502	0.02895235	0.005445485	-0.05592529	-0.1420473	0.3075764	0.1217595	
0.02807531	0.005167981	0.05030488	-0.04884766	0.3075764	0.1217595	-0.01255107	-0.1245794	

5.54e+09	-0.1028959	-0.1027165	0.2998014	-0.1368296	-0.004927723	-0.0450674	0.02649465	-0.01056654	
0.2998014	-0.1368296	-0.06842444	-0.1181809	0.02730491	-0.01097761	0.03039687	-0.0571297	
-0.004927723	-0.0450674	0.02730491	-0.01097761	-0.1051273	-0.1389024	0.3198738	-0.07421336	
0.02649465	-0.01056654	0.03039687	-0.0571297	0.3198738	-0.07421336	-0.06005411	-0.1489384	

5.56e+09	-0.1303197	-0.06339231	0.1683002	-0.2827524	-0.009684565	-0.02249812	0.01720513	-0.02420282	
0.1683002	-0.2827524	-0.1107226	-0.09564062	0.01750629	-0.02499878	0.01263642	-0.05248113	
-0.009684565	-0.02249812	0.01750629	-0.02499878	-0.142747	-0.1018205	0.2210373	-0.2419564	
0.01720513	-0.02420282	0.01263642	-0.05248113	0.2210373	-0.2419564	-0.1114073	-0.1354365	

5.58e+09	-0.124399	-0.01589175	-0.02322447	-0.3290715	0.001378931	-0.003951089	0.000319854	-0.03148738	
-0.02322447	-0.3290715	-0.1266988	-0.05370218	8.207426e-05	-0.0322089	0.002643216	-0.04160713	
0.001378931	-0.003951089	8.207426e-05	-0.0322089	-0.1452642	-0.04860473	0.04450847	-0.3259351	
0.000319854	-0.03148738	0.002643216	-0.04160713	0.04450847	-0.3259351	-0.1386019	-0.09412307	

5.6e+09	-0.08999692	0.01304893	-0.2087751	-0.2573563	0.01993183	0.001250163	-0.01950079	-0.02678152	
-0.2087751	-0.2573563	-0.1137582	-0.01671721	-0.02002196	-0.02719686	-0.0009145476	-0.03058033	
0.01993183	0.001250163	-0.02002196	-0.02719686	-0.1121655	-0.01054351	-0.1511291	-0.2946978	
-0.01950079	-0.02678152	-0.0009145476	-0.03058033	-0.1511291	-0.2946978	-0.1329334	-0.05180185	

5.62e+09	-0.05055832	0.01131039	-0.3202368	-0.09013515	0.03429822	-0.006360514	-0.03275816	-0.009653678	
-0.3202368	-0.09013515	-0.08729627	0.0008075349	-0.03336966	-0.00978959	-0.001414104	-0.02028878	
0.03429822	-0.006360514	-0.03336966	-0.00978959	-0.067953	-0.006519191	-0.2951136	-0.1544785	
-0.03275816	-0.009653678	-0.001414104	-0.02028878	-0.2951136	-0.1544785	-0.1088246	-0.02816421	

5.64e+09	-0.02696617	-0.0107475	-0.3138538	0.1119435	0.03894033	-0.0185594	-0.03225376	0.01245216	
-0.3138538	0.1119435	-0.06293347	0.002054731	-0.03292719	0.01260661	0.001668752	-0.009058474	
0.03894033	-0.0185594	-0.03292719	0.01260661	-0.03909292	-0.02808077	-0.3308997	0.04503347	
-0.03225376	0.01245216	0.001668752	-0.009058474	-0.3308997	0.04503347	-0.08478654	-0.02194308	

5.66e+09	-0.0219684	-0.03526626	-0.1909304	0.2727782	0.03626193	-0.02866262	-0.01817976	0.02949308	
-0.1909304	0.2727782	-0.04368003	-0.004067453	-0.0187815	0.03008004	0.01148498	0.0007735231	
0.03626193	-0.02866262	-0.0187815	0.03008004	-0.03130129	-0.05399756	-0.2434202	0.228347	
-0.01817976	0.02949308	0.01148498	0.0007735231	-0.2434202	0.228347	-0.06470074	-0.02263253	

5.68e+09	-0.02716051	-0.05447555	0.002184903	0.3320528	0.0297148	-0.03538136	0.003198962	0.03435338	
0.002184903	0.3320528	-0.02667578	-0.01672071	0.003058156	0.03536	0.02669997	0.002909268	
0.0297148	-0.03538136	0.003058156	0.03536	-0.03436445	-0.07413348	-0.06606503	0.3261767	
0.003198962	0.03435338	0.02669997	0.002909268	-0.06606503	0.3261767	-0.04323451	-0.02959221	

5.7e+09	-0.03844342	-0.06984168	0.1929421	0.2685073	0.01994711	-0.03801783	0.02284271	0.025422	
0.1929421	0.2685073	-0.01632258	-0.03966048	0.02348636	0.02639853	0.03968634	-0.005226426	
0.01994711	-0.03801783	0.02348636	0.02639853	-0.0426476	-0.09170868	0.1341191	0.3027854	
0.02284271	0.025422	0.03968634	-0.005226426	0.1341191	0.3027854	-0.02420142	-0.05071656	

5.72e+09	-0.05794423	-0.07931589	0.3108026	0.1073821	0.009025161	-0.0333908	0.03306751	0.00700821	
0.3108026	0.1073821	-0.02280019	-0.06767124	0.03430819	0.007303697	0.04396119	-0.01821651	
0.009025161	-0.0333908	0.03430819	0.007303697	-0.0607804	-0.106473	0.2822821	0.1688153	
0.03306751	0.00700821	0.04396119	-0.01821651	0.2822821	0.1688153	-0.02243027	-0.08406295	

5.74e+09	-0.08232177	-0.0746972	0.3141211	-0.09043482	0.003804341	-0.02081825	0.03074876	-0.0134856	
0.3141211	-0.09043482	-0.04732384	-0.08540963	0.03188096	-0.01415233	0.04085388	-0.02865085	
0.003804341	-0.02081825	0.03188096	-0.01415233	-0.08870747	-0.1076108	0.3255951	-0.02374852	
0.03074876	-0.0134856	0.04085388	-0.02865085	0.3255951	-0.02374852	-0.04505019	-0.1115031	

5.76e+09	-0.09853187	-0.05354298	0.2044999	-0.2528791	0.01008667	-0.007526043	0.01730922	-0.02874711	
0.2044999	-0.2528791	-0.07642132	-0.08209535	0.01764855	-0.02996728	0.03558878	-0.03509898	
0.01008667	-0.007526043	0.01764855	-0.02996728	-0.1122605	-0.08773904	0.2521268	-0.2042849	
0.01730922	-0.02874711	0.03558878	-0.03509898	0.2521268	-0.2042849	-0.07944907	-0.1156856	

5.78e+09	-0.09506085	-0.02641632	0.02303436	-0.3239621	0.0246483	-0.002801521	-0.002382966	-0.03413793	
0.02303436	-0.3239621	-0.09330216	-0.06208374	-0.002868091	-0.03514818	0.0297595	-0.03975285	
0.0246483	-0.002801521	-0.002868091	-0.03514818	-0.114875	-0.05573076	0.0906855	-0.3112896	
-0.002382966	-0.03413793	0.0297595	-0.03975285	0.0906855	-0.3112896	-0.1040701	-0.09674179	

5.8e+09	-0.07252178	-0.01177195	-0.1676266	-0.2788673	0.03948084	-0.01082889	-0.02304782	-0.02689035	
-0.1676266	-0.2788673	-0.09146558	-0.0418376	-0.02388459	-0.02736978	0.02249879	-0.04412399	
0.03948084	-0.01082889	-0.02388459	-0.02736978	-0.09211854	-0.03307394	-0.104533	-0.3081209	
-0.02304782	-0.02689035	0.02249879	-0.04412399	-0.104533	-0.3081209	-0.1065711	-0.07267063	

5.82e+09	-0.04971139	-0.02061146	-0.2980757	-0.1309702	0.04346132	-0.02911459	-0.0352009	-0.007206501	
-0.2980757	-0.1309702	-0.08236889	-0.03410147	-0.03607233	-0.007221059	0.01026996	-0.04655161	
0.04346132	-0.02911459	-0.03607233	-0.007221059	-0.06279336	-0.03781961	-0.2637881	-0.1916533	
-0.0352009	-0.007206501	0.01026996	-0.04655161	-0.2637881	-0.1916533	-0.09728113	-0.0617603	

5.84e+09	-0.04535465	-0.04119726	-0.3184403	0.06536641	0.03177447	-0.0449665	-0.03208086	0.01559839	
-0.3184403	0.06536641	-0.07948577	-0.03336378	-0.03288145	0.01597347	-0.005391419	-0.03998617	
0.03177447	-0.0449665	-0.03288145	0.01597347	-0.05217687	-0.06122097	-0.3257171	-0.003865869	
-0.03208086	0.01559839	-0.005391419	-0.03998617	-0.3257171	-0.003865869	-0.09387966	-0.06080323	

5.86e+09	-0.05817647	-0.05342109	-0.2216068	0.2366486	0.01224191	-0.04786635	-0.01627979	0.03125986	
-0.2216068	0.2366486	-0.08128164	-0.0275914	-0.01688086	0.03207166	-0.01520879	-0.02236226	
0.01224191	-0.04786635	-0.01688086	0.03207166	-0.06381485	-0.07905837	-0.2674932	0.1843934	
-0.01627979	0.03125986	-0.01520879	-0.02236226	-0.2674932	0.1843934	-0.09734158	-0.05482678	

5.88e+09	-0.07246322	-0.04985847	-0.04428469	0.3203334	-0.00406187	-0.03770887	0.005168527	0.03476186	
-0.04428469	0.3203334	-0.07643861	-0.0157184	0.005136218	0.03595398	-0.01178676	-0.001010482	
-0.00406187	-0.03770887	0.005136218	0.03595398	-0.08073339	-0.07894964	-0.1119181	0.3041844	
0.005168527	0.03476186	-0.01178676	-0.001010482	-0.1119181	0.3041844	-0.09403815	-0.04007188	

5.9e+09	-0.07684486	-0.03883397	0.1484758	0.28639	-0.01128718	-0.02037099	0.02482903	0.02530681	
0.1484758	0.28639	-0.06052181	-0.008839966	0.02567048	0.02638186	0.003640749	0.01414084	
-0.01128718	-0.02037099	0.02567048	0.02638186	-0.08790226	-0.0687262	0.08398659	0.3124387	
0.02482903	0.02530681	0.003640749	0.01414084	0.08398659	0.3124387	-0.07631319	-0.02952335	

5.92e+09	-0.07335322	-0.03089513	0.2859498	0.1475202	-0.008293812	-0.001440045	0.0356491	0.005794776	
0.2859498	0.1475202	-0.0427504	-0.01590723	0.03707426	0.006052142	0.02400263	0.01810962	
-0.008293812	-0.001440045	0.03707426	0.006052142	-0.08639996	-0.06099364	0.2486036	0.2059187	
0.0356491	0.005794776	0.02400263	0.01810962	0.2486036	0.2059187	-0.05436944	-0.03593179	

5.94e+09	-0.06866297	-0.02635725	0.3176062	-0.04508385	0.005265962	0.01494435	0.03282006	-0.01732895	
0.3176062	-0.04508385	-0.03519399	-0.03208025	0.03408811	-0.01806701	0.04301974	0.01200728	
0.005265962	0.01494435	0.03408811	-0.01806701	-0.08471372	-0.05666808	0.320817	0.02395343	
0.03282006	-0.01732895	0.04301974	0.01200728	0.320817	0.02395343	-0.04432146	-0.05494781	

5.96e+09	-0.06147391	-0.02190196	0.2316905	-0.2197816	0.02940029	0.02206794	0.01550642	-0.03482473	
0.2316905	-0.2197816	-0.03796477	-0.04595681	0.01599798	-0.03619184	0.05832148	-0.002379545	
0.02940029	0.02206794	0.01599798	-0.03619184	-0.08183007	-0.04934358	0.2741223	-0.1654068	
0.01550642	-0.03482473	0.05832148	-0.002379545	0.2741223	-0.1654068	-0.04830622	-0.07137481	

5.98e+09	-0.04778359	-0.02211961	0.06108598	-0.3114154	0.05721774	0.01107123	-0.01019998	-0.03736169	
0.06108598	-0.3114154	-0.04298506	-0.05493927	-0.01065927	-0.03867186	0.06632707	-0.02554163	
0.05721774	0.01107123	-0.01065927	-0.03867186	-0.06921309	-0.042364	0.1269809	-0.2917437	
-0.01019998	-0.03736169	0.06632707	-0.02554163	0.1269809	-0.2917437	-0.05507955	-0.07945606	

6e+09	-0.03329553	-0.03620862	-0.1293821	-0.2869502	0.07326184	-0.01952496	-0.03161908	-0.02187776	
-0.1293821	-0.2869502	-0.04836288	-0.06500209	-0.03268138	-0.02260435	0.05936408	-0.05426388	
0.07326184	-0.01952496	-0.03268138	-0.02260435	-0.04861829	-0.04959539	-0.06476487	-0.3089344	
-0.03161908	-0.02187776	0.05936408	-0.05426388	-0.06476487	-0.3089344	-0.05870825	-0.08736709	

6.02e+09	-0.03334717	-0.06311497	-0.268644	-0.158054	0.06386482	-0.0565227	-0.0368637	0.003387298	
-0.268644	-0.158054	-0.06164896	-0.077337	-0.03806027	0.003356619	0.03276487	-0.07645723	
0.06386482	-0.0565227	-0.03806027	0.003356619	-0.03805899	-0.07687137	-0.2289275	-0.2126581	
-0.0368637	0.003387298	0.03276487	-0.07645723	-0.2289275	-0.2126581	-0.06768157	-0.1012161	

6.04e+09	-0.05700891	-0.08600056	-0.3075431	0.02490641	0.03066222	-0.07910105	-0.02499916	0.02408246	
-0.3075431	0.02490641	-0.08748249	-0.08143613	-0.02602536	0.02463679	-0.005735264	-0.07752514	
0.03066222	-0.07910105	-0.02602536	0.02463679	-0.05448406	-0.1085654	-0.3060967	-0.04203889	
-0.02499916	0.02408246	-0.005735264	-0.07752514	-0.3060967	-0.04203889	-0.09194085	-0.1112955	

6.06e+09	-0.094624	-0.08555936	-0.2358637	0.1949155	-0.009690059	-0.0752053	-0.005309946	0.03186764	
-0.2358637	0.1949155	-0.1165237	-0.06488289	-0.005975011	0.03291101	-0.03841617	-0.05336342	
-0.009690059	-0.0752053	-0.005975011	0.03291101	-0.093402	-0.1195491	-0.2725534	0.1391726	
-0.005309946	0.03186764	-0.03841617	-0.05336342	-0.2725534	0.1391726	-0.1251733	-0.1007139	

6.08e+09	-0.1238253	-0.05734651	-0.08149826	0.2932768	-0.03912482	-0.04800597	0.01305106	0.02774246	
-0.08149826	0.2932768	-0.129996	-0.02829619	0.01304174	0.02913197	-0.05031905	-0.01378461	
-0.03912482	-0.04800597	0.01304174	0.02913197	-0.1309836	-0.09848833	-0.1437414	0.2683013	
0.01305106	0.02774246	-0.05031905	-0.01378461	-0.1437414	0.2683013	-0.1462519	-0.06520732	

6.1e+09	-0.126949	-0.01581234	0.1011839	0.2864016	-0.04765638	-0.009272094	0.02594937	0.01550947	
0.1011839	0.2864016	-0.1154822	0.01136383	0.0268651	0.01680087	-0.03724081	0.02539444	
-0.04765638	-0.009272094	0.0268651	0.01680087	-0.1441684	-0.05719678	0.03548838	0.3019617	
0.02594937	0.01550947	-0.03724081	0.02539444	0.03548838	0.3019617	-0.1376429	-0.02116068	

6.12e+09	-0.103322	0.01771684	0.2475395	0.1755858	-0.03341309	0.02816635	0.03086603	-0.002138172	
0.2475395	0.1755858	-0.0783067	0.0332231	0.03256527	-0.001649116	-0.00463499	0.05066543	
-0.03341309	0.02816635	0.03256527	-0.001649116	-0.128114	-0.01882686	0.2029891	0.2266486	
0.03086603	-0.002138172	-0.00463499	0.05066543	0.2029891	0.2266486	-0.1018273	0.006888325	

6.14e+09	-0.06584707	0.03016105	0.3027798	-0.0003399682	0.0002122774	0.05288057	0.02450269	-0.0210868	
0.3027798	-0.0003399682	-0.03659198	0.02806786	0.02624189	-0.02186935	0.03701065	0.0543513	
0.0002122774	0.05288057	0.02624189	-0.02186935	-0.0949183	0.0009443142	0.2964908	0.06696935	
0.02450269	-0.0210868	0.03701065	0.0543513	0.2964908	0.06696935	-0.05839671	0.006405795	

6.16e+09	-0.02847617	0.02043208	0.2446426	-0.1752567	0.04499328	0.05486156	0.006037844	-0.03327362	
0.2446426	-0.1752567	-0.006349667	0.001579619	0.006872008	-0.03506903	0.07568253	0.03430405	
0.04499328	0.05486156	0.006872008	-0.03506903	-0.05825704	0.000477896	0.2785431	-0.1174951	
0.006037844	-0.03327362	0.07568253	0.03430405	0.2785431	-0.1174951	-0.02562044	-0.01673363	

6.18e+09	-0.0004694106	-0.008213397	0.09601904	-0.2817478	0.08596449	0.02811413	-0.01786073	-0.0298786	
0.09601904	-0.2817478	0.00591741	-0.03605261	-0.01838165	-0.03179949	0.0984579	-0.00649659	
0.08596449	0.02811413	-0.01838165	-0.03179949	-0.02506862	-0.01810002	0.156253	-0.2549118	
-0.01786073	-0.0298786	0.0984579	-0.00649659	0.156253	-0.2549118	-0.009228453	-0.05113595	

6.2e+09	0.008875324	-0.05150591	-0.0837414	-0.280726	0.1033958	-0.02214161	-0.03336425	-0.009661644	
-0.0837414	-0.280726	-0.002400511	-0.07694156	-0.03495552	-0.01081386	0.09299716	-0.0570468	
0.1033958	-0.02214161	-0.03495552	-0.01081386	-0.003249894	-0.05562013	-0.02044489	-0.2932582	
-0.03336425	-0.009661644	0.09299716	-0.0570468	-0.02044489	-0.2932582	-0.01023049	-0.0911064	

6.22e+09	-0.01069919	-0.09788299	-0.2254091	-0.1776344	0.08390401	-0.0753621	-0.02909064	0.01574238	
-0.2254091	-0.1776344	-0.03429757	-0.110866	-0.03106707	0.01580215	0.05505823	-0.09675088	
0.08390401	-0.0753621	-0.03106707	0.01580215	-0.007558362	-0.1065924	-0.1815232	-0.2227282	
-0.02909064	0.01574238	0.05505823	-0.09675088	-0.1815232	-0.2227282	-0.03420889	-0.1302113	

6.24e+09	-0.06054963	-0.1249745	-0.2795733	-0.0182752	0.03251621	-0.1040265	-0.007640078	0.02754923	
-0.2795733	-0.0182752	-0.08547294	-0.1202721	-0.00914512	0.02893416	-0.002025341	-0.10268	
0.03251621	-0.1040265	-0.00914512	0.02893416	-0.04886493	-0.1488862	-0.2680694	-0.07879546	
-0.007640078	0.02754923	-0.002025341	-0.10268	-0.2680694	-0.07879546	-0.0830324	-0.1499796	

6.26e+09	-0.1169539	-0.1124294	-0.2410374	0.1387706	-0.02102722	-0.09158926	0.007459464	0.01956309	
-0.2410374	0.1387706	-0.1308527	-0.09742807	0.007385714	0.02136122	-0.0441177	-0.07345322	
-0.02102722	-0.09158926	0.007385714	0.02136122	-0.1096721	-0.1524003	-0.2646815	0.08097176	
0.007459464	0.01956309	-0.0441177	-0.07345322	-0.2646815	0.08097176	-0.1327184	-0.1361442	

6.28e+09	-0.1563238	-0.07166967	-0.1201417	0.2529039	-0.05515484	-0.05789805	0.01391996	0.01329941	
-0.1201417	0.2529039	-0.1618029	-0.05457846	0.01451188	0.01459112	-0.06662522	-0.03336343	
-0.05515484	-0.05789805	0.01451188	0.01459112	-0.1602936	-0.1215372	-0.1739295	0.2181119	
0.01391996	0.01329941	-0.06662522	-0.03336343	-0.1739295	0.2181119	-0.1727292	-0.0993638	

6.3e+09	-0.165213	-0.0107128	0.04663739	0.2755613	-0.06814097	-0.009904258	0.01891871	0.003378453	
0.04663739	0.2755613	-0.1624835	0.006412397	0.02015551	0.004417834	-0.06605012	0.01719246	
-0.06814097	-0.009904258	0.02015551	0.004417834	-0.1848313	-0.06274177	-0.01820961	0.2784953	
0.01891871	0.003378453	-0.06605012	0.01719246	-0.01820961	0.2784953	-0.1850193	-0.03703766	

6.32e+09	-0.1320922	0.04291937	0.195265	0.197976	-0.05037063	0.03791566	0.0169402	-0.008210378	
0.195265	0.197976	-0.1233345	0.0576429	0.01885682	-0.008160856	-0.03586679	0.06098704	
-0.05037063	0.03791566	0.01885682	-0.008160856	-0.1657067	-0.00104118	0.144209	0.238747	
0.0169402	-0.008210378	-0.03586679	0.06098704	0.144209	0.238747	-0.15359	0.0218044	

6.34e+09	-0.07856165	0.06104854	0.2716662	0.05163639	-0.01119715	0.06434908	0.008350957	-0.01497602	
0.2716662	0.05163639	-0.05923778	0.07428563	0.009705428	-0.01630623	0.01668372	0.08069741	
-0.01119715	0.06434908	0.009705428	-0.01630623	-0.1168757	0.03136049	0.2545653	0.1137659	
0.008350957	-0.01497602	0.01668372	0.08069741	0.2545653	0.1137659	-0.09207166	0.04831821	

6.36e+09	-0.03026352	0.05450705	0.2541314	-0.1128969	0.03300355	0.07185724	0.0005460016	-0.01677712	
0.2541314	-0.1128969	-0.0003623973	0.04839964	0.0007867248	-0.01835715	0.07180772	0.0648787	
0.03300355	0.07185724	0.0007867248	-0.01835715	-0.06644349	0.03591087	0.275354	-0.05311454	
0.0005460016	-0.01677712	0.07180772	0.0648787	0.275354	-0.05311454	-0.03015274	0.0325392	

6.38e+09	0.01621268	0.02285567	0.1411192	-0.2404935	0.08451756	0.05218077	-0.01092782	-0.01665501	
0.1411192	-0.2404935	0.03147741	-0.002094259	-0.01151496	-0.01815168	0.1077962	0.02088122	
0.08451756	0.05218077	-0.01151496	-0.01815168	-0.01440839	0.01596848	0.1925722	-0.2041027	
-0.01092782	-0.01665501	0.1077962	0.02088122	0.1925722	-0.2041027	0.009809978	-0.01108972	

6.4e+09	0.03680997	-0.0344558	-0.02495528	-0.2750101	0.1138196	-0.000287034	-0.02114521	-0.005178112	
-0.02495528	-0.2750101	0.03305345	-0.06121532	-0.02251818	-0.006054796	0.1129421	-0.03757959	
0.1138196	-0.000287034	-0.02251818	-0.006054796	0.02032176	-0.03341818	0.03701556	-0.2749294	
-0.02114521	-0.005178112	0.1129421	-0.03757959	0.03701556	-0.2749294	0.02260784	-0.06819207	

6.42e+09	0.02022289	-0.09646503	-0.1764591	-0.2070457	0.103716	-0.060991	-0.01889471	0.01143403	
-0.1764591	-0.2070457	0.002464602	-0.1143234	-0.02046361	0.01152124	0.0819049	-0.08941798	
0.103716	-0.060991	-0.02046361	0.01152124	0.0217757	-0.0982969	-0.1264635	-0.2413891	
-0.01889471	0.01143403	0.0819049	-0.08941798	-0.1264635	-0.2413891	0.003784458	-0.1265434	

6.44e+09	-0.03188321	-0.1401081	-0.2588957	-0.06777515	0.05875127	-0.1025647	-0.004896161	0.02047267	
-0.2588957	-0.06777515	-0.05516316	-0.144156	-0.006097739	0.02136382	0.0257726	-0.1129366	
0.05875127	-0.1025647	-0.006097739	0.02136382	-0.01720446	-0.1564871	-0.2369029	-0.1233238	
-0.004896161	0.02047267	0.0257726	-0.1129366	-0.2369029	-0.1233238	-0.04703713	-0.1688093	

6.46e+09	-0.1032778	-0.1453798	-0.2480699	0.08970213	-0.0004838752	-0.1091489	0.009873833	0.01622238	
-0.2480699	0.08970213	-0.123763	-0.1361569	0.009305122	0.01757803	-0.03270147	-0.09946207	
-0.0004838752	-0.1091489	0.009305122	0.01757803	-0.08730895	-0.1819018	-0.2604201	0.0315143	
0.009873833	0.01622238	-0.03270147	-0.09946207	-0.2604201	0.0315143	-0.1180578	-0.1755562	

6.48e+09	-0.1664229	-0.1059006	-0.1528455	0.2118475	-0.051222	-0.08197233	0.01574487	0.004335973	
-0.1528455	0.2118475	-0.1780915	-0.08755468	0.01594321	0.005848274	-0.0723465	-0.05644199	
-0.051222	-0.08197233	0.01594321	0.005848274	-0.1616784	-0.1593253	-0.1958074	0.1699729	
0.01574487	0.004335973	-0.0723465	-0.05644199	-0.1958074	0.1699729	-0.1835117	-0.1373842	

6.5e+09	-0.1943861	-0.03504563	-0.007013955	0.2602155	-0.07847756	-0.03274743	0.01218329	-0.005782706	
-0.007013955	0.2602155	-0.1941212	-0.01364237	0.01323729	-0.00449294	-0.08195382	0.0001716439	
-0.07847756	-0.03274743	0.01323729	-0.00449294	-0.2084863	-0.09540847	-0.06713298	0.249672	
0.01218329	-0.005782706	-0.08195382	0.0001716439	-0.06713298	0.249672	-0.2146623	-0.06497393	

6.52e+09	-0.1748801	0.03883404	0.1416138	0.219086	-0.07532912	0.02349126	0.005074699	-0.009584438	
0.1416138	0.219086	-0.1627934	0.05656324	0.006856922	-0.00906845	-0.0596766	0.05307656	
-0.07532912	0.02349126	0.006856922	-0.00906845	-0.2079043	-0.01639893	0.08534135	0.2454255	
0.005074699	-0.009584438	-0.0596766	0.05307656	0.08534135	0.2454255	-0.1959219	0.01280706	

6.54e+09	-0.1165478	0.08665077	0.2424508	0.09983203	-0.04158066	0.07022512	-0.0004146795	-0.008918965	
0.2424508	0.09983203	-0.09633834	0.09457232	0.001498042	-0.009663374	-0.01142508	0.08599335	
-0.04158066	0.07022512	0.001498042	-0.009663374	-0.1620246	0.04578727	0.2116905	0.1546448	
-0.0004146795	-0.008918965	-0.01142508	0.08599335	0.2116905	0.1546448	-0.1349731	0.0635135	

6.56e+09	-0.0430793	0.09225772	0.2568286	-0.05792593	0.01435245	0.0909981	-0.00400627	-0.007372493	
0.2568286	-0.05792593	-0.02177585	0.08701462	-0.002922326	-0.009296716	0.04858993	0.08644831	
0.01435245	0.0909981	-0.002922326	-0.009296716	-0.09134179	0.06983607	0.2640103	0.004576744	
-0.00400627	-0.007372493	0.04858993	0.08644831	0.2640103	0.004576744	-0.05832437	0.06867648	

6.58e+09	0.0196654	0.05668467	0.1760122	-0.1957422	0.07402126	0.07535615	-0.007902473	-0.00492077	
0.1760122	-0.1957422	0.03384267	0.03994122	-0.008338189	-0.007166912	0.09937384	0.05155232	
0.07402126	0.07535615	-0.008338189	-0.007166912	-0.02117933	0.05176918	0.2179134	-0.1496838	
-0.007902473	-0.00492077	0.09937384	0.05155232	0.2179134	-0.1496838	0.005277017	0.03127594	

6.6e+09	0.0525677	-0.007039897	0.03000526	-0.2599238	0.1139199	0.02644921	-0.0108375	0.001146717	
0.03000526	-0.2599238	0.05413811	-0.02861024	-0.0126039	-0.0002794199	0.1205751	-0.007529535	
0.1139199	0.02644921	-0.0126039	-0.0002794199	0.02838815	-0.000667814	0.08969641	-0.2468275	
-0.0108375	0.001146717	0.1205751	-0.007529535	0.08969641	-0.2468275	0.03783136	-0.03278096	

6.62e+09	0.04517265	-0.07952471	-0.1240501	-0.2270524	0.116693	-0.03697237	-0.00789006	0.009503623	
-0.1240501	-0.2270524	0.03419363	-0.0974236	-0.010067	0.009503258	0.1026194	-0.068046	
0.116693	-0.03697237	-0.010067	0.009503258	0.04251362	-0.07351421	-0.06868922	-0.2497151	
-0.00789006	0.009503623	0.1026194	-0.068046	-0.06868922	-0.2497151	0.03167506	-0.1047873	

6.64e+09	-0.00272224	-0.137403	-0.2284315	-0.1134441	0.08168023	-0.08871464	0.001842046	0.01313345	
-0.2284315	-0.1134441	-0.0212352	-0.1455087	0.0001976576	0.01435264	0.05299229	-0.1058232	
0.08168023	-0.08871464	0.0001976576	0.01435264	0.01254917	-0.1451887	-0.1957769	-0.1622487	
0.001842046	0.01313345	0.05299229	-0.1058232	-0.1957769	-0.1622487	-0.01373825	-0.1643267	

6.66e+09	-0.07752102	-0.1585201	-0.2488818	0.03577575	0.02511787	-0.1096704	0.01138918	0.007344609	
-0.2488818	0.03577575	-0.09668569	-0.1550906	0.01074189	0.009170555	-0.007559062	-0.1077752	
0.02511787	-0.1096704	0.01074189	0.009170555	-0.05602025	-0.1886375	-0.2485806	-0.02253512	
0.01138918	0.007344609	-0.007559062	-0.1077752	-0.2485806	-0.02253512	-0.08797712	-0.1897906	

6.68e+09	-0.1527925	-0.1317939	-0.1834636	0.1679368	-0.03113131	-0.09604042	0.01276967	-0.003851986	
-0.1834636	0.1679368	-0.166662	-0.118835	0.01317268	-0.001995685	-0.0569999	-0.07666653	
-0.03113131	-0.09604042	0.01317268	-0.001995685	-0.1395452	-0.1837108	-0.2156168	0.1187815	
0.01276967	-0.003851986	-0.0569999	-0.07666653	-0.2156168	0.1187815	-0.1666996	-0.1672241	

6.7e+09	-0.1990192	-0.06524177	-0.057437	0.2407225	-0.07020404	-0.05564304	0.005138731	-0.01170136	
-0.057437	0.2407225	-0.2037085	-0.04695491	0.006495361	-0.01028816	-0.08119727	-0.02527459	
-0.07020404	-0.05564304	0.006495361	-0.01028816	-0.205074	-0.129893	-0.112466	0.2175261	
0.005138731	-0.01170136	-0.08119727	-0.02527459	-0.112466	0.2175261	-0.2189368	-0.1010703	

6.72e+09	-0.1976496	0.01579836	0.08783229	0.2318294	-0.08223086	-0.001004689	-0.005139753	-0.01080482	
0.08783229	0.2318294	-0.1916416	0.03386057	-0.003087875	-0.01032515	-0.07459903	0.03076273	
-0.08223086	-0.001004689	-0.003087875	-0.01032515	-0.2264257	-0.0482522	0.02809791	0.2442995	
-0.005139753	-0.01080482	-0.07459903	0.03076273	0.02809791	0.2442995	-0.2221328	-0.01588371	

6.74e+09	-0.1502182	0.07997334	0.2048949	0.1425595	-0.06298965	0.05274228	-0.01046591	-0.003034687	
0.2048949	0.1425595	-0.1348688	0.09200126	-0.008333172	-0.003908865	-0.03841979	0.07530559	
-0.06298965	0.05274228	-0.008333172	-0.003908865	-0.1969151	0.02893744	0.1626078	0.1880575	
-0.01046591	-0.003034687	-0.03841979	0.07530559	0.1626078	0.1880575	-0.1746349	0.05422559	

6.76e+09	-0.07656977	0.1047727	0.2517299	0.0001810305	-0.01587438	0.08813785	-0.008236711	0.004820862	
0.2517299	0.0001810305	-0.05655069	0.1060436	-0.006993044	0.002652219	0.01792719	0.09285018	
-0.01587438	0.08813785	-0.006993044	0.002652219	-0.1309483	0.07387595	0.2438836	0.06236011	
-0.008236711	0.004820862	0.01792719	0.09285018	0.2438836	0.06236011	-0.09712404	0.08230891	

6.78e+09	-0.00380878	0.08465836	0.2072754	-0.1455946	0.04472919	0.09039933	-0.00240425	0.00764391	
0.2072754	-0.1455946	0.01358643	0.07386691	-0.002850443	0.005038141	0.07559728	0.07446061	
0.04472919	0.09039933	-0.002850443	0.005038141	-0.05400795	0.07480129	0.2372018	-0.09066871	
-0.00240425	0.00764391	0.07559728	0.07446061	0.2372018	-0.09066871	-0.02060582	0.06176336	

6.8e+09	0.04501261	0.02904313	0.08502383	-0.238933	0.09603138	0.05624444	0.001918092	0.006459223	
0.08502383	-0.238933	0.05281643	0.009963539	-0.0001378196	0.004727091	0.1119671	0.02507275	
0.09603138	0.05624444	-0.0001378196	0.004727091	0.01007123	0.03514339	0.1406387	-0.2118948	
0.001918092	0.006459223	0.1119671	0.02507275	0.1406387	-0.2118948	0.02993286	0.004558666	

6.82e+09	0.05566276	-0.04413516	-0.0684349	-0.2429765	0.1171191	-0.001594937	0.004417507	0.004837618	
-0.0684349	-0.2429765	0.0508606	-0.06396116	0.001777799	0.004823082	0.1119683	-0.03608709	
0.1171191	-0.001594937	0.001777799	0.004823082	0.04339527	-0.03308348	-0.008407173	-0.2525001	
0.004417507	0.004837618	0.1119683	-0.03608709	-0.008407173	-0.2525001	0.04172596	-0.06968587	

6.84e+09	0.02365708	-0.112193	-0.19396	-0.1577958	0.1002593	-0.05956752	0.007379838	0.002585973	
-0.19396	-0.1577958	0.008639636	-0.1253125	0.005396111	0.004134749	0.07650064	-0.08446617	
0.1002593	-0.05956752	0.005396111	0.004134749	0.03369333	-0.1108422	-0.1504552	-0.1987931	
0.007379838	0.002585973	0.07650064	-0.08446617	-0.1504552	-0.1987931	0.01135692	-0.139659	

6.86e+09	-0.04278966	-0.1513162	-0.2464112	-0.018571	0.05457305	-0.09569226	0.009477481	-0.002899185	
-0.2464112	-0.018571	-0.06203801	-0.1536267	0.008826056	-0.0006184937	0.021456	-0.1026414	
0.05457305	-0.09569226	0.008826056	-0.0006184937	-0.02028897	-0.1715746	-0.2331026	-0.07632478	
0.009477481	-0.002899185	0.021456	-0.1026414	-0.2331026	-0.07632478	-0.05471293	-0.1825992	

6.88e+09	-0.121265	-0.144877	-0.2114224	0.1228039	-0.001094598	-0.099862	0.006392576	-0.01034763	
-0.2114224	0.1228039	-0.1382421	-0.1364204	0.007078814	-0.008193655	-0.03203922	-0.08736225	
-0.001094598	-0.099862	0.007078814	-0.008193655	-0.1015504	-0.1901071	-0.232293	0.06713577	
0.006392576	-0.01034763	-0.03203922	-0.08736225	-0.232293	0.06713577	-0.1361342	-0.1801977	

6.9e+09	-0.1818412	-0.09345367	-0.1052054	0.2190897	-0.04866835	-0.07425983	-0.002890525	-0.0139701	
-0.1052054	0.2190897	-0.1914534	-0.07727445	-0.001176295	-0.01252087	-0.06754605	-0.04691077	
-0.04866835	-0.07425983	-0.001176295	-0.01252087	-0.1788809	-0.1570954	-0.1542434	0.1838853	
-0.002890525	-0.0139701	-0.06754605	-0.04691077	-0.1542434	0.1838853	-0.2024914	-0.1296481	

6.92e+09	-0.2007664	-0.01682354	0.03585466	0.2405121	-0.07534458	-0.02793062	-0.01332688	-0.009026371	
0.03585466	0.2405121	-0.2001179	0.0022005	-0.01101517	-0.008702381	-0.07610801	0.005562314	
-0.07534458	-0.02793062	-0.01101517	-0.008702381	-0.2216716	-0.08566932	-0.02584031	0.2391078	
-0.01332688	-0.009026371	-0.07610801	0.005562314	-0.02584031	0.2391078	-0.2264721	-0.04913053	

6.94e+09	-0.1721745	0.0549479	0.1661903	0.179771	-0.07329215	0.0261991	-0.01724428	0.003174252	
0.1661903	0.179771	-0.1609296	0.07091131	-0.0149865	0.002071552	-0.05502551	0.05506394	
-0.07329215	0.0261991	-0.0149865	0.002071552	-0.2150238	-0.004917121	0.1137332	0.2147864	
-0.01724428	0.003174252	-0.05502551	0.05506394	0.1137332	0.2147864	-0.1983	0.02921166	

6.96e+09	-0.1097883	0.09574069	0.2413716	0.0542361	-0.04107139	0.0714542	-0.01056375	0.01506421	
0.2413716	0.0542361	-0.09091254	0.1029026	-0.009300475	0.01264255	-0.008933221	0.08538094	
-0.04107139	0.0714542	-0.009300475	0.01264255	-0.165456	0.05487957	0.2186667	0.1141316	
-0.01056375	0.01506421	-0.008933221	0.08538094	0.2186667	0.1141316	-0.1311761	0.07436705	

6.98e+09	-0.03835373	0.09440657	0.2313339	-0.09478733	0.01231586	0.09080359	0.00284708	0.01829175	
0.2313339	-0.09478733	-0.01816043	0.08926134	0.002286684	0.01541835	0.04747232	0.08365135	
0.01231586	0.09080359	0.002286684	0.01541835	-0.09462104	0.07591426	0.2479766	-0.03252126	
0.00284708	0.01829175	0.04747232	0.08365135	0.2479766	-0.03252126	-0.05396245	0.07210685	

7e+09	0.01845943	0.05554287	0.1352674	-0.2124172	0.0674179	0.07532606	0.01388136	0.01124572	
0.1352674	-0.2124172	0.03212473	0.03922361	0.01151383	0.009326047	0.09233221	0.04866066	
0.0674179	0.07532606	0.01151383	0.009326047	-0.02632292	0.05650117	0.1848978	-0.1715892	
0.01388136	0.01124572	0.09233221	0.04866066	0.1848978	-0.1715892	0.005403597	0.02904767	

7.02e+09	0.04476265	-0.006657319	-0.01264497	-0.252053	0.1025823	0.0307781	0.01675799	-2.159484e-05	
-0.01264497	-0.252053	0.04623072	-0.02802149	0.01369593	4.349092e-05	0.1073119	-0.005639005	
0.1025823	0.0307781	0.01369593	4.349092e-05	0.02103426	0.004621603	0.05085333	-0.2473873	
0.01675799	-2.159484e-05	0.1073119	-0.005639005	0.05085333	-0.2473873	0.03094252	-0.03685756	

7.04e+09	0.03292342	-0.07347046	-0.1554978	-0.1977445	0.1048413	-0.02460574	0.01291302	-0.009109811	
-0.1554978	-0.1977445	0.0217325	-0.0915139	0.010662	-0.007168887	0.08762242	-0.05687006	
0.1048413	-0.02460574	0.010662	-0.007168887	0.03344084	-0.06600399	-0.1012619	-0.2297	
0.01291302	-0.009109811	0.08762242	-0.05687006	-0.1012619	-0.2297	0.01731747	-0.1057515	

7.06e+09	-0.01518815	-0.1232175	-0.2391947	-0.07194392	0.07565296	-0.06945445	0.006051735	-0.01446076	
-0.2391947	-0.07194392	-0.03435833	-0.1314334	0.005499267	-0.01169342	0.04339984	-0.08582029	
0.07565296	-0.06945445	0.005499267	-0.01169342	0.003137595	-0.1338332	-0.2124958	-0.1283881	
0.006051735	-0.01446076	0.04339984	-0.08582029	-0.2124958	-0.1283881	-0.03281753	-0.1570886	

7.08e+09	-0.08449971	-0.1364435	-0.2355898	0.07672963	0.02819451	-0.08917186	-0.002636765	-0.016449	
-0.2355898	0.07672963	-0.1046266	-0.1325278	-0.00153603	-0.01402313	-0.00723987	-0.08450142	
0.02819451	-0.08917186	-0.00153603	-0.01402313	-0.06276754	-0.1724524	-0.2448776	0.01489156	
-0.002636765	-0.016449	-0.00723987	-0.08450142	-0.2448776	0.01489156	-0.1055052	-0.1712952	

7.1e+09	-0.1488285	-0.1061583	-0.1499647	0.1955084	-0.02061159	-0.07998701	-0.0126341	-0.01356739	
-0.1499647	0.1955084	-0.1633223	-0.09191477	-0.01046463	-0.01220498	-0.04726482	-0.05650804	
-0.02061159	-0.07998701	-0.01046463	-0.01220498	-0.1393739	-0.1644022	-0.1926674	0.1488029	
-0.0126341	-0.01356739	-0.04726482	-0.05650804	-0.1926674	0.1488029	-0.1743188	-0.1395558	

7.12e+09	-0.1822956	-0.04433776	-0.01367269	0.2459402	-0.05622411	-0.04661189	-0.0205584	-0.003851115	
-0.01367269	0.2459402	-0.1866311	-0.02440478	-0.01798949	-0.003869751	-0.06544368	-0.01218835	
-0.05622411	-0.04661189	-0.01798949	-0.003869751	-0.1952806	-0.1130637	-0.07649437	0.2311623	
-0.0205584	-0.003851115	-0.06544368	-0.01218835	-0.07649437	0.2311623	-0.210813	-0.07246528	

7.14e+09	-0.1729851	0.02301968	0.1281473	0.2120221	-0.06822813	0.0007264188	-0.02066892	0.01098986	
0.1281473	0.2120221	-0.1654876	0.04242842	-0.0184269	0.009498617	-0.05661482	0.03495238	
-0.06822813	0.0007264188	-0.0184269	0.009498617	-0.2094091	-0.04138817	0.06684868	0.236317	
-0.02066892	0.01098986	-0.05661482	0.03495238	0.06684868	0.236317	-0.1994998	0.002019587	

7.16e+09	-0.1284215	0.06972721	0.2281565	0.1029063	-0.0518301	0.0473108	-0.009492779	0.02381799	
0.2281565	0.1029063	-0.1108322	0.08195169	-0.008446019	0.02111655	-0.02233777	0.069574	
-0.0518301	0.0473108	-0.008446019	0.02111655	-0.1809756	0.02125974	0.1915839	0.1592369	
-0.009492779	0.02381799	-0.02233777	0.069574	0.1915839	0.1592369	-0.1472915	0.05253505	

7.18e+09	-0.0693294	0.08175042	0.2489088	-0.04663597	-0.01158088	0.07634969	0.009090245	0.02566152	
0.2489088	-0.04663597	-0.04726682	0.08170379	0.008212255	0.02266509	0.02622929	0.07781744	
-0.01158088	0.07634969	0.008212255	0.02266509	-0.1265439	0.05447222	0.2520601	0.02119931	
0.009090245	0.02566152	0.02622929	0.07781744	0.2520601	0.02119931	-0.07951757	0.06108215	

7.2e+09	-0.01723719	0.06075301	0.1783819	-0.1833957	0.03753716	0.07647417	0.02434721	0.01359772	
0.1783819	-0.1833957	0.001092933	0.04753944	0.02162324	0.0117385	0.06984052	0.05537079	
0.03753716	0.07647417	0.02162324	0.0117385	-0.06732621	0.05355369	0.2206256	-0.1299065	
0.02434721	0.01359772	0.06984052	0.05537079	0.2206256	-0.1299065	-0.02398495	0.0310665	

7.22e+09	0.01395977	0.01763307	0.03956996	-0.2544314	0.07633651	0.04846892	0.02710047	-0.005378326	
0.03956996	-0.2544314	0.02108689	-0.004080163	0.02373639	-0.005022813	0.09041411	0.01207602	
0.07633651	0.04846892	0.02373639	-0.005022813	-0.01900939	0.02385532	0.1048572	-0.2353914	
0.02710047	-0.005378326	0.09041411	0.01207602	0.1048572	-0.2353914	0.003490426	-0.02056895	

7.24e+09	0.01758929	-0.03447183	-0.1153518	-0.2307545	0.09090557	0.00458249	0.01726336	-0.02047695	
-0.1153518	-0.2307545	0.01061096	-0.05618378	0.01494778	-0.01804502	0.08107879	-0.03324788	
0.09090557	0.00458249	0.01494778	-0.01804502	0.00731383	-0.02673669	-0.05134499	-0.2525944	
0.01726336	-0.02047695	0.08107879	-0.03324788	-0.05134499	-0.2525944	-0.0004190023	-0.07645485	

7.26e+09	-0.008133481	-0.08074539	-0.2270012	-0.1214111	0.07803686	-0.0378119	0.001637424	-0.02589628	
-0.2270012	-0.1214111	-0.02622922	-0.09419637	0.001412104	-0.02267207	0.04826933	-0.06279228	
0.07803686	-0.0378119	0.001412104	-0.02267207	0.001587122	-0.08577832	-0.1870038	-0.1755469	
0.001637424	-0.02589628	0.04826933	-0.06279228	-0.1870038	-0.1755469	-0.03364606	-0.1219019	

7.28e+09	-0.05691528	-0.1045636	-0.2544763	0.03102036	0.04517	-0.06367326	-0.01336775	-0.02198608	
-0.2544763	0.03102036	-0.07914919	-0.1052254	-0.01165873	-0.01947261	0.006794871	-0.06704556	
0.04517	-0.06367326	-0.01165873	-0.01947261	-0.03892591	-0.1323442	-0.2520105	-0.03636016	
-0.01336775	-0.02198608	0.006794871	-0.06704556	-0.2520105	-0.03636016	-0.08852477	-0.1417243	

7.3e+09	-0.1105022	-0.09437779	-0.1904915	0.170319	0.004981422	-0.06679651	-0.02390592	-0.01080901	
-0.1904915	0.170319	-0.1290132	-0.08250736	-0.02122736	-0.009844408	-0.02830917	-0.04792545	
0.004981422	-0.06679651	-0.02122736	-0.009844408	-0.09999208	-0.1450551	-0.2267245	0.1127444	
-0.02390592	-0.01080901	-0.02830917	-0.04792545	-0.2267245	0.1127444	-0.1462263	-0.1245804	

7.32e+09	-0.1462627	-0.05442368	-0.05966996	0.2483523	-0.02969114	-0.04826225	-0.02696867	0.004915627	
-0.05966996	0.2483523	-0.1549073	-0.03425704	-0.02431174	0.004264944	-0.04653493	-0.01394344	
-0.02969114	-0.04826225	-0.02431174	0.004264944	-0.154806	-0.1182297	-0.1231541	0.2210826	
-0.02696867	0.004915627	-0.04653493	-0.01394344	-0.1231541	0.2210826	-0.1815971	-0.07496018	

7.34e+09	-0.1501065	-0.003616095	0.09251472	0.2390739	-0.04807095	-0.0141207	-0.02027302	0.02101534	
0.09251472	0.2390739	-0.1459184	0.01804579	-0.01839587	0.01901625	-0.04261004	0.02395077	
-0.04807095	-0.0141207	-0.01839587	0.01901625	-0.1805763	-0.06672555	0.02364007	0.2533896	
-0.02027302	0.02101534	-0.04261004	0.02395077	0.02364007	0.2533896	-0.1782495	-0.01512469	

7.36e+09	-0.1243873	0.03566747	0.2139956	0.1445647	-0.04395521	0.0241446	-0.003636564	0.0310689	
0.2139956	0.1445647	-0.1084631	0.05136295	-0.00318493	0.02824299	-0.01751773	0.05275245	
-0.04395521	0.0241446	-0.00318493	0.02824299	-0.1711457	-0.01509371	0.1653637	0.196968	
-0.003636564	0.0310689	-0.01751773	0.05275245	0.1653637	0.196968	-0.1392815	0.02687181	

7.38e+09	-0.08540931	0.05026978	0.2605515	-0.004477482	-0.01905977	0.05250882	0.01760282	0.02811033	
0.2605515	-0.004477482	-0.062987	0.05402454	0.01621211	0.02540485	0.01957794	0.06089415	
-0.01905977	0.05250882	0.01621211	0.02540485	-0.1383518	0.0173062	0.2514499	0.06722061	
0.01760282	0.02811033	0.01957794	0.06089415	0.2514499	0.06722061	-0.08706658	0.03373594	

7.4e+09	-0.05047949	0.04196844	0.2119341	-0.1552771	0.01615128	0.06083342	0.03267377	0.01084316	
0.2119341	-0.1552771	-0.02982937	0.03183178	0.02974618	0.009521827	0.05294907	0.04505841	
0.01615128	0.06083342	0.02974618	0.009521827	-0.09959342	0.02638811	0.2465089	-0.0913772	
0.03267377	0.01084316	0.05294907	0.04505841	0.2465089	-0.0913772	-0.04730075	0.00970945	

7.42e+09	-0.02807174	0.02036539	0.08333148	-0.2507667	0.04770581	0.04823158	0.0324761	-0.01266974	
0.08333148	-0.2507667	-0.01726395	-4.218387e-05	0.02928993	-0.01177448	0.06851387	0.01369913	
0.04770581	0.04823158	0.02928993	-0.01177448	-0.06501749	0.01756741	0.1487028	-0.2188259	
0.0324761	-0.01266974	0.06851387	0.01369913	0.1487028	-0.2188259	-0.03184144	-0.02709919	

7.44e+09	-0.01925792	-0.006823369	-0.07774677	-0.253349	0.06536548	0.02194839	0.01708754	-0.03005509	
-0.07774677	-0.253349	-0.02248578	-0.02955959	0.01525351	-0.0273019	0.06204745	-0.01824391	
0.06536548	0.02194839	0.01525351	-0.0273019	-0.03842512	-0.005366108	-0.005919505	-0.2651339	
0.01708754	-0.03005509	0.06204745	-0.01824391	-0.005919505	-0.2651339	-0.03757939	-0.06139613	

7.46e+09	-0.0247729	-0.03478166	-0.2101938	-0.1614623	0.06548124	-0.007739206	-0.004970494	-0.03350633	
-0.2101938	-0.1614623	-0.0404727	-0.0511188	-0.0045926	-0.0303242	0.03947806	-0.03827026	
0.06548124	-0.007739206	-0.0045926	-0.0303242	-0.02618139	-0.04059443	-0.158391	-0.2123431	
-0.004970494	-0.03350633	0.03947806	-0.03827026	-0.158391	-0.2123431	-0.05821506	-0.08669851	

7.48e+09	-0.04543706	-0.05599011	-0.2643932	-0.01020318	0.05002016	-0.03129249	-0.02357054	-0.02328431	
-0.2643932	-0.01020318	-0.06731746	-0.06010424	-0.02138951	-0.02119626	0.01149368	-0.04097241	
0.05002016	-0.03129249	-0.02138951	-0.02119626	-0.03699952	-0.07898552	-0.2510599	-0.08157431	
-0.02357054	-0.02328431	0.01149368	-0.04097241	-0.2510599	-0.08157431	-0.08970129	-0.09792609	

7.5e+09	-0.07545105	-0.06057752	-0.221434	0.1436911	0.02515193	-0.0419029	-0.03230892	-0.00494396	
-0.221434	0.1436911	-0.09534531	-0.05153151	-0.02952904	-0.004650528	-0.01152501	-0.0277553	
0.02515193	-0.0419029	-0.02952904	-0.004650528	-0.07016267	-0.103125	-0.2513527	0.07723017	
-0.03230892	-0.00494396	-0.01152501	-0.0277553	-0.2513527	0.07723017	-0.1239619	-0.08829066	

7.52e+09	-0.1009316	-0.04529694	-0.09853671	0.244501	-0.0005059926	-0.03702354	-0.02923267	0.01474088	
-0.09853671	0.244501	-0.1119093	-0.02678444	-0.02697668	0.01346184	-0.02226174	-0.004683168	
-0.0005059926	-0.03702354	-0.02697668	0.01346184	-0.1099024	-0.100566	-0.1616649	0.2067728	
-0.02923267	0.01474088	-0.02226174	-0.004683168	-0.1616649	0.2067728	-0.1454248	-0.05763649	

7.54e+09	-0.1093688	-0.01942247	0.05974351	0.2569356	-0.01832645	-0.01918424	-0.01547114	0.02953077	
0.05974351	0.2569356	-0.1078349	0.00180696	-0.01435689	0.02732266	-0.01765769	0.01961085	
-0.01832645	-0.01918424	-0.01435689	0.02732266	-0.1360465	-0.07566034	-0.01439307	0.2625358	
-0.01547114	0.02953077	-0.01765769	0.01961085	-0.01439307	0.2625358	-0.1406265	-0.01998907	

7.56e+09	-0.1003173	0.001593424	0.1971073	0.1763024	-0.02261867	0.00449503	0.005132208	0.03393915	
0.1971073	0.1763024	-0.08700142	0.01798546	0.004852756	0.0314923	0.0001725963	0.03582958	
-0.02261867	0.00449503	0.004852756	0.0314923	-0.140149	-0.04572654	0.1394249	0.2243096	
0.005132208	0.03393915	0.0001725963	0.03582958	0.1394249	0.2243096	-0.1117976	0.002693226	

7.58e+09	-0.08500476	0.009114401	0.2634426	0.03048041	-0.01329112	0.0248816	0.02533358	0.02469009	
0.2634426	0.03048041	-0.06481763	0.0147738	0.02365694	0.02277751	0.02338022	0.03728717	
-0.01329112	0.0248816	0.02365694	0.02277751	-0.129806	-0.02525524	0.2443556	0.1034712	
0.02533358	0.02469009	0.02338022	0.03728717	0.2443556	0.1034712	-0.07844687	-0.0019857	

7.6e+09	-0.0746409	0.007279149	0.2330534	-0.1275824	0.004020766	0.03536114	0.03592096	0.004045053	
0.2330534	-0.1275824	-0.05512852	0.0002309231	0.0333204	0.003502703	0.0409729	0.02421394	
0.004020766	0.03536114	0.0333204	0.003502703	-0.1172486	-0.0151239	0.2600047	-0.05695645	
0.03592096	0.004045053	0.0409729	0.02421394	0.2600047	-0.05695645	-0.06178419	-0.02597168	

7.62e+09	-0.07022185	0.005292333	0.1165443	-0.2388983	0.02185702	0.03490666	0.03103035	-0.01913333	
0.1165443	-0.2388983	-0.05865864	-0.01152963	0.02858856	-0.0178773	0.04528806	0.004549489	
0.02185702	0.03490666	0.02858856	-0.0178773	-0.1056334	-0.008313526	0.179359	-0.1970024	
0.03103035	-0.01913333	0.04528806	0.004549489	0.179359	-0.1970024	-0.06680798	-0.04932712	

7.64e+09	-0.06537627	0.005742678	-0.04291229	-0.2622219	0.03525197	0.02653726	0.01268589	-0.03403676	
-0.04291229	-0.2622219	-0.06576979	-0.01423195	0.01163197	-0.03148076	0.03665494	-0.01142095	
0.03525197	0.02653726	0.01163197	-0.03148076	-0.08999599	-0.00377195	0.03264474	-0.2643822	
0.01268589	-0.03403676	0.03665494	-0.01142095	0.03264474	-0.2643822	-0.08217872	-0.05948748	

7.66e+09	-0.05742769	0.003512428	-0.1863627	-0.1891151	0.04218681	0.01387521	-0.01052538	-0.03434121	
-0.1863627	-0.1891151	-0.06904449	-0.01212471	-0.009663256	-0.03178557	0.02152725	-0.01746355	
0.04218681	0.01387521	-0.009663256	-0.03178557	-0.07001572	-0.008795387	-0.1259615	-0.2345239	
-0.01052538	-0.03434121	0.02152725	-0.01746355	-0.1259615	-0.2345239	-0.09581441	-0.05843947	

7.68e+09	-0.05141459	-0.004977834	-0.2610954	-0.04664923	0.0419228	0.000131017	-0.02866223	-0.02080141	
-0.2610954	-0.04664923	-0.06943259	-0.01083561	-0.02647395	-0.01951115	0.007388151	-0.01322984	
0.0419228	0.000131017	-0.02647395	-0.01951115	-0.05574692	-0.02749134	-0.2379776	-0.1185475	
-0.02866223	-0.02080141	0.007388151	-0.01322984	-0.2379776	-0.1185475	-0.1051688	-0.05280245	

7.7e+09	-0.05285708	-0.01554666	-0.2397056	0.1125415	0.03468391	-0.01120193	-0.03494721	0.0003537795	
-0.2397056	0.1125415	-0.07042646	-0.01008588	-0.032664	-1.710283e-05	-0.0006720161	-0.002232865	
0.03468391	-0.01120193	-0.032664	-1.710283e-05	-0.05753804	-0.05146302	-0.262225	0.04040714	
-0.03494721	0.0003537795	-0.0006720161	-0.002232865	-0.262225	0.04040714	-0.1120028	-0.04360053	

7.72e+09	-0.05982237	-0.0212665	-0.1305137	0.229839	0.02264393	-0.01664762	-0.02770607	0.02074188	
-0.1305137	0.229839	-0.0707052	-0.007132105	-0.02630394	0.01923748	-0.0006569495	0.01067681	
0.02264393	-0.01664762	-0.02630394	0.01923748	-0.07338267	-0.06670289	-0.1905592	0.1837639	
-0.02770607	0.02074188	-0.0006569495	0.01067681	-0.1905592	0.1837639	-0.1129344	-0.02920683	

7.74e+09	-0.06560127	-0.0215686	0.02605655	0.2624899	0.01001717	-0.01450283	-0.01013661	0.03292912	
0.02605655	0.2624899	-0.06633519	-0.004278079	-0.009872982	0.03112358	0.006824248	0.02070855	
0.01001717	-0.01450283	-0.009872982	0.03112358	-0.09103927	-0.06813086	-0.04979296	0.2595469	
-0.01013661	0.03292912	0.006824248	0.02070855	-0.04979296	0.2595469	-0.1015989	-0.01520219	

7.76e+09	-0.06818682	-0.02218156	0.17244	0.1988036	0.001247645	-0.006189301	0.01123574	0.03258106	
0.17244	0.1988036	-0.05911057	-0.008107651	0.01055277	0.03105184	0.01871812	0.02391333	
0.001247645	-0.006189301	0.01055277	0.03105184	-0.1019881	-0.06289083	0.1088128	0.2404005	
0.01123574	0.03258106	0.01871812	0.02391333	0.1088128	0.2404005	-0.0802712	-0.01408176	

7.78e+09	-0.0730815	-0.02590823	0.2547924	0.062517	-0.001439901	0.004511805	0.0284343	0.01963162	
0.2547924	0.062517	-0.0580868	-0.01985358	0.02708673	0.01871451	0.02969127	0.01871062	
-0.001439901	0.004511805	0.02708673	0.01871451	-0.1093171	-0.05876278	0.2270511	0.1331835	
0.0284343	0.01963162	0.02969127	0.01871062	0.2270511	0.1331835	-0.0639089	-0.03180811	

7.8e+09	-0.08492024	-0.02667751	0.2431398	-0.09552049	0.001198045	0.0139918	0.03457213	-0.001172187	
0.2431398	-0.09552049	-0.06977689	-0.03025301	0.03290647	-0.001190523	0.0341646	0.007697445	
0.001198045	0.0139918	0.03290647	-0.001190523	-0.1195265	-0.05346679	0.261224	-0.02201457	
0.03457213	-0.001172187	0.0341646	0.007697445	0.261224	-0.02201457	-0.06762871	-0.05761763	

7.82e+09	-0.09855525	-0.0162627	0.1431705	-0.2170305	0.007109658	0.02062923	0.02696428	-0.02149911	
0.1431705	-0.2170305	-0.08865654	-0.02740987	0.02557165	-0.02048822	0.02992191	-0.003030651	
0.007109658	0.02062923	0.02557165	-0.02048822	-0.1299301	-0.03907979	0.2001461	-0.1674253	
0.02696428	-0.02149911	0.02992191	-0.003030651	0.2001461	-0.1674253	-0.09051348	-0.07184305	

7.84e+09	-0.1022786	0.00455501	-0.007385622	-0.2589047	0.01489071	0.02407626	0.008836979	-0.03310483	
-0.007385622	-0.2589047	-0.1006347	-0.009583668	0.008390251	-0.0314159	0.01983137	-0.007719967	
0.01489071	0.02407626	0.008390251	-0.0314159	-0.129208	-0.01579608	0.06774503	-0.2510916	
0.008836979	-0.03310483	0.01983137	-0.007719967	0.06774503	-0.2510916	-0.1159746	-0.06447113	

7.86e+09	-0.08982202	0.02435361	-0.1543111	-0.2074018	0.02356279	0.02371131	-0.01235898	-0.0316828	
-0.1543111	-0.2074018	-0.09624516	0.01236344	-0.0116016	-0.03014453	0.0096219	-0.004574578	
0.02356279	0.02371131	-0.0116016	-0.03014453	-0.110951	0.003913272	-0.08826344	-0.2443579	
-0.01235898	-0.0316828	0.0096219	-0.004574578	-0.08826344	-0.2443579	-0.1277967	-0.04288421	

7.88e+09	-0.0671329	0.03103397	-0.2453788	-0.08105628	0.03125869	0.01880068	-0.02848377	-0.01820213	
-0.2453788	-0.08105628	-0.07868678	0.02514242	-0.02699493	-0.01760449	0.004113252	0.00397573	
0.03125869	0.01880068	-0.02699493	-0.01760449	-0.08298957	0.00640027	-0.2127302	-0.1493984	
-0.02848377	-0.01820213	0.004113252	0.00397573	-0.2127302	-0.1493984	-0.1231312	-0.02182217	

7.9e+09	-0.04668607	0.02236822	-0.2473016	0.07508882	0.03504566	0.01006375	-0.03360128	0.002037484	
-0.2473016	0.07508882	-0.05890987	0.02405267	-0.0322678	0.001549933	0.004920758	0.01352996	
0.03504566	0.01006375	-0.0322678	0.001549933	-0.06144997	-0.009545907	-0.2600896	0.0004539425	
-0.03360128	0.002037484	0.004920758	0.01352996	-0.2600896	0.0004539425	-0.1098205	-0.009492179	

7.92e+09	-0.03633895	0.00554117	-0.1585337	0.203939	0.03283124	0.000615087	-0.02588287	0.02135137	
-0.1585337	0.203939	-0.04494442	0.01349252	-0.02530562	0.02032443	0.01071098	0.020417	
0.03283124	0.000615087	-0.02530562	0.02032443	-0.05561688	-0.03239579	-0.2120156	0.1503934	
-0.02588287	0.02135137	0.01071098	0.020417	-0.2120156	0.1503934	-0.09445866	-0.004867715	

7.94e+09	-0.03565235	-0.01202606	-0.0115305	0.2575921	0.02536499	-0.005441024	-0.008361252	0.03240054	
-0.0115305	0.2575921	-0.03801381	-0.001207915	-0.008479606	0.03149237	0.01890775	0.02284418	
0.02536499	-0.005441024	-0.008479606	0.03149237	-0.06192025	-0.0508076	-0.08605106	0.2447642	
-0.008361252	0.03240054	0.01890775	0.02284418	-0.08605106	0.2447642	-0.07746102	-0.006708851	

7.96e+09	-0.04212292	-0.02812437	0.1390148	0.2161808	0.01610111	-0.00570518	0.01224985	0.03107896	
0.1390148	0.2161808	-0.03812686	-0.01851341	0.01183392	0.03052863	0.02690599	0.02044423	
0.01610111	-0.00570518	0.01183392	0.03052863	-0.07302608	-0.06310117	0.0709386	0.2486695	
0.01224985	0.03107896	0.02690599	0.02044423	0.0709386	0.2486695	-0.06050707	-0.01901977	

7.98e+09	-0.05677179	-0.0413987	0.2371818	0.09575064	0.008868086	-0.0008044685	0.02816578	0.01794013	
0.2371818	0.09575064	-0.04857437	-0.0361535	0.02768249	0.01763229	0.0321485	0.01388792	
0.008868086	-0.0008044685	0.02768249	0.01763229	-0.08806469	-0.07182381	0.2004546	0.1612791	
0.02816578	0.01794013	0.0321485	0.01388792	0.2004546	0.1612791	-0.05320039	-0.04369929	

8e+09	-0.08011128	-0.04558355	0.2474935	-0.05804907	0.005722689	0.006728894	0.03333637	-0.002076786	
0.2474935	-0.05804907	-0.07107734	-0.04591164	0.0327606	-0.002194163	0.03240933	0.005350338	
0.005722689	0.006728894	0.0327606	-0.002194163	-0.1096077	-0.07362554	0.2550467	0.01634607	
0.03333637	-0.002076786	0.03240933	0.005350338	0.2550467	0.01634607	-0.06601881	-0.0707965	

8.02e+09	-0.1048646	-0.03318446	0.1682281	-0.1884439	0.006822563	0.01439616	0.02569361	-0.02130248	
0.1682281	-0.1884439	-0.09815907	-0.03817197	0.02507191	-0.02109681	0.0272301	-0.001564308	
0.006822563	0.01439616	0.02507191	-0.02109681	-0.1328969	-0.06062064	0.2168814	-0.1319178	
0.02569361	-0.02130248	0.0272301	-0.001564308	0.2168814	-0.1319178	-0.09653301	-0.08270957	

8.04e+09	-0.1174109	-0.005290528	0.02985508	-0.2496311	0.01156725	0.02036866	0.008217926	-0.03228965	
0.02985508	-0.2496311	-0.1149095	-0.01252376	0.007818747	-0.0317175	0.01892603	-0.00366171	
0.01156725	0.02036866	0.007818747	-0.0317175	-0.1445448	-0.03207128	0.1022341	-0.2310963	
0.008217926	-0.03228965	0.01892603	-0.00366171	0.1022341	-0.2310963	-0.127746	-0.07002586	

8.06e+09	-0.1087303	0.02532233	-0.1179837	-0.2214287	0.01883686	0.02292339	-0.01228233	-0.03091124	
-0.1179837	-0.2214287	-0.1105497	0.01857902	-0.01221555	-0.03023454	0.01134546	-0.0003210888	
0.01883686	0.02292339	-0.01221555	-0.03023454	-0.1339879	-0.0007483374	-0.04791209	-0.2478719	
-0.01228233	-0.03091124	0.01134546	-0.0003210888	-0.04791209	-0.2478719	-0.1416849	-0.04057398	

8.08e+09	-0.0828951	0.04289535	-0.2236584	-0.1140088	0.02638866	0.02071814	-0.02805718	-0.01785375	
-0.2236584	-0.1140088	-0.08768228	0.03872735	-0.02762587	-0.01745086	0.007449348	0.006356275	
0.02638866	0.02071814	-0.02762587	-0.01745086	-0.1052664	0.01569461	-0.1815271	-0.1761579	
-0.02805718	-0.01785375	0.007449348	0.006356275	-0.1815271	-0.1761579	-0.1337563	-0.01196096	

8.1e+09	-0.05402819	0.04046239	-0.2490095	0.03530628	0.03088291	0.01412301	-0.0332577	0.001970047	
-0.2490095	0.03530628	-0.05968997	0.03973305	-0.03282705	0.001984786	0.007764216	0.01328793	
0.03088291	0.01412301	-0.03282705	0.001984786	-0.0749936	0.009420709	-0.2504994	-0.03985449	
-0.0332577	0.001970047	0.007764216	0.01328793	-0.2504994	-0.03985449	-0.1133718	0.003305385	

8.12e+09	-0.03484946	0.02351511	-0.1833197	0.1726914	0.02968489	0.006183115	-0.0258674	0.02114961	
-0.1833197	0.1726914	-0.03941087	0.02576029	-0.02566907	0.02103984	0.01086886	0.01847968	
0.02968489	0.006183115	-0.02566907	0.02103984	-0.05820914	-0.01165247	-0.2279395	0.1121601	
-0.0258674	0.02114961	0.01086886	0.01847968	-0.2279395	0.1121601	-0.09227748	0.005094491	

8.14e+09	-0.02876765	0.002178199	-0.04981518	0.2468334	0.02320079	0.001416583	-0.008609571	0.03242546	
-0.04981518	0.2468334	-0.03103912	0.006027772	-0.008476305	0.03244815	0.01520821	0.0216833	
0.02320079	0.001416583	-0.008476305	0.03244815	-0.05704324	-0.03384287	-0.1210918	0.2232091	
-0.008609571	0.03242546	0.01520821	0.0216833	-0.1210918	0.2232091	-0.07469869	-0.001356037	

8.16e+09	-0.03294616	-0.01748829	0.1019124	0.2297294	0.01524711	0.002743663	0.01207685	0.03152705	
0.1019124	0.2297294	-0.03281342	-0.01363876	0.01241483	0.03156534	0.02027424	0.02319009	
0.01524711	0.002743663	0.01241483	0.03156534	-0.06485705	-0.05050802	0.03023354	0.2515295	
0.01207685	0.03152705	0.02027424	0.02319009	0.03023354	0.2515295	-0.06060139	-0.01484028	

8.18e+09	-0.04566849	-0.03341204	0.2151443	0.128094	0.01055575	0.009272471	0.02854944	0.01865875	
0.2151443	0.128094	-0.04384347	-0.03069953	0.02903638	0.01836739	0.02590781	0.0225515	
0.01055575	0.009272471	0.02903638	0.01836739	-0.07767584	-0.06245298	0.1692396	0.1870778	
0.02854944	0.01865875	0.02590781	0.0225515	0.1692396	0.1870778	-0.0543562	-0.03663612	

8.2e+09	-0.06663287	-0.04142692	0.2483826	-0.01941248	0.01159577	0.01714363	0.03453822	-0.001778822	
0.2483826	-0.01941248	-0.06418338	-0.04029339	0.03475529	-0.002498729	0.03102339	0.01903202	
0.01159577	0.01714363	0.03475529	-0.002498729	-0.09653775	-0.06842845	0.2447356	0.0549561	
0.03453822	-0.001778822	0.03102339	0.01903202	0.2447356	0.0549561	-0.06375368	-0.06103087	

8.22e+09	-0.09081561	-0.03526153	0.1909497	-0.1579337	0.01743088	0.02232898	0.02711751	-0.0222825	
0.1909497	-0.1579337	-0.0886772	-0.03543245	0.02673993	-0.02307396	0.03370657	0.01304821	
0.01743088	0.02232898	0.02673993	-0.02307396	-0.1189433	-0.06210279	0.2304896	-0.09505272	
0.02711751	-0.0222825	0.03370657	0.01304821	0.2304896	-0.09505272	-0.08897519	-0.074474	

8.24e+09	-0.1069396	-0.01398393	0.06546403	-0.2378765	0.02524368	0.02268806	0.008478355	-0.03449948	
0.06546403	-0.2378765	-0.1055703	-0.01478058	0.007615258	-0.03487116	0.03286812	0.006418688	
0.02524368	0.02268806	0.007615258	-0.03487116	-0.1341143	-0.04082377	0.133909	-0.2089776	
0.008478355	-0.03449948	0.03286812	0.006418688	0.133909	-0.2089776	-0.1172959	-0.06717597	

8.26e+09	-0.1054612	0.01300506	-0.08254099	-0.2319301	0.03188532	0.01790785	-0.01407936	-0.03291304	
-0.08254099	-0.2319301	-0.1047249	0.01217266	-0.01500063	-0.03265873	0.02886052	0.0009452496	
0.03188532	0.01790785	-0.01500063	-0.03265873	-0.131072	-0.01354497	-0.009742726	-0.2476384	
-0.01407936	-0.03291304	0.02886052	0.0009452496	-0.009742726	-0.2476384	-0.1323918	-0.04370751	

8.28e+09	-0.08761213	0.03135243	-0.2007098	-0.1425316	0.03423872	0.009203064	-0.03113542	-0.01783143	
-0.2007098	-0.1425316	-0.08704746	0.03072257	-0.03172257	-0.01710228	0.02246472	-0.002375845	
0.03423872	0.009203064	-0.03172257	-0.01710228	-0.1104999	0.003646351	-0.1502018	-0.1974539	
-0.03113542	-0.01783143	0.02246472	-0.002375845	-0.1502018	-0.1974539	-0.1283273	-0.01943059	

8.3e+09	-0.06520206	0.03325078	-0.2463982	-0.0009461058	0.02984765	-0.0001441191	-0.03549659	0.004446502	
-0.2463982	-0.0009461058	-0.06444559	0.03255381	-0.03560798	0.005372488	0.0142639	-0.00260042	
0.02984765	-0.0001441191	-0.03560798	0.005372488	-0.08641687	0.001448064	-0.2368881	-0.07500885	
-0.03549659	0.004446502	0.0142639	-0.00260042	-0.2368881	-0.07500885	-0.1133102	-0.006731866	

8.32e+09	-0.0503507	0.02292491	-0.2017811	0.1415513	0.0188627	-0.005030611	-0.02561615	0.02459935	
-0.2017811	0.1415513	-0.04950364	0.0216379	-0.02524014	0.02549695	0.005484037	0.001721537	
0.0188627	-0.005030611	-0.02524014	0.02549695	-0.07383311	-0.01401765	-0.2367349	0.07568834	
-0.02561615	0.02459935	0.005484037	0.001721537	-0.2367349	0.07568834	-0.09938541	-0.005399919	

8.34e+09	-0.04587008	0.0104888	-0.08262866	0.2319201	0.005503937	-0.001017511	-0.006050318	0.03470252	
-0.08262866	0.2319201	-0.04559189	0.008326557	-0.005170622	0.03535692	-0.001008089	0.01151094	
0.005503937	-0.001017511	-0.005170622	0.03535692	-0.0753435	-0.02865041	-0.1490801	0.1983397	
-0.006050318	0.03470252	-0.001008089	0.01151094	-0.1490801	0.1983397	-0.09036943	-0.00779506	

8.36e+09	-0.04675113	0.001363041	0.06660129	0.2363556	-0.003209609	0.01230427	0.01535529	0.03157527	
0.06660129	0.2363556	-0.04793235	-0.001263524	0.01662967	0.03163997	-0.001356765	0.02537175	
-0.003209609	0.01230427	0.01662967	0.03163997	-0.08216889	-0.03506496	-0.006963643	0.247292	
0.01535529	0.03157527	-0.001356765	0.02537175	-0.006963643	0.247292	-0.0823118	-0.01070504	

8.38e+09	-0.0491606	-0.005896858	0.1903317	0.1537759	-0.001296382	0.02995596	0.03111373	0.01685332	
0.1903317	0.1537759	-0.05217169	-0.007769187	0.0323348	0.01602512	0.007117944	0.03890116	
-0.001296382	0.02995596	0.0323348	0.01602512	-0.0869893	-0.03670994	0.1367024	0.2050851	
0.03111373	0.01685332	0.007117944	0.03890116	0.1367024	0.2050851	-0.07383736	-0.01783586	

8.4e+09	-0.05445199	-0.01278162	0.2431795	0.01545254	0.01233632	0.04365961	0.03580561	-0.004694127	
0.2431795	0.01545254	-0.05857727	-0.01254719	0.03628595	-0.006277781	0.02351494	0.04601359	
0.01233632	0.04365961	0.03628595	-0.006277781	-0.09090494	-0.03849327	0.2290391	0.08807584	
0.03580561	-0.004694127	0.02351494	0.04601359	0.2290391	0.08807584	-0.07051552	-0.03101288	

8.42e+09	-0.06402271	-0.0161408	0.2065194	-0.1272206	0.03279569	0.04626763	0.02667406	-0.02585619	
0.2065194	-0.1272206	-0.06766468	-0.01328755	0.02597044	-0.02750718	0.04259775	0.04213927	
0.03279569	0.04626763	0.02597044	-0.02750718	-0.09724555	-0.03871837	0.2367281	-0.05994538	
0.02667406	-0.02585619	0.04259775	0.04213927	0.2367281	-0.05994538	-0.07743067	-0.04393313	

8.44e+09	-0.07394192	-0.01229405	0.09485005	-0.2220613	0.05171256	0.03545209	0.005552814	-0.03779527	
0.09485005	-0.2220613	-0.07546023	-0.007438833	0.003873791	-0.03865337	0.05701737	0.02708847	
0.05171256	0.03545209	0.003873791	-0.03865337	-0.1032406	-0.03330601	0.158145	-0.1845761	
0.005552814	-0.03779527	0.05701737	0.02708847	0.158145	-0.1845761	-0.0907097	-0.04802832	

8.46e+09	-0.07798131	-0.003459284	-0.05049745	-0.235149	0.06108194	0.0143109	-0.01945314	-0.03377546	
-0.05049745	-0.235149	-0.07636816	0.001826388	-0.0213502	-0.03335872	0.06068187	0.005114264	
0.06108194	0.0143109	-0.0213502	-0.03335872	-0.102303	-0.02456079	0.02275932	-0.2410379	
-0.01945314	-0.03377546	0.06068187	0.005114264	0.02275932	-0.2410379	-0.1005761	-0.04271274	

8.48e+09	-0.07519832	0.003191187	-0.1763626	-0.1622306	0.05576869	-0.009947977	-0.0365723	-0.01425159	
-0.1763626	-0.1622306	-0.07055984	0.00690602	-0.03780933	-0.01272424	0.05057443	-0.01671806	
0.05576869	-0.009947977	-0.03780933	-0.01272424	-0.09407293	-0.02130379	-0.1201191	-0.2092314	
-0.0365723	-0.01425159	0.05057443	-0.01671806	-0.1201191	-0.2092314	-0.102547	-0.03623325	

8.5e+09	-0.07182839	0.003726655	-0.2367308	-0.03028392	0.03547226	-0.02765718	-0.03710624	0.01174941	
-0.2367308	-0.03028392	-0.0655004	0.004201283	-0.03714655	0.01373356	0.02795189	-0.03000307	
0.03547226	-0.02765718	-0.03714655	0.01373356	-0.08783807	-0.02835399	-0.2180482	-0.1007524	
-0.03710624	0.01174941	0.02795189	-0.03000307	-0.2180482	-0.1007524	-0.1023992	-0.03519891	

8.52e+09	-0.0738956	0.002619231	-0.2094754	0.1117086	0.00634589	-0.02982435	-0.02121774	0.03157533	
-0.2094754	0.1117086	-0.06812662	-0.0007729051	-0.02003282	0.03319569	-0.0005459276	-0.0275796	
0.00634589	-0.02982435	-0.02003282	0.03319569	-0.09310523	-0.03847029	-0.2346529	0.0436598	
-0.02121774	0.03157533	-0.0005459276	-0.0275796	-0.2346529	0.0436598	-0.1078902	-0.03584848	

8.54e+09	-0.07919917	0.007430744	-0.1055358	0.2108421	-0.0201618	-0.01292874	0.002525343	0.03673129	
-0.1055358	0.2108421	-0.07622001	0.001170747	0.004471589	0.03731705	-0.02409075	-0.007549584	
-0.0201618	-0.01292874	0.004471589	0.03731705	-0.1075559	-0.03882856	-0.1650225	0.1698149	
0.002525343	0.03673129	-0.02409075	-0.007549584	-0.1650225	0.1698149	-0.1173515	-0.02886773	

8.56e+09	-0.07916255	0.01920995	0.03534812	0.2312439	-0.03229059	0.01839583	0.02329333	0.0268953	
0.03534812	0.2312439	-0.08008983	0.01215535	0.02521575	0.02615823	-0.03218008	0.02451465	
-0.03229059	0.01839583	0.02521575	0.02615823	-0.118144	-0.02504764	-0.03670468	0.2319539	
0.02329333	0.0268953	-0.03218008	0.02451465	-0.03670468	0.2319539	-0.1201297	-0.01222351	

8.58e+09	-0.06844046	0.03028578	0.1608134	0.167069	-0.02315089	0.05304074	0.03370315	0.007661498	
0.1608134	0.167069	-0.07291376	0.0243966	0.03472201	0.005913627	-0.01943459	0.05715411	
-0.02315089	0.05304074	0.03472201	0.005913627	-0.114332	-0.006011898	0.1026007	0.2091383	
0.03370315	0.007661498	-0.01943459	0.05715411	0.1026007	0.2091383	-0.1086662	0.004516465	

8.6e+09	-0.05039975	0.0314077	0.2255786	0.04410551	0.006693396	0.07695446	0.03107289	-0.01295667	
0.2255786	0.04410551	-0.05866767	0.02787001	0.03096254	-0.01478164	0.01085848	0.07684361	
0.006693396	0.07695446	0.03096254	-0.01478164	-0.09726741	0.004944375	0.2025067	0.1116376	
0.03107289	-0.01295667	0.01085848	0.07684361	0.2025067	0.1116376	-0.08787551	0.008879585	

8.62e+09	-0.03580558	0.01949752	0.2092758	-0.09307496	0.04611226	0.07812087	0.01852784	-0.02867148	
0.2092758	-0.09307496	-0.04571497	0.02316244	0.0174526	-0.03038781	0.04793584	0.07715314	
0.04611226	0.07812087	0.0174526	-0.03038781	-0.07859076	0.001646242	0.2292052	-0.02495754	
0.01852784	-0.02867148	0.04793584	0.07715314	0.2292052	-0.02495754	-0.07053092	0.0005416492	

8.64e+09	-0.03147845	0.002295062	0.1165458	-0.1959037	0.07986841	0.05575636	-0.002406672	-0.03538425	
0.1165458	-0.1959037	-0.03636412	0.01154236	-0.004505657	-0.03611704	0.08144202	0.05486925	
0.07986841	0.05575636	-0.004505657	-0.03611704	-0.06617825	-0.01010306	0.1717777	-0.1520723	
-0.002406672	-0.03538425	0.08144202	0.05486925	0.1717777	-0.1520723	-0.06018192	-0.0144484	

8.66e+09	-0.0361109	-0.0141081	-0.01777571	-0.2258114	0.09520654	0.01638394	-0.02443424	-0.02707989	
-0.01777571	-0.2258114	-0.03458084	-0.004386973	-0.02661596	-0.02637549	0.09625762	0.0146229	
0.09520654	0.01638394	-0.02661596	-0.02637549	-0.06030874	-0.02594809	0.05203203	-0.2218397	
-0.02443424	-0.02707989	0.09625762	0.0146229	0.05203203	-0.2218397	-0.05777674	-0.03254224	

8.68e+09	-0.04849045	-0.02753522	-0.1440896	-0.1727576	0.08375363	-0.02664546	-0.03676803	-0.005639435	
-0.1440896	-0.1727576	-0.04192454	-0.02031227	-0.03812587	-0.003637527	0.0835962	-0.02828275	
0.08375363	-0.02664546	-0.03812587	-0.003637527	-0.06248859	-0.045334	-0.08518792	-0.2093731	
-0.03676803	-0.005639435	0.0835962	-0.02828275	-0.08518792	-0.2093731	-0.06405347	-0.05140835	

8.7e+09	-0.06838138	-0.03415332	-0.2154545	-0.05720724	0.04742212	-0.05530685	-0.03170309	0.01929094	
-0.2154545	-0.05720724	-0.05870967	-0.03190329	-0.03150517	0.02176644	0.04682686	-0.05632118	
0.04742212	-0.05530685	-0.03150517	0.02176644	-0.07707989	-0.06408391	-0.1884731	-0.1202557	
-0.03170309	0.01929094	0.04682686	-0.05632118	-0.1884731	-0.1202557	-0.08106759	-0.06768692	

8.72e+09	-0.09260525	-0.02845372	-0.2067149	0.07671236	-0.0001791144	-0.05669872	-0.0115575	0.03420414	
-0.2067149	0.07671236	-0.08329588	-0.03220803	-0.00985359	0.03604337	-0.0007833886	-0.05732065	
-0.0001791144	-0.05669872	-0.00985359	0.03604337	-0.1048291	-0.07245184	-0.2203776	0.01012292	
-0.0115575	0.03420414	-0.0007833886	-0.05732065	-0.2203776	0.01012292	-0.1093071	-0.07322997	

8.74e+09	-0.112302	-0.006671967	-0.1235396	0.1794827	-0.04027143	-0.02921597	0.0121294	0.03218103	
-0.1235396	0.1794827	-0.1068216	-0.0151459	0.01460598	0.03260168	-0.04084837	-0.02972167	
-0.04027143	-0.02921597	0.01460598	0.03260168	-0.1365658	-0.06006194	-0.1724095	0.1327253	
0.0121294	0.03218103	-0.04084837	-0.02972167	-0.1724095	0.1327253	-0.1401028	-0.05869249	

8.76e+09	-0.1155747	0.02666127	0.00159045	0.2154241	-0.05737443	0.01713678	0.02766282	0.01677366	
0.00159045	0.2154241	-0.1159202	0.01658047	0.02990269	0.01561016	-0.05809195	0.01664663	
-0.05737443	0.01713678	0.02990269	0.01561016	-0.1553594	-0.02683523	-0.06511985	0.2049115	
0.02766282	0.01677366	-0.05809195	0.01664663	-0.06511985	0.2049115	-0.1573372	-0.02441333	

8.78e+09	-0.09627703	0.05784908	0.1232552	0.1741569	-0.04489776	0.0659412	0.03028121	-0.002870949	
0.1232552	0.1741569	-0.1022903	0.04977986	0.03138842	-0.005167844	-0.0459343	0.06560097	
-0.04489776	0.0659412	0.03138842	-0.005167844	-0.1484881	0.01338284	0.06257078	0.2038324	
0.03028121	-0.002870949	-0.0459343	0.06560097	0.06257078	0.2038324	-0.1490297	0.01584777	

8.8e+09	-0.06021873	0.07161346	0.199187	0.07193959	-0.005979884	0.1001216	0.0220057	-0.01892923	
0.199187	0.07193959	-0.06972625	0.06837642	0.02150443	-0.02147068	-0.007372402	0.1002493	
-0.005979884	0.1001216	0.02150443	-0.02147068	-0.1173064	0.04128709	0.1667806	0.1310691	
0.0220057	-0.01892923	-0.007372402	0.1002493	0.1667806	0.1310691	-0.1169191	0.04327287	

8.82e+09	-0.02233022	0.06088844	0.2033098	-0.05470115	0.04725446	0.1063	0.007211028	-0.02758092	
0.2033098	-0.05470115	-0.03200216	0.06360157	0.00523513	-0.02933351	0.04580659	0.1072364	
0.04725446	0.1063	0.00523513	-0.02933351	-0.07581393	0.04463999	0.2110085	0.01183267	
0.007211028	-0.02758092	0.04580659	0.1072364	0.2110085	0.01183267	-0.07496854	0.04610292	

8.84e+09	0.002201966	0.03007851	0.1343344	-0.160645	0.09585217	0.07970243	-0.01014216	-0.02705443	
0.1343344	-0.160645	-0.004203767	0.037805	-0.01281936	-0.02724253	0.09493889	0.0815422	
0.09585217	0.07970243	-0.01281936	-0.02724253	-0.04083084	0.02385962	0.1786569	-0.1111868	
-0.01014216	-0.02705443	0.09493889	0.0815422	0.1786569	-0.1111868	-0.03972713	0.02494977	

8.86e+09	0.005073385	-0.008989129	0.01737522	-0.2073934	0.1202689	0.02828412	-0.02511097	-0.01611477	
0.01737522	-0.2073934	0.004224893	0.0009933516	-0.02736779	-0.01460077	0.1205368	0.03063933	
0.1202689	0.02828412	-0.02736779	-0.01460077	-0.02325202	-0.01214553	0.08128533	-0.1925887	
-0.02511097	-0.01611477	0.1205368	0.03063933	0.08128533	-0.1925887	-0.02185506	-0.01137702	

8.88e+09	-0.01401805	-0.04353056	-0.1043875	-0.1781379	0.1093364	-0.02869816	-0.03062104	0.003153574	
-0.1043875	-0.1781379	-0.009028202	-0.03490947	-0.03147339	0.005753739	0.1110201	-0.02667611	
0.1093364	-0.02869816	-0.03147339	0.005753739	-0.02744569	-0.05263293	-0.04434221	-0.2021846	
-0.03062104	0.003153574	0.1110201	-0.02667611	-0.04434221	-0.2021846	-0.02569866	-0.05236492	

8.9e+09	-0.04980479	-0.06297337	-0.1859984	-0.08468594	0.06630107	-0.06846042	-0.02175822	0.02240575	
-0.1859984	-0.08468594	-0.04088135	-0.05882056	-0.02083457	0.02497982	0.06902999	-0.06765819	
0.06630107	-0.06846042	-0.02083457	0.02497982	-0.05387277	-0.08648293	-0.1506852	-0.1378841	
-0.02175822	0.02240575	0.06902999	-0.06765819	-0.1506852	-0.1378841	-0.05195631	-0.08701933	

8.92e+09	-0.09272054	-0.05968562	-0.1984578	0.03706867	0.008125805	-0.07511677	-0.001915649	0.03086962	
-0.1984578	0.03706867	-0.08320726	-0.0613681	0.0003837386	0.03233172	0.01099001	-0.07601162	
0.008125805	-0.07511677	0.0003837386	0.03233172	-0.0978502	-0.1012561	-0.1993292	-0.02617141	
-0.001915649	0.03086962	0.01099001	-0.07601162	-0.1993292	-0.02617141	-0.09623399	-0.102766	

8.94e+09	-0.1288657	-0.03124732	-0.1396988	0.1420593	-0.04256814	-0.04696259	0.01798015	0.0238648	
-0.1396988	0.1420593	-0.1221735	-0.03784238	0.02067559	0.02363085	-0.04061189	-0.04935384	
-0.04256814	-0.04696259	0.02067559	0.02363085	-0.1459347	-0.08709811	-0.1759059	0.0905198	
0.01798015	0.0238648	-0.04061189	-0.04935384	-0.1759059	0.0905198	-0.1452053	-0.08940077	

8.96e+09	-0.1431622	0.01560296	-0.03343628	0.1938982	-0.06798729	0.004360795	0.0275457	0.006420221	
-0.03343628	0.1938982	-0.1413917	0.006692596	0.02954293	0.004613569	-0.06762486	0.001227622	
-0.06798729	0.004360795	0.02954293	0.004613569	-0.1784292	-0.04485143	-0.09256253	0.1718354	
0.0275457	0.006420221	-0.06762486	0.001227622	-0.09256253	0.1718354	-0.1789908	-0.04735826	

8.98e+09	-0.1268539	0.06430099	0.08180638	0.176713	-0.06072065	0.06082672	0.02381524	-0.01143438	
0.08180638	0.176713	-0.1301867	0.05620198	0.0243237	-0.01408408	-0.06206038	0.05797357	
-0.06072065	0.06082672	0.0243237	-0.01408408	-0.1795327	0.01050899	0.02035955	0.1924159	
0.02381524	-0.01143438	-0.06206038	0.05797357	0.02035955	0.1924159	-0.1813455	0.008615478	

9e+09	-0.0840797	0.09516861	0.1664399	0.09833818	-0.0234645	0.104375	0.01120453	-0.02191255	
0.1664399	0.09833818	-0.09099693	0.09033232	0.009991977	-0.02435932	-0.02603742	0.1025976	
-0.0234645	0.104375	0.009991977	-0.02435932	-0.1471509	0.05648596	0.1250914	0.1466186	
0.01120453	-0.02191255	-0.02603742	0.1025976	0.1250914	0.1466186	-0.1496166	0.05579057	

9.02e+09	-0.03096605	0.09547377	0.1918669	-0.0137643	0.03268127	0.1204449	-0.00349734	-0.02303805	
0.1918669	-0.0137643	-0.03914355	0.09496937	-0.00601868	-0.02422966	0.02963743	0.1199838	
0.03268127	0.1204449	-0.00601868	-0.02422966	-0.09435407	0.0747573	0.1860365	0.04938578	
-0.00349734	-0.02303805	0.02963743	0.1199838	0.1860365	0.04938578	-0.09665749	0.07519163	

9.04e+09	0.01240882	0.0657788	0.1488557	-0.1201887	0.08945561	0.1018539	-0.01589206	-0.01643374	
0.1488557	-0.1201887	0.004915025	0.06948639	-0.01859156	-0.01571109	0.08605094	0.1026279	
0.08945561	0.1018539	-0.01859156	-0.01571109	-0.0416008	0.06016889	0.1803437	-0.06582158	
-0.01589206	-0.01643374	0.08605094	0.1026279	0.1803437	-0.06582158	-0.04376903	0.06109087	

9.06e+09	0.03206348	0.01749102	0.0533935	-0.1825206	0.126502	0.05306226	-0.02246791	-0.003788062	
0.0533935	-0.1825206	0.02752311	0.02520438	-0.02401696	-0.001612046	0.1232646	0.05619571	
0.126502	0.05306226	-0.02401696	-0.001612046	-0.005838219	0.0197095	0.1094472	-0.1564345	
-0.02246791	-0.003788062	0.1232646	0.05619571	0.1094472	-0.1564345	-0.008216227	0.02206919	

9.08e+09	0.02202786	-0.03418448	-0.05991791	-0.1793879	0.1282216	-0.00959377	-0.02021914	0.01064682	
-0.05991791	-0.1793879	0.02315492	-0.02464628	-0.02010373	0.01309046	0.1276485	-0.003962009	
0.1282216	-0.00959377	-0.02010373	0.01309046	0.002665061	-0.03422941	0.0001587551	-0.1894999	
-0.02021914	0.01064682	0.1276485	-0.003962009	0.0001587551	-0.1894999	0.002020491	-0.02944075	

9.1e+09	-0.01590527	-0.07252235	-0.1513507	-0.112362	0.09187576	-0.06135695	-0.009820669	0.02083222	
-0.1513507	-0.112362	-0.009253802	-0.06622156	-0.008467719	0.02278118	0.09543688	-0.05701378	
0.09187576	-0.06135695	-0.008467719	0.02278118	-0.02061551	-0.08554087	-0.1078818	-0.1541857	
-0.009820669	0.02083222	0.09543688	-0.05701378	-0.1078818	-0.1541857	-0.0172695	-0.08166704	

9.12e+09	-0.06988692	-0.08334705	-0.1870484	-0.004800031	0.03304041	-0.08099942	0.00538425	0.02314292	
-0.1870484	-0.004800031	-0.06166779	-0.08207411	0.007759837	0.0239734	0.03781902	-0.0796682	
0.03304041	-0.08099942	0.007759837	0.0239734	-0.06996154	-0.1162516	-0.1747349	-0.06342566	
0.00538425	0.02314292	0.03781902	-0.0796682	-0.1747349	-0.06342566	-0.06566159	-0.1153508	

9.14e+09	-0.1221377	-0.06174974	-0.153969	0.1021806	-0.02447798	-0.06366765	0.01959393	0.01467308	
-0.153969	0.1021806	-0.1148813	-0.06452114	0.02205976	0.0137043	-0.01988105	-0.06438437	
-0.02447798	-0.06366765	0.02205976	0.0137043	-0.1303425	-0.1139054	-0.1766328	0.04696533	
0.01959393	0.01467308	-0.01988105	-0.06438437	-0.1766328	0.04696533	-0.1265828	-0.1145369	

9.16e+09	-0.1544335	-0.01323962	-0.06717569	0.1688909	-0.0615311	-0.01882369	0.02478692	-0.002229704	
-0.06717569	0.1688909	-0.1491338	-0.01947498	0.02582582	-0.004581214	-0.05668439	-0.02187269	
-0.0615311	-0.01882369	0.02582582	-0.004581214	-0.1805953	-0.07639789	-0.1169817	0.1359078	
0.02478692	-0.002229704	-0.05668439	-0.02187269	-0.1169817	0.1359078	-0.1760357	-0.0784866	

9.18e+09	-0.1538952	0.04719739	0.03889244	0.1748979	-0.06860876	0.03832843	0.01604851	-0.01806634	
0.03889244	0.1748979	-0.1533461	0.03814821	0.01537761	-0.02011671	-0.06633364	0.03128498	
-0.06860876	0.03832843	0.01537761	-0.02011671	-0.2008643	-0.01468006	-0.02122368	0.1757431	
0.01604851	-0.01806634	-0.06633364	0.03128498	-0.02122368	0.1757431	-0.197769	-0.02127506	

9.2e+09	-0.1176532	0.097747	0.129528	0.1222233	-0.04332826	0.09063594	-5.486542e-05	-0.02245393	
0.129528	0.1222233	-0.1229467	0.09054477	-0.001455573	-0.02362921	-0.04677347	0.08362271	
-0.04332826	0.09063594	-0.001455573	-0.02362921	-0.1808177	0.04834849	0.08016667	0.1575466	
-5.486542e-05	-0.02245393	-0.04677347	0.08362271	0.08016667	0.1575466	-0.1837637	0.04080674	

9.22e+09	-0.05861817	0.1182928	0.1756122	0.02806093	0.007084326	0.1210629	-0.01329664	-0.01582948	
0.1756122	0.02806093	-0.06669352	0.1158432	-0.01502511	-0.01611245	0.000123475	0.1179099	
0.007084326	0.1210629	-0.01502511	-0.01611245	-0.1283299	0.08786932	0.1554778	0.0855701	
-0.01329664	-0.01582948	0.000123475	0.1179099	0.1554778	0.0855701	-0.1354845	0.08416771	

9.24e+09	0.001279977	0.101852	0.160903	-0.07621319	0.06721873	0.1184226	-0.01861193	-0.003820481	
0.160903	-0.07621319	-0.006301868	0.1043799	-0.02020838	-0.003121201	0.05992895	0.1200309	
0.06721873	0.1184226	-0.02020838	-0.003121201	-0.06374941	0.09067259	0.1775271	-0.01772769	
-0.01861193	-0.003820481	0.05992895	0.1200309	0.1775271	-0.01772769	-0.07153773	0.09212624	

9.26e+09	0.04139586	0.05512809	0.08934827	-0.1544941	0.1162841	0.08127184	-0.01595799	0.007451509	
0.08934827	-0.1544941	0.03683278	0.06124675	-0.01687753	0.00892488	0.1114084	0.08676655	
0.1162841	0.08127184	-0.01687753	0.00892488	-0.009324655	0.05771256	0.1361896	-0.1164074	
-0.01595799	0.007451509	0.1114084	0.08676655	0.1361896	-0.1164074	-0.01461312	0.06344792	

9.28e+09	0.04888154	-0.005702133	-0.01489652	-0.1782185	0.1349006	0.02179573	-0.008347894	0.01455268	
-0.01489652	-0.1782185	0.04866737	0.0015796	-0.008254997	0.01627853	0.1341503	0.02900433	
0.1349006	0.02179573	-0.008254997	0.01627853	0.01815868	0.0007213285	0.04467529	-0.1736967	
-0.008347894	0.01455268	0.1341503	0.02900433	0.04467529	-0.1736967	0.01728564	0.008366626	

9.3e+09	0.02142206	-0.0608143	-0.1144276	-0.1373891	0.1151143	-0.03708332	0.001439507	0.01658364	
-0.1144276	-0.1373891	0.0252327	-0.05504192	0.002500189	0.01793053	0.1186352	-0.03088669	
0.1151143	-0.03708332	0.002500189	0.01793053	0.01009145	-0.06261805	-0.06319513	-0.1671528	
0.001439507	0.01658364	0.1186352	-0.03088669	-0.06319513	-0.1671528	0.0138018	-0.05601779	

9.32e+09	-0.03270491	-0.09189682	-0.1719294	-0.04655112	0.06554388	-0.07252613	0.01116874	0.01293683	
-0.1719294	-0.04655112	-0.02666624	-0.08950719	0.01280464	0.01342038	0.07185493	-0.06957636	
0.06554388	-0.07252613	0.01280464	0.01342038	-0.032533	-0.1121986	-0.1464652	-0.09964977	
0.01116874	0.01293683	0.07185493	-0.06957636	-0.1464652	-0.09964977	-0.02583878	-0.1090506	

9.34e+09	-0.09630543	-0.0872632	-0.1662588	0.05998801	0.006469593	-0.07292157	0.01745638	0.00361123	
-0.1662588	0.05998801	-0.09042132	-0.08860895	0.01906942	0.003057669	0.01314165	-0.07407632	
0.006469593	-0.07292157	0.01906942	0.003057669	-0.09755081	-0.1297367	-0.174961	0.001771175	
0.01745638	0.00361123	0.01314165	-0.07407632	-0.174961	0.001771175	-0.09046364	-0.1309877	

9.36e+09	-0.1472119	-0.04652875	-0.1012514	0.1426855	-0.04096461	-0.0412516	0.01652354	-0.008526976	
-0.1012514	0.1426855	-0.1434094	-0.05058684	0.01750967	-0.009919007	-0.03626355	-0.04581889	
-0.04096461	-0.0412516	0.01750967	-0.009919007	-0.162548	-0.106409	-0.1413628	0.0992409	
0.01652354	-0.008526976	-0.03626355	-0.04581889	-0.1413628	0.0992409	-0.1575578	-0.1113096	

9.38e+09	-0.1660964	0.01695933	-0.002469634	0.1731824	-0.06289508	0.009669242	0.007406551	-0.01775727	
-0.002469634	0.1731824	-0.165182	0.01189835	0.007381746	-0.01946533	-0.06156845	0.003431432	
-0.06289508	0.009669242	0.007381746	-0.01946533	-0.20283	-0.04910721	-0.0605944	0.1599362	
0.007406551	-0.01775727	-0.06156845	0.003431432	-0.0605944	0.1599362	-0.2014762	-0.0557607	

9.4e+09	-0.1452011	0.0802876	0.09498394	0.1432388	-0.05441504	0.06377942	-0.006133985	-0.01867859	
0.09498394	0.1432388	-0.1469907	0.07590005	-0.007167067	-0.02003888	-0.05669594	0.0579769	
-0.05441504	0.06377942	-0.007167067	-0.02003888	-0.2028649	0.0211072	0.03918385	0.1657206	
-0.006133985	-0.01867859	-0.05669594	0.0579769	0.03918385	0.1657206	-0.2053549	0.01497222	

9.42e+09	-0.0923165	0.1204397	0.1585217	0.06468182	-0.01819301	0.1053811	-0.01701511	-0.01006672	
0.1585217	0.06468182	-0.09592774	0.1178288	-0.01865212	-0.01053568	-0.02321406	0.1018479	
-0.01819301	0.1053811	-0.01865212	-0.01053568	-0.1632087	0.07830163	0.125569	0.1153372	
-0.01701511	-0.01006672	-0.02321406	0.1018479	0.125569	0.1153372	-0.1685688	0.07462901	

9.44e+09	-0.02673741	0.1239797	0.1674248	-0.03584998	0.03591178	0.1210034	-0.0191793	0.00358238	
0.1674248	-0.03584998	-0.03093625	0.1237105	-0.0207543	0.004184801	0.02984185	0.1208294	
0.03591178	0.1210034	-0.0207543	0.004184801	-0.09937088	0.1029016	0.1695973	0.0245853	
-0.0191793	0.00358238	0.02984185	0.1208294	0.1695973	0.0245853	-0.1058197	0.1027974	

9.46e+09	0.02912718	0.090955	0.1182455	-0.1246048	0.09079225	0.1033285	-0.01185566	0.01471915	
0.1182455	-0.1246048	0.0256136	0.09288826	-0.01273493	0.01611944	0.08569228	0.1065454	
0.09079225	0.1033285	-0.01273493	0.01611944	-0.03377783	0.08840909	0.154561	-0.07652981	
-0.01185566	0.01471915	0.08569228	0.1065454	0.154561	-0.07652981	-0.03913304	0.0918794	

9.48e+09	0.05736407	0.03304445	0.02658991	-0.1705395	0.1261319	0.05667535	0.0001573644	0.01806831	
0.02658991	-0.1705395	0.05558322	0.03639204	0.0002867817	0.01967691	0.1237577	0.06215708	
0.1261319	0.05667535	0.0002867817	0.01967691	0.01285059	0.04097621	0.08353538	-0.1519063	
0.0001573644	0.01806831	0.1237577	0.06215708	0.08353538	-0.1519063	0.01038361	0.04681426	

9.5e+09	0.04900458	-0.03082639	-0.07592849	-0.1558145	0.1276783	-0.00172565	0.01068006	0.01357291	
-0.07592849	-0.1558145	0.04934993	-0.02730672	0.01170344	0.0147576	0.1288364	0.004047947	
0.1276783	-0.00172565	0.01170344	0.0147576	0.02618149	-0.02441805	-0.01882833	-0.1726162	
0.01068006	0.01357291	0.1288364	0.004047947	-0.01882833	-0.1726162	0.02744268	-0.01827709	

9.52e+09	0.006235257	-0.07972454	-0.1517843	-0.08417005	0.09549938	-0.0492044	0.01614861	0.004522752	
-0.1517843	-0.08417005	0.008259313	-0.07722056	0.01763223	0.004875935	0.09964585	-0.04522863	
0.09549938	-0.0492044	0.01763223	0.004875935	0.0008736198	-0.08735263	-0.1142463	-0.1300438	
0.01614861	0.004522752	0.09964585	-0.04522863	-0.1142463	-0.1300438	0.005323291	-0.08310669	

9.54e+09	-0.05752216	-0.09637955	-0.1721291	0.018213	0.04351911	-0.06892829	0.01576688	-0.005633255	
-0.1721291	0.018213	-0.05479023	-0.09547584	0.01715417	-0.006193473	0.04900055	-0.06805103	
0.04351911	-0.06892829	0.01715417	-0.006193473	-0.05672557	-0.1260436	-0.1668448	-0.04079581	
0.01576688	-0.005633255	0.04900055	-0.06805103	-0.1668448	-0.04079581	-0.0508234	-0.1251003	

9.56e+09	-0.1203677	-0.07347278	-0.1298419	0.1127903	-0.008667913	-0.05651313	0.009869742	-0.01412429	
-0.1298419	0.1127903	-0.117906	-0.07404837	0.01066783	-0.01536959	-0.003863814	-0.05879317	
-0.008667913	-0.05651313	0.01066783	-0.01536959	-0.1274048	-0.124764	-0.1588322	0.06068388	
0.009869742	-0.01412429	-0.003863814	-0.05879317	-0.1588322	0.06068388	-0.1221746	-0.127269	

9.58e+09	-0.1590514	-0.01820598	-0.04219821	0.1653091	-0.04452991	-0.01876439	-0.0004116398	-0.01815333	
-0.04219821	0.1653091	-0.1574197	-0.01971928	-0.0004930868	-0.01962881	-0.04194862	-0.02312823	
-0.04452991	-0.01876439	-0.0004930868	-0.01962881	-0.1848936	-0.08251335	-0.09605015	0.1384557	
-0.0004116398	-0.01815333	-0.04194862	-0.02312823	-0.09605015	0.1384557	-0.1820766	-0.08731464	

9.6e+09	-0.1590624	0.04920763	0.05831934	0.1590553	-0.05450085	0.03156763	-0.01213895	-0.01508163	
0.05831934	0.1590553	-0.1583982	0.0473711	-0.013077	-0.01622388	-0.05475492	0.02674126	
-0.05450085	0.03156763	-0.013077	-0.01622388	-0.2074247	-0.01505034	-0.001858665	0.1676997	
-0.01213895	-0.01508163	-0.05475492	0.02674126	-0.001858665	0.1676997	-0.2077366	-0.02044197	

9.62e+09	-0.1210982	0.1040506	0.1372378	0.09814394	-0.03604987	0.0796562	-0.02014591	-0.004396203	
0.1372378	0.09814394	-0.1212706	0.1023366	-0.02158168	-0.004748988	-0.03879359	0.07594	
-0.03604987	0.0796562	-0.02158168	-0.004748988	-0.1875825	0.05216228	0.09247458	0.1400429	
-0.02014591	-0.004396203	-0.03879359	0.07594	0.09247458	0.1400429	-0.1906905	0.04800431	

9.64e+09	-0.05990125	0.1276434	0.1686558	0.003860322	0.006274171	0.1106623	-0.0192351	0.01006869	
0.1686558	0.003860322	-0.0607159	0.1262711	-0.0205807	0.01065436	0.00212607	0.1091393	
0.006274171	0.1106623	-0.0205807	0.01065436	-0.1345053	0.09548202	0.1560287	0.06419889	
-0.0192351	0.01006869	0.00212607	0.1091393	0.1560287	0.06419889	-0.1392607	0.09375581	

9.66e+09	0.002816129	0.1136051	0.1420362	-0.09218655	0.05985687	0.1129498	-0.00834944	0.02082237	
0.1420362	-0.09218655	0.001560739	0.1127592	-0.009042643	0.02208117	0.05574182	0.1139241	
0.05985687	0.1129498	-0.009042643	0.02208117	-0.06799618	0.101956	0.1663279	-0.03557565	
-0.00834944	0.02082237	0.05574182	0.1139241	0.1663279	-0.03557565	-0.07276952	0.1031192	

9.68e+09	0.04675443	0.06808665	0.06540752	-0.1574334	0.1057693	0.0838437	0.007255366	0.02149557	
0.06540752	-0.1574334	0.04534072	0.06785461	0.007464629	0.02287591	0.103029	0.08680151	
0.1057693	0.0838437	0.007464629	0.02287591	-0.00993162	0.07165601	0.1175472	-0.1249345	
0.007255366	0.02149557	0.103029	0.08680151	0.1175472	-0.1249345	-0.01314818	0.07519616	

9.7e+09	0.05832219	0.00640648	-0.0360774	-0.1679999	0.1262275	0.03358889	0.0191966	0.01173054	
-0.0360774	-0.1679999	0.05699164	0.006741673	0.02015167	0.01266858	0.1256546	0.0373566	
0.1262275	0.03358889	0.02015167	0.01266858	0.02214482	0.01505017	0.02511522	-0.170864	
0.0191966	0.01173054	0.1256546	0.0373566	0.02511522	-0.170864	0.02149337	0.01966194	

9.72e+09	0.03371041	-0.05138171	-0.1265992	-0.1178905	0.1138847	-0.01820141	0.0218223	-0.002845222	
-0.1265992	-0.1178905	0.0326112	-0.05058522	0.02308815	-0.0026611	0.1154201	-0.01499455	
0.1138847	-0.01820141	0.02308815	-0.0026611	0.01782869	-0.05031039	-0.07776347	-0.1548173	
0.0218223	-0.002845222	0.1154201	-0.01499455	-0.07776347	-0.1548173	0.019841	-0.04627914	

9.74e+09	-0.01944229	-0.08550648	-0.1719285	-0.02388763	0.07526416	-0.05232554	0.01520038	-0.01512734	
-0.1719285	-0.02388763	-0.0201965	-0.08431895	0.01629575	-0.01568943	0.07808498	-0.05068573	
0.07526416	-0.05232554	0.01629575	-0.01568943	-0.02301946	-0.1028146	-0.1523435	-0.08206281	
0.01520038	-0.01512734	0.07808498	-0.05068573	-0.1523435	-0.08206281	-0.0192197	-0.1007532	

9.76e+09	-0.08301132	-0.08324346	-0.1543789	0.07913573	0.02596155	-0.05856348	0.003336785	-0.02081828	
-0.1543789	0.07913573	-0.08328626	-0.08170243	0.00389571	-0.02187481	0.02889001	-0.05875107	
0.02596155	-0.05856348	0.00389571	-0.02187481	-0.0874825	-0.1227819	-0.1711024	0.01967618	
0.003336785	-0.02081828	0.02889001	-0.05875107	-0.1711024	0.01967618	-0.08341748	-0.1232071	

9.78e+09	-0.1338648	-0.0446347	-0.08098829	0.1527024	-0.01734179	-0.03730853	-0.009259423	-0.0190521	
-0.08098829	0.1527024	-0.133392	-0.04293022	-0.009404061	-0.02022234	-0.01526257	-0.03886559	
-0.01734179	-0.03730853	-0.009404061	-0.02022234	-0.1519344	-0.1015193	-0.1289645	0.1127012	
-0.009259423	-0.0190521	-0.01526257	-0.03886559	-0.1289645	0.1127012	-0.1490099	-0.1040281	

9.8e+09	-0.1529571	0.01588753	0.02020197	0.17089	-0.04190816	0.003364489	-0.0191064	-0.01068258	
0.02020197	0.17089	-0.1515802	0.01735078	-0.0199031	-0.01154671	-0.0411116	0.001263255	
-0.04190816	0.003364489	-0.0199031	-0.01154671	-0.1916907	-0.04704828	-0.0427662	0.1652457	
-0.0191064	-0.01068258	-0.0411116	0.001263255	-0.0427662	0.1652457	-0.190748	-0.05054029	

9.82e+09	-0.1340715	0.07542214	0.1130677	0.1290425	-0.04064465	0.05096939	-0.02301638	0.002602041	
0.1130677	0.1290425	-0.1319136	0.07609896	-0.02417125	0.002378531	-0.04098428	0.04910367	
-0.04064465	0.05096939	-0.02417125	0.002378531	-0.19255	0.01904935	0.05761349	0.1608109	
-0.02301638	0.002602041	-0.04098428	0.04910367	0.05761349	0.1608109	-0.193635	0.01581763	

9.84e+09	-0.08593215	0.1127204	0.1661955	0.0427274	-0.01307353	0.09071276	-0.01797427	0.01703907	
0.1661955	0.0427274	-0.08350124	0.112148	-0.0190202	0.01755748	-0.01408173	0.08951516	
-0.01307353	0.09071276	-0.0190202	0.01755748	-0.1566289	0.0721075	0.1388828	0.1009747	
-0.01797427	0.01703907	-0.01408173	0.08951516	0.1388828	0.1009747	-0.1591298	0.0701846	

9.86e+09	-0.02691998	0.1165105	0.161956	-0.05874236	0.03286478	0.1084497	-0.003740595	0.02610638	
0.161956	-0.05874236	-0.02496208	0.1145825	-0.004250532	0.02713713	0.03171347	0.1079688	
0.03286478	0.1084497	-0.004250532	0.02713713	-0.09931274	0.09503805	0.1731298	0.004930003	
-0.003740595	0.02610638	0.03171347	0.1079688	0.1731298	0.004930003	-0.1022506	0.09485095	

9.88e+09	0.02276523	0.08783684	0.1011658	-0.1410883	0.0810592	0.0964384	0.01430798	0.02369523	
0.1011658	-0.1410883	0.02350838	0.08491808	0.01452877	0.02479143	0.08011564	0.09644495	
0.0810592	0.0964384	0.01452877	0.02479143	-0.04093445	0.08307996	0.1468438	-0.09519397	
0.01430798	0.02369523	0.08011564	0.09644495	0.1468438	-0.09519397	-0.04330615	0.08448214	

9.9e+09	0.04779337	0.03771649	0.003159279	-0.1753815	0.1129028	0.05882857	0.02691116	0.009379886	
0.003159279	-0.1753815	0.04681084	0.03457629	0.02771805	0.01008581	0.1122401	0.05899487	
0.1129028	0.05882857	0.02771805	0.01008581	0.0005232127	0.04227976	0.06694215	-0.1636692	
0.02691116	0.009379886	0.1122401	0.05899487	0.06694215	-0.1636692	-0.000529406	0.04460486	

9.92e+09	0.04093047	-0.01700922	-0.09873405	-0.1472647	0.1166245	0.01097703	0.02698941	-0.009990114	
-0.09873405	-0.1472647	0.03820354	-0.01934237	0.02800367	-0.009911668	0.1160416	0.01108707	
0.1166245	0.01097703	0.02800367	-0.009911668	0.01281907	-0.0140781	-0.03939396	-0.1739552	
0.02698941	-0.009990114	0.1160416	0.01108707	-0.03939396	-0.1739552	0.01327444	-0.0118001	

9.94e+09	0.004907246	-0.05802587	-0.1668886	-0.0643635	0.09296103	-0.02846007	0.01465239	-0.02456499	
-0.1668886	-0.0643635	0.00104686	-0.05856864	0.01547444	-0.02506504	0.09219623	-0.02831747	
0.09296103	-0.02846007	0.01547444	-0.02506504	-0.008432054	-0.0678027	-0.1329461	-0.120337	
0.01465239	-0.02456499	0.09219623	-0.02831747	-0.1329461	-0.120337	-0.006897176	-0.06641382	

9.96e+09	-0.04774892	-0.07119201	-0.1744274	0.0437484	0.05304473	-0.04673068	-0.003461838	-0.02794438	
-0.1744274	0.0437484	-0.05156828	-0.06941143	-0.003091021	-0.02878552	0.0520216	-0.04619993	
0.05304473	-0.04673068	-0.003091021	-0.02878552	-0.05685304	-0.09999816	-0.1782625	-0.02220377	
-0.003461838	-0.02794438	0.0520216	-0.04619993	-0.1782625	-0.02220377	-0.05506901	-0.09983969	

9.98e+09	-0.09806428	-0.05174718	-0.1176358	0.1364267	0.01128957	-0.04018009	-0.01918057	-0.02002229	
-0.1176358	0.1364267	-0.1004481	-0.04788974	-0.01934387	-0.02090411	0.01033464	-0.03889234	
0.01128957	-0.04018009	-0.01934387	-0.02090411	-0.1150171	-0.09799115	-0.1588442	0.08374905	
-0.01918057	-0.02002229	0.01033464	-0.03889234	-0.1588442	0.08374905	-0.1137714	-0.09879542	

1e+10	-0.1273436	-0.007253391	-0.01816493	0.1791414	-0.01953226	-0.0124914	-0.02716028	-0.005073095	
-0.01816493	0.1791414	-0.1271974	-0.002397899	-0.0277994	-0.005696285	-0.01977579	-0.01041777	
-0.01953226	-0.0124914	-0.0277994	-0.005696285	-0.1603457	-0.06248392	-0.08286993	0.1592595	
-0.02716028	-0.005073095	-0.01977579	-0.01041777	-0.08286993	0.1592595	-0.159991	-0.06360346	

1.002e+10	-0.1252877	0.04481016	0.08727995	0.1573665	-0.03019325	0.0275123	-0.02556659	0.01171069	
0.08727995	0.1573665	-0.1223124	0.04902054	-0.02645465	0.01157975	-0.02909753	0.02987988	
-0.03019325	0.0275123	-0.02645465	0.01157975	-0.1755916	-0.008557143	0.0221312	0.1785436	
-0.02556659	0.01171069	-0.02909753	0.02987988	0.0221312	0.1785436	-0.175982	-0.009346026	

1.004e+10	-0.09456418	0.08466901	0.1614825	0.07985874	-0.01655963	0.06711527	-0.01453003	0.02537086	
0.1614825	0.07985874	-0.08948006	0.08665167	-0.0153174	0.0258077	-0.01391316	0.0688156	
-0.01655963	0.06711527	-0.0153174	0.0258077	-0.1572607	0.04187324	0.1200556	0.1352932	
-0.01453003	0.02537086	-0.01391316	0.0688156	0.1200556	0.1352932	-0.157858	0.04176684	

1.006e+10	-0.04876432	0.09910219	0.1790313	-0.02600425	0.0176642	0.09204029	0.003637781	0.03054816	
0.1790313	-0.02600425	-0.04309487	0.0978942	0.003299018	0.03136699	0.02138721	0.09201516	
0.0176642	0.09204029	0.003299018	0.03136699	-0.1157707	0.07088877	0.1771315	0.04360603	
0.003637781	0.03054816	0.02138721	0.09201516	0.1771315	0.04360603	-0.1159836	0.07132568	

1.008e+10	-0.005202802	0.08590159	0.1336032	-0.1240301	0.05993819	0.09209249	0.0226841	0.02305291	
0.1336032	-0.1240301	-0.0008804537	0.08149324	0.02292189	0.02387602	0.0635499	0.08967507	
0.05993819	0.09209249	0.02292189	0.02387602	-0.06823872	0.07160764	0.1722244	-0.06581086	
0.0226841	0.02305291	0.0635499	0.08967507	0.1722244	-0.06581086	-0.06776895	0.07201532	

1.01e+10	0.02201572	0.05247585	0.03941421	-0.179985	0.09309457	0.06753296	0.03339678	0.004021171	
0.03941421	-0.179985	0.02322092	0.04601149	0.03405485	0.004493263	0.09495874	0.06289712	
0.09309457	0.06753296	0.03405485	0.004493263	-0.03049566	0.04762978	0.1047967	-0.1542963	
0.03339678	0.004021171	0.09495874	0.06289712	0.1047967	-0.1542963	-0.02958581	0.04738399	

1.012e+10	0.02582314	0.01184457	-0.07170425	-0.1720891	0.1044126	0.03001085	0.02918194	-0.01831645	
-0.07170425	-0.1720891	0.02300524	0.005432696	0.02993886	-0.01833865	0.1031758	0.02447912	
0.1044126	0.03001085	0.02993886	-0.01833865	-0.01267679	0.00883359	-0.002994995	-0.1885562	
0.02918194	-0.01831645	0.1031758	0.02447912	-0.002994995	-0.1885562	-0.01201818	0.007662327	

1.014e+10	0.007276144	-0.02235781	-0.1595171	-0.1003755	0.09248612	-0.004426733	0.01128696	-0.03286167	
-0.1595171	-0.1003755	0.0009446431	-0.026237	0.01184207	-0.03329686	0.08778161	-0.00871334	
0.09248612	-0.004426733	0.01184207	-0.03329686	-0.01882823	-0.03216907	-0.1122882	-0.1535911	
0.01128696	-0.03286167	0.08778161	-0.00871334	-0.1122882	-0.1535911	-0.01919715	-0.03390323	

1.016e+10	-0.02590925	-0.03960858	-0.1896993	0.0105062	0.0654203	-0.0243127	-0.01157148	-0.0326045	
-0.1896993	0.0105062	-0.03371765	-0.03913126	-0.01138246	-0.03324544	0.05843243	-0.02519037	
0.0654203	-0.0243127	-0.01138246	-0.03324544	-0.04648309	-0.06211263	-0.1814394	-0.06081443	
-0.01157148	-0.0326045	0.05843243	-0.02519037	-0.1814394	-0.06081443	-0.04820489	-0.06348458	

1.018e+10	-0.06187694	-0.03507961	-0.1492961	0.1189684	0.0341281	-0.02603349	-0.02877572	-0.01844533	
-0.1492961	0.1189684	-0.06827298	-0.02998396	-0.02898998	-0.01904286	0.0273295	-0.02241198	
0.0341281	-0.02603349	-0.02898998	-0.01904286	-0.08584123	-0.07043554	-0.1838348	0.05522303	
-0.02877572	-0.01844533	0.0273295	-0.02241198	-0.1838348	0.05522303	-0.08847611	-0.07045274	

1.02e+10	-0.08783326	-0.01126728	-0.05308515	0.1837974	0.007874158	-0.01132816	-0.0336438	0.002559218	
-0.05308515	0.1837974	-0.09023755	-0.003135396	-0.03415128	0.00221445	0.004103494	-0.003878989	
0.007874158	-0.01132816	-0.03415128	0.00221445	-0.1216023	-0.05411542	-0.1188206	0.1512111	
-0.0336438	0.002559218	0.004103494	-0.003878989	-0.1188206	0.1512111	-0.1240557	-0.05230116	

1.022e+10	-0.09457477	0.02193865	0.06258293	0.1809534	-0.006054395	0.01502289	-0.02545677	0.02185765	
0.06258293	0.1809534	-0.09182314	0.03026096	-0.02604097	0.02188973	-0.004782712	0.02391342	
-0.006054395	0.01502289	-0.02604097	0.02188973	-0.1394824	-0.02097025	-0.0104847	0.1924746	
-0.02545677	0.02185765	-0.004782712	0.02391342	-0.0104847	0.1924746	-0.1404958	-0.01764911	

1.024e+10	-0.08116445	0.05095385	0.155369	0.1122743	-0.00272381	0.0448163	-0.007799335	0.03289093	
0.155369	0.1122743	-0.07391521	0.05643072	-0.008218364	0.03325865	0.003850209	0.05188434	
-0.00272381	0.0448163	-0.008218364	0.03325865	-0.1340478	0.01363972	0.1020984	0.1643603	
-0.007799335	0.03289093	0.003850209	0.05188434	0.1020984	0.1643603	-0.1327925	0.01734102	

1.026e+10	-0.05544946	0.06522205	0.1921794	0.002812801	0.01747773	0.06703088	0.01346601	0.03175476	
0.1921794	0.002812801	-0.04605355	0.06564928	0.0133738	0.03225536	0.02758085	0.06923023	
0.01747773	0.06703088	0.0133738	0.03225536	-0.111497	0.03569046	0.1788407	0.07656255	
0.01346601	0.03175476	0.02758085	0.06923023	0.1788407	0.07656255	-0.1079352	0.03824306	

1.028e+10	-0.02943317	0.06223824	0.1597699	-0.1084491	0.04634422	0.07235788	0.03063825	0.017689	
0.1597699	-0.1084491	-0.02112818	0.05705567	0.03084766	0.01809459	0.05655579	0.06810243	
0.04634422	0.07235788	0.03084766	0.01809459	-0.08432549	0.03991451	0.1916235	-0.04037093	
0.03063825	0.017689	0.05655579	0.06810243	0.1916235	-0.04037093	-0.07945074	0.03992482	

1.03e+10	-0.01238544	0.0473789	0.06886524	-0.1817188	0.07078506	0.05960656	0.03583169	-0.004839285	
0.06886524	-0.1817188	-0.008381665	0.0379955	0.03618666	-0.00465629	0.07712842	0.04960306	
0.07078506	0.05960656	0.03618666	-0.00465629	-0.06309435	0.0301756	0.1344076	-0.1443818	
0.03583169	-0.004839285	0.07712842	0.04960306	0.1344076	-0.1443818	-0.05870416	0.0270009	

1.032e+10	-0.007162467	0.02907271	-0.04889516	-0.1894728	0.08109805	0.03705599	0.02552673	-0.02622314	
-0.04889516	-0.1894728	-0.009378447	0.01872016	0.02587711	-0.0262593	0.08046044	0.02447643	
0.08109805	0.03705599	0.02587711	-0.0262593	-0.05196635	0.01377863	0.02655184	-0.1968473	
0.02552673	-0.02622314	0.08046044	0.02447643	0.02655184	-0.1968473	-0.05012296	0.008136104	

1.034e+10	-0.01122849	0.01378713	-0.1504427	-0.126999	0.07666443	0.01624659	0.003917266	-0.03644408	
-0.1504427	-0.126999	-0.0193012	0.006375788	0.004172903	-0.03664216	0.06839231	0.005766744	
0.07666443	0.01624659	0.004172903	-0.03664216	-0.05047424	-0.003449839	-0.09285685	-0.1768662	
0.003917266	-0.03644408	0.06839231	0.005766744	-0.09285685	-0.1768662	-0.05248487	-0.00958544	

1.036e+10	-0.02049023	0.00400517	-0.1970694	-0.01627131	0.06394562	0.00389271	-0.01915337	-0.03097567	
-0.1970694	-0.01627131	-0.03169178	0.002633384	-0.01904247	-0.03127016	0.05041798	-4.688075e-05	
0.06394562	0.00389271	-0.01904247	-0.03127016	-0.05703214	-0.01782907	-0.1788618	-0.09062404	
-0.01915337	-0.03097567	0.05041798	-4.688075e-05	-0.1788618	-0.09062404	-0.06270648	-0.02187353	

1.038e+10	-0.03193193	0.000261945	-0.1703874	0.1012491	0.04942653	0.0002156135	-0.0336612	-0.01278669	
-0.1703874	0.1012491	-0.04210479	0.005775125	-0.03374868	-0.01308347	0.03547866	0.005083481	
0.04942653	0.0002156135	-0.03374868	-0.01308347	-0.06952839	-0.02610631	-0.1986277	0.02986235	
-0.0336612	-0.01278669	0.03547866	0.005083481	-0.1986277	0.02986235	-0.07695287	-0.02601717	

1.04e+10	-0.04282766	0.002656968	-0.08009444	0.1814269	0.03620941	0.003261545	-0.03411218	0.01000096	
-0.08009444	0.1814269	-0.04802603	0.0132827	-0.03435488	0.009831638	0.02728614	0.01585478	
0.03620941	0.003261545	-0.03435488	0.009831638	-0.08357717	-0.02564784	-0.1447074	0.139401	
-0.03411218	0.01000096	0.02728614	0.01585478	-0.1447074	0.139401	-0.08988849	-0.02093424	

1.042e+10	-0.04990673	0.009945178	0.0397811	0.1941769	0.02613264	0.01218307	-0.02108295	0.02810028	
0.0397811	0.1941769	-0.04795604	0.02184472	-0.02134711	0.02813398	0.0261456	0.02825644	
0.02613264	0.01218307	-0.02134711	0.02813398	-0.09309789	-0.01755737	-0.03740006	0.1973677	
-0.02108295	0.02810028	0.0261456	0.02825644	-0.03740006	0.1973677	-0.09557997	-0.009641248	

1.044e+10	-0.05132876	0.01840868	0.1445859	0.1352443	0.02232798	0.02547901	-0.0002001697	0.03485943	
0.1445859	0.1352443	-0.04271282	0.02715869	-0.0003325336	0.03502242	0.03198252	0.03909448	
0.02232798	0.02547901	-0.0003325336	0.03502242	-0.09482016	-0.007745655	0.08342982	0.1826475	
-0.0002001697	0.03485943	0.03198252	0.03909448	0.08342982	0.1826475	-0.09207647	0.0005303283	

1.046e+10	-0.04891999	0.02419902	0.195892	0.02674993	0.027154	0.03849324	0.02057321	0.02802035	
0.195892	0.02674993	-0.0366136	0.02639684	0.02058401	0.02815747	0.04349487	0.04424679	
0.027154	0.03849324	0.02058401	0.02815747	-0.09156415	-0.002045903	0.1735168	0.1007987	
0.02057321	0.02802035	0.04349487	0.04424679	0.1735168	0.1007987	-0.08415549	0.003321189	

1.048e+10	-0.04664809	0.02694314	0.1751355	-0.09118143	0.03834616	0.04531074	0.03322657	0.01006651	
0.1751355	-0.09118143	-0.0351356	0.02153112	0.03325987	0.01010829	0.05559084	0.04041283	
0.03834616	0.04531074	0.03325987	0.01010829	-0.08933594	-0.0009511517	0.1996923	-0.01786633	
0.03322657	0.01006651	0.05559084	0.04041283	0.1996923	-0.01786633	-0.07976902	-0.0008910656	

1.05e+10	-0.04622425	0.02991525	0.09017954	-0.1753499	0.04956347	0.04379303	0.03240522	-0.01198062	
0.09017954	-0.1753499	-0.03986821	0.01866715	0.03236927	-0.01194807	0.0611842	0.02937629	
0.04956347	0.04379303	0.03236927	-0.01194807	-0.09079958	0.0005071258	0.1525629	-0.1296943	
0.03240522	-0.01198062	0.0611842	0.02937629	0.1525629	-0.1296943	-0.08265592	-0.005258205	

1.052e+10	-0.04483651	0.03592082	-0.02757253	-0.1949296	0.05562116	0.03771643	0.01835791	-0.02876516	
-0.02757253	-0.1949296	-0.04619531	0.02289137	0.01832297	-0.02863321	0.05682885	0.01865361	
0.05562116	0.03771643	0.01832297	-0.02863321	-0.09239625	0.00647718	0.04975916	-0.1937009	
0.01835791	-0.02876516	0.05682885	0.01865361	0.04975916	-0.1937009	-0.08902329	-0.00334213	

1.054e+10	-0.03809199	0.04296442	-0.1348132	-0.1429603	0.05697166	0.03239335	-0.002525815	-0.0333896	
-0.1348132	-0.1429603	-0.04684778	0.03303523	-0.002421588	-0.03321384	0.04666514	0.01566105	
0.05697166	0.03239335	-0.002421588	-0.03321384	-0.08847879	0.01528294	-0.07096521	-0.186719	
-0.002525815	-0.0333896	0.04666514	0.01566105	-0.07096521	-0.186719	-0.09156208	0.00499088	

1.056e+10	-0.02558334	0.04525524	-0.1921905	-0.03896189	0.05742996	0.02932771	-0.02140184	-0.0248556	
-0.1921905	-0.03896189	-0.03857191	0.04218245	-0.02115534	-0.02480477	0.0388803	0.02140291	
0.05742996	0.02932771	-0.02115534	-0.02480477	-0.07772373	0.0207388	-0.1654957	-0.1114602	
-0.02140184	-0.0248556	0.0388803	0.02140291	-0.1654957	-0.1114602	-0.08648046	0.01396031	

1.058e+10	-0.0124278	0.03861541	-0.1791402	0.07886088	0.05881821	0.02594928	-0.03138693	-0.007384859	
-0.1791402	0.07886088	-0.02490243	0.04364091	-0.03116982	-0.007540772	0.03860413	0.03027386	
0.05881821	0.02594928	-0.03116982	-0.007540772	-0.06471001	0.01823792	-0.1992387	0.004521359	
-0.03138693	-0.007384859	0.03860413	0.03027386	-0.1992387	0.004521359	-0.07607426	0.01778703	

1.06e+10	-0.005366109	0.02450842	-0.1006436	0.1674991	0.05882872	0.02023339	-0.0294071	0.01227714	
-0.1006436	0.1674991	-0.01271888	0.03587721	-0.02937313	0.01203482	0.04448571	0.0357572	
0.05882872	0.02023339	-0.02937313	0.01203482	-0.0553013	0.008482045	-0.1598401	0.1184914	
-0.0294071	0.01227714	0.04448571	0.0357572	-0.1598401	0.1184914	-0.06506659	0.01484249	

1.062e+10	-0.007751473	0.008578725	0.01447863	0.1945119	0.05443499	0.01430411	-0.01644761	0.02700908	
0.01447863	0.1945119	-0.007207203	0.02218149	-0.01655621	0.0268487	0.05158351	0.03568882	
0.05443499	0.01430411	-0.01655621	0.0268487	-0.05237852	-0.004711519	-0.0618072	0.1886533	
-0.01644761	0.02700908	0.05158351	0.03568882	-0.0618072	0.1886533	-0.05678501	0.006359424	

1.064e+10	-0.01851509	-0.003642584	0.1239555	0.149975	0.04638649	0.01244918	0.002657195	0.03130945	
0.1239555	0.149975	-0.01020839	0.007217251	0.002539102	0.03125102	0.05651709	0.03192376	
0.04638649	0.01244918	0.002539102	0.03125102	-0.05618817	-0.01816994	0.05839437	0.1890154	
0.002657195	0.03130945	0.05651709	0.03192376	0.05839437	0.1890154	-0.0534039	-0.006349124	

1.066e+10	-0.03460282	-0.008762287	0.1871243	0.05058111	0.03900819	0.01624074	0.02054717	0.02344689	
0.1871243	0.05058111	-0.02154832	-0.004595963	0.02045056	0.0233959	0.05875464	0.02658184	
0.03900819	0.01624074	0.02045056	0.0233959	-0.06705947	-0.02943705	0.1560925	0.1199212	
0.02054717	0.02344689	0.05875464	0.02658184	0.1560925	0.1199212	-0.05789679	-0.02114139	

1.068e+10	-0.05257195	-0.004636435	0.1809868	-0.06647903	0.035628	0.02313798	0.03009712	0.006542427	
0.1809868	-0.06647903	-0.03939266	-0.00865383	0.02992756	0.00648916	0.0581335	0.02038199	
0.035628	0.02313798	0.02992756	0.00648916	-0.08489769	-0.0341803	0.1953701	0.007906301	
0.03009712	0.006542427	0.0581335	0.02038199	0.1953701	0.007906301	-0.07234341	-0.03240624	

1.07e+10	-0.06724075	0.0101332	0.1089418	-0.1576021	0.03609869	0.02996971	0.02761106	-0.01238864	
0.1089418	-0.1576021	-0.05858829	-0.0008181	0.02734402	-0.01229979	0.05345014	0.01455715	
0.03609869	0.02996971	0.02734402	-0.01229979	-0.1053457	-0.0267544	0.16329	-0.1049712	
0.02761106	-0.01238864	0.05345014	0.01455715	0.16329	-0.1049712	-0.09353002	-0.03262552	

1.072e+10	-0.07153457	0.03329634	-0.001488502	-0.1903642	0.03896826	0.03567781	0.01455705	-0.02574208	
-0.001488502	-0.1903642	-0.07083694	0.01919288	0.01438399	-0.02539879	0.04441517	0.01259335	
0.03896826	0.03567781	0.01438399	-0.02539879	-0.1188776	-0.006022078	0.07317177	-0.1785266	
0.01455705	-0.02574208	0.04441517	0.01259335	0.07317177	-0.1785266	-0.1124471	-0.0180715	

1.074e+10	-0.06051066	0.05696257	-0.1097556	-0.1540992	0.04386738	0.04057331	-0.003201685	-0.02845847	
-0.1097556	-0.1540992	-0.06803983	0.04508583	-0.003031354	-0.02802252	0.0349906	0.01825223	
0.04386738	0.04057331	-0.003031354	-0.02802252	-0.1168018	0.02097388	-0.04188568	-0.1873858	
-0.003201685	-0.02845847	0.0349906	0.01825223	-0.04188568	-0.1873858	-0.1185223	0.007186846	

1.076e+10	-0.0357068	0.07047339	-0.1772387	-0.06311186	0.05197293	0.04357492	-0.01826452	-0.02075352	
-0.1772387	-0.06311186	-0.04859683	0.06488986	-0.01777369	-0.02059102	0.03176078	0.02994869	
0.05197293	0.04357492	-0.01777369	-0.02059102	-0.09760876	0.04219864	-0.1409735	-0.1293142	
-0.01826452	-0.02075352	0.03176078	0.02994869	-0.1409735	-0.1293142	-0.1069046	0.03150427	

1.078e+10	-0.006580642	0.06615149	-0.1809031	0.04918418	0.06238834	0.04122977	-0.02616031	-0.006911851	
-0.1809031	0.04918418	-0.0206995	0.06882044	-0.02572712	-0.007197665	0.03725361	0.04139902	
0.06238834	0.04122977	-0.02572712	-0.007197665	-0.06898192	0.0473568	-0.1892679	-0.02559002	
-0.02616031	-0.006911851	0.03725361	0.04139902	-0.1892679	-0.02559002	-0.08342711	0.04352198	

1.08e+10	0.01426561	0.04513209	-0.1201814	0.1436844	0.07012043	0.03174608	-0.02562444	0.008863242	
-0.1201814	0.1436844	0.004071091	0.05579768	-0.02557851	0.008404841	0.04907642	0.04693615	
0.07012043	0.03174608	-0.02557851	0.008404841	-0.0435135	0.03473637	-0.1699814	0.08743361	
-0.02562444	0.008863242	0.04907642	0.04693615	-0.1699814	0.08743361	-0.05818154	0.04046735	

1.082e+10	0.01878207	0.01650103	-0.01609683	0.1867275	0.06992848	0.01874775	-0.01628632	0.02215493	
-0.01609683	0.1867275	0.01680834	0.03127661	-0.01654017	0.02188589	0.06157523	0.04385311	
0.06992848	0.01874775	-0.01654017	0.02188589	-0.03018236	0.01091395	-0.08892893	0.1693847	
-0.01628632	0.02215493	0.06157523	0.04385311	-0.08892893	0.1693847	-0.0387703	0.02465187	

1.084e+10	0.006573649	-0.008951557	0.09424176	0.1620601	0.06117927	0.008967516	-0.0004943476	0.02795763	
0.09424176	0.1620601	0.01362586	0.004194987	-0.0007433135	0.02795712	0.06909846	0.03453709	
0.06117927	0.008967516	-0.0007433135	0.02795712	-0.03176373	-0.01565036	0.02481965	0.1895722	
-0.0004943476	0.02795763	0.06909846	0.03453709	0.02481965	0.1895722	-0.03054135	0.0007677495	

1.086e+10	-0.01725418	-0.02315669	0.170215	0.07810667	0.04865285	0.007384025	0.01623388	0.0232638	
0.170215	0.07810667	-0.003908469	-0.0165857	0.01613638	0.02332911	0.07010724	0.02375045	
0.04865285	0.007384025	0.01613638	0.02332911	-0.04728175	-0.03751538	0.1292001	0.140209	
0.01623388	0.0232638	0.07010724	0.02375045	0.1292001	0.140209	-0.03651911	-0.02480905	

1.088e+10	-0.04517581	-0.02211185	0.1836011	-0.03420416	0.03872464	0.01354145	0.02708137	0.009167591	
0.1836011	-0.03420416	-0.03055738	-0.02448984	0.02700493	0.009150123	0.06584421	0.01449125	
0.03872464	0.01354145	0.02700493	0.009150123	-0.07317501	-0.04801217	0.1854807	0.04007186	
0.02708137	0.009167591	0.06584421	0.01449125	0.1854807	0.04007186	-0.05687734	-0.04397566	

1.09e+10	-0.06880408	-0.005378751	0.1298609	-0.1330224	0.03457244	0.02322646	0.0271381	-0.008770074	
0.1298609	-0.1330224	-0.05831988	-0.01570316	0.02693552	-0.00875292	0.05736357	0.008321411	
0.03457244	0.02322646	0.02693552	-0.00875292	-0.1022576	-0.04187637	0.1738361	-0.07322755	
0.0271381	-0.008770074	0.05736357	0.008321411	0.1738361	-0.07322755	-0.08658196	-0.04813154	

1.092e+10	-0.07961053	0.02324959	0.02968618	-0.1824406	0.03589603	0.03276035	0.01637913	-0.02288318	
0.02968618	-0.1824406	-0.07702681	0.008871437	0.01616513	-0.02263175	0.04601664	0.007413594	
0.03589603	0.03276035	0.01616513	-0.02263175	-0.1236766	-0.0185498	0.100116	-0.1585577	
0.01637913	-0.02288318	0.04601664	0.007413594	0.100116	-0.1585577	-0.1145227	-0.03277396	

1.094e+10	-0.07157823	0.05448852	-0.0796863	-0.1656499	0.04159546	0.04049222	-0.0001830052	-0.02752039	
-0.0796863	-0.1656499	-0.07763948	0.04136859	-0.0001205972	-0.02709673	0.03538113	0.01386001	
0.04159546	0.04049222	-0.0001205972	-0.02709673	-0.1272021	0.01444787	-0.008243167	-0.186558	
-0.0001830052	-0.02752039	0.03538113	0.01386001	-0.008243167	-0.186558	-0.1279364	-0.002456505	

1.096e+10	-0.04571076	0.07565612	-0.1593517	-0.09012017	0.05085902	0.04510398	-0.01558943	-0.02181528	
-0.1593517	-0.09012017	-0.05806062	0.06839011	-0.01516785	-0.02155767	0.03050623	0.02671465	
0.05085902	0.04510398	-0.01516785	-0.02155767	-0.1097271	0.04337757	-0.1128907	-0.1483513	
-0.01558943	-0.02181528	0.03050623	0.02671465	-0.1128907	-0.1483513	-0.1200062	0.0299209	

1.098e+10	-0.01184155	0.07748438	-0.1819019	0.01684251	0.0622608	0.04417452	-0.02469067	-0.009035501	
-0.1819019	0.01684251	-0.02603033	0.07847866	-0.02420316	-0.009203589	0.03493484	0.0406327	
0.0622608	0.04417452	-0.02420316	-0.009203589	-0.07854171	0.05585796	-0.1774523	-0.05738396	
-0.02469067	-0.009035501	0.03493484	0.0406327	-0.1774523	-0.05738396	-0.09469627	0.05064809	

1.1e+10	0.01625739	0.05913496	-0.1396871	0.1177108	0.0718802	0.03596355	-0.02540802	0.006231405	
-0.1396871	0.1177108	0.005129154	0.06796172	-0.0252406	0.005762326	0.04724798	0.04869828	
0.0718802	0.03596355	-0.0252406	0.005762326	-0.04714723	0.04792715	-0.1786662	0.05448739	
-0.02540802	0.006231405	0.04724798	0.04869828	-0.1786662	0.05448739	-0.06351941	0.05284729	

1.102e+10	0.027797	0.02862824	-0.04735094	0.1767161	0.07435964	0.02264748	-0.01775393	0.01961423	
-0.04735094	0.1767161	0.02360841	0.04226999	-0.01797523	0.01924912	0.06131176	0.04735635	
0.07435964	0.02264748	-0.01797523	0.01924912	-0.02708377	0.02441202	-0.1152098	0.1474088	
-0.01775393	0.01961423	0.06131176	0.04735635	-0.1152098	0.1474088	-0.03785627	0.03793564	

1.104e+10	0.01981949	-0.001637191	0.06279491	0.1722189	0.06739343	0.01080433	-0.003500805	0.02681545	
0.06279491	0.1722189	0.02419949	0.01204855	-0.00382216	0.02676547	0.07088867	0.0387429	
0.06739343	0.01080433	-0.00382216	0.02676547	-0.02377952	-0.004859613	-0.009581237	0.1870047	
-0.003500805	0.02681545	0.07088867	0.0387429	-0.009581237	0.1870047	-0.02489232	0.01263406	

1.106e+10	-0.002864233	-0.02107627	0.1505894	0.1048925	0.05481144	0.006851511	0.0130334	0.02446485	
0.1505894	0.1048925	0.008656146	-0.01233841	0.01287881	0.02458158	0.07385251	0.02782114	
0.05481144	0.006851511	0.01287881	0.02458158	-0.03657237	-0.03033063	0.09976746	0.158281	
0.0130334	0.02446485	0.07385251	0.02782114	0.09976746	0.158281	-0.02727824	-0.01519535	

1.108e+10	-0.03154471	-0.02448623	0.1834171	-0.001027831	0.04385659	0.01182192	0.02547683	0.01231927	
0.1834171	-0.001027831	-0.01702861	-0.02403257	0.02543684	0.01236738	0.07158967	0.01800865	
0.04385659	0.01182192	0.02543684	0.01236738	-0.06097739	-0.04459602	0.172226	0.07189542	
0.02547683	0.01231927	0.07158967	0.01800865	0.172226	0.07189542	-0.04448667	-0.03756754	

1.11e+10	-0.05701438	-0.01168263	0.1490395	-0.1062068	0.0392718	0.02131841	0.0281415	-0.005373878	
0.1490395	-0.1062068	-0.0449446	-0.01973866	0.02801222	-0.005368448	0.06550621	0.01039591	
0.0392718	0.02131841	0.02801222	-0.005368448	-0.08966129	-0.04288155	0.1815941	-0.0399194	
0.0281415	-0.005373878	0.06550621	0.01039591	0.1815941	-0.0399194	-0.07205538	-0.04673969	

1.112e+10	-0.07125016	0.01339847	0.0606576	-0.1719974	0.04084517	0.03028013	0.01934425	-0.02116462	
0.0606576	-0.1719974	-0.06614694	-9.235861e-05	0.01915059	-0.02098801	0.05599303	0.006314866	
0.04084517	0.03028013	0.01915059	-0.02098801	-0.1127584	-0.02450286	0.1255656	-0.1361743	
0.01934425	-0.02116462	0.05599303	0.006314866	0.1255656	-0.1361743	-0.1006159	-0.03787918	

1.114e+10	-0.06866128	0.04280442	-0.04871267	-0.1750588	0.04612316	0.03645595	0.002919959	-0.02821732	
-0.04871267	-0.1750588	-0.07227644	0.02899635	0.002928704	-0.02784138	0.04480389	0.008232753	
0.04612316	0.03645595	0.002928704	-0.02784138	-0.1206918	0.004615415	0.02516243	-0.1830486	
0.002919959	-0.02821732	0.04480389	0.008232753	0.02516243	-0.1830486	-0.1184969	-0.01329156	

1.116e+10	-0.04901765	0.0656665	-0.1397332	-0.1153921	0.05351041	0.03939508	-0.013937	-0.02413959	
-0.1397332	-0.1153921	-0.0597653	0.05657654	-0.01357071	-0.02385966	0.03635038	0.01707265	
0.05351041	0.03939508	-0.01357071	-0.02385966	-0.1093966	0.03273733	-0.08372807	-0.1646096	
-0.013937	-0.02413959	0.03635038	0.01707265	-0.08372807	-0.1646096	-0.1178803	0.01686082	

1.118e+10	-0.01952377	0.07235831	-0.1804338	-0.01480266	0.06195686	0.03816831	-0.02488796	-0.01151567	
-0.1804338	-0.01480266	-0.0333638	0.07106259	-0.02439936	-0.01164313	0.03518655	0.02967604	
0.06195686	0.03816831	-0.02439936	-0.01164313	-0.08385266	0.04778993	-0.1630428	-0.08731291	
-0.02488796	-0.01151567	0.03518655	0.02967604	-0.1630428	-0.08731291	-0.0998723	0.03966327	

1.12e+10	0.007438548	0.06023443	-0.1566716	0.09107525	0.06881446	0.03173846	-0.02683508	0.004620754	
-0.1566716	0.09107525	-0.004574515	0.06699801	-0.02663534	0.004151934	0.04202642	0.040052	
0.06881446	0.03173846	-0.02663534	0.004151934	-0.05594885	0.04437632	-0.1841508	0.02182828	
-0.02683508	0.004620754	0.04202642	0.040052	-0.1841508	0.02182828	-0.07373986	0.04688706	

1.122e+10	0.02087934	0.0355581	-0.07639487	0.1648046	0.07004219	0.02158259	-0.01959733	0.01915096	
-0.07639487	0.1648046	0.01490646	0.0479033	-0.01983331	0.01874232	0.05286948	0.043725	
0.07004219	0.02158259	-0.01983331	0.01874232	-0.03723992	0.0264357	-0.1385563	0.1240143	
-0.01959733	0.01915096	0.05286948	0.043725	-0.1385563	0.1240143	-0.05041165	0.0386962	

1.124e+10	0.01713184	0.009866766	0.03224388	0.1792937	0.0635877	0.0130897	-0.005188428	0.02735429	
0.03224388	0.1792937	0.01930491	0.02336052	-0.005581617	0.0273125	0.06224817	0.04103731	
0.0635877	0.0130897	-0.005581617	0.0273125	-0.03297776	0.003384653	-0.04200568	0.1815129	
-0.005188428	0.02735429	0.06224817	0.04103731	-0.04200568	0.1815129	-0.03670695	0.02103929	

1.126e+10	0.0006392038	-0.007026385	0.1298792	0.1282663	0.05294248	0.01195732	0.01189303	0.02580746	
0.1298792	0.1282663	0.01014936	0.002717995	0.01170587	0.02602123	0.0678933	0.03549074	
0.05294248	0.01195732	0.01170587	0.02602123	-0.04150524	-0.01603219	0.07035723	0.1726118	
0.01189303	0.02580746	0.0678933	0.03549074	0.07035723	0.1726118	-0.03435557	0.0005516958	

1.128e+10	-0.02039452	-0.01105489	0.1801634	0.02991438	0.04522871	0.01895483	0.02528956	0.01416631	
0.1801634	0.02991438	-0.007079711	-0.008628188	0.02532776	0.01431459	0.0708613	0.02950107	
0.04522871	0.01895483	0.02532776	0.01431459	-0.05795628	-0.02676729	0.1567981	0.1004231	
0.02528956	0.01416631	0.0708613	0.02950107	0.1567981	0.1004231	-0.04254551	-0.01739716	

1.13e+10	-0.03872011	-0.003421622	0.1642645	-0.07940505	0.04525099	0.02873377	0.02922168	-0.003692075	
0.1642645	-0.07940505	-0.02658237	-0.009137478	0.02924125	-0.003696726	0.07204341	0.02261985	
0.04525099	0.02873377	0.02924125	-0.003696726	-0.07683729	-0.02675758	0.1856128	-0.008111497	
0.02922168	-0.003692075	0.07204341	0.02261985	0.1856128	-0.008111497	-0.0589254	-0.02804288	

1.132e+10	-0.04947871	0.01231808	0.08835332	-0.1592297	0.05166294	0.03493506	0.02139606	-0.02064174	
0.08835332	-0.1592297	-0.04302231	0.0007584684	0.02128888	-0.02059868	0.06984865	0.01472069	
0.05166294	0.03493506	0.02128888	-0.02059868	-0.0922448	-0.01611588	0.1469199	-0.1130007	
0.02139606	-0.02064174	0.06984865	0.01472069	0.1469199	-0.1130007	-0.07849136	-0.02745653	

1.134e+10	-0.04968791	0.03125383	-0.01918416	-0.1807045	0.05951514	0.03518734	0.004740222	-0.02937094	
-0.01918416	-0.1807045	-0.05114125	0.01832129	0.004697822	-0.0291438	0.06273612	0.008512474	
0.05951514	0.03518734	0.004697822	-0.0291438	-0.09832905	0.001596174	0.05543911	-0.1765608	
0.004740222	-0.02937094	0.06273612	0.008512474	0.05543911	-0.1765608	-0.0937253	-0.0154489	

1.136e+10	-0.03882721	0.04690069	-0.1193392	-0.1366565	0.0651084	0.03123944	-0.01365557	-0.02618745	
-0.1193392	-0.1366565	-0.04732833	0.03741791	-0.01342669	-0.02595813	0.05257979	0.007853036	
0.0651084	0.03123944	-0.01342669	-0.02595813	-0.09214309	0.01903161	-0.05581832	-0.1763888	
-0.01365557	-0.02618745	0.05257979	0.007853036	-0.05581832	-0.1763888	-0.09818652	0.0026397	

1.138e+10	-0.02088923	0.05273328	-0.1760483	-0.04340453	0.06754551	0.02548965	-0.02619458	-0.01285528	
-0.1760483	-0.04340453	-0.03299603	0.04996516	-0.02581381	-0.01292096	0.04417136	0.01368937	
0.06754551	0.02548965	-0.02581381	-0.01292096	-0.07690181	0.02797477	-0.1471134	-0.112436	
-0.02619458	-0.01285528	0.04417136	0.01368937	-0.1471134	-0.112436	-0.09113048	0.01820967	

1.14e+10	-0.004044409	0.04628363	-0.1690798	0.06568362	0.06675585	0.01910537	-0.02842323	0.004914654	
-0.1690798	0.06568362	-0.01526002	0.05089656	-0.02825801	0.004531258	0.04118911	0.02282586	
0.06675585	0.01910537	-0.02825801	0.004531258	-0.06114378	0.02484034	-0.1852271	-0.007277592	
-0.02842323	0.004914654	0.04118911	0.02282586	-0.1852271	-0.007277592	-0.07816792	0.02509697	

1.142e+10	0.003826507	0.03191946	-0.1005155	0.1511734	0.06188898	0.01355962	-0.020055	0.02042237	
-0.1005155	0.1511734	-0.002534718	0.04191042	-0.02028551	0.02007418	0.0433754	0.03105259	
0.06188898	0.01355962	-0.02028551	0.02007418	-0.0530188	0.01377084	-0.1556883	0.100835	
-0.020055	0.02042237	0.0433754	0.03105259	-0.1556883	0.100835	-0.06657854	0.02365519	

1.144e+10	0.0007404302	0.01827601	0.005004586	0.181551	0.05312435	0.01218564	-0.004351418	0.02818002	
0.005004586	0.181551	0.001294665	0.02981991	-0.004736417	0.02818885	0.04814016	0.03675935	
0.05312435	0.01218564	-0.004736417	0.02818885	-0.05444176	0.002805534	-0.06891168	0.1721172	
-0.004351418	0.02818002	0.04814016	0.03675935	-0.06891168	0.1721172	-0.05968293	0.01847495	

1.146e+10	-0.008437355	0.01182437	0.1088191	0.1452606	0.0444129	0.01820962	0.01291965	0.02535515	
0.1088191	0.1452606	-0.001490295	0.02068438	0.01276031	0.02564475	0.05432313	0.04075583	
0.0444129	0.01820962	0.01276031	0.02564475	-0.06101017	-0.002365103	0.04294614	0.1800181	
0.01291965	0.02535515	0.05432313	0.04075583	0.04294614	0.1800181	-0.0563087	0.01315526	

1.148e+10	-0.01682556	0.01285946	0.172338	0.05574671	0.04221564	0.03028811	0.02530562	0.01298356	
0.172338	0.05574671	-0.006352383	0.0159872	0.02544643	0.01319919	0.06288358	0.04274848	
0.04221564	0.03028811	0.02544643	0.01319919	-0.06707722	-0.001709619	0.1385319	0.1219176	
0.02530562	0.01298356	0.06288358	0.04274848	0.1385319	0.1219176	-0.05451055	0.008010537	

1.15e+10	-0.02094364	0.01736306	0.1724431	-0.05369684	0.04996705	0.04153209	0.0281484	-0.004339897	
0.1724431	-0.05369684	-0.01091252	0.01395232	0.02833227	-0.004374524	0.07350771	0.03985497	
0.04996705	0.04153209	0.02833227	-0.004374524	-0.06998389	0.001759257	0.1828473	0.01983548	
0.0281484	-0.004339897	0.07350771	0.03985497	0.1828473	0.01983548	-0.05447343	0.002416465	

1.152e+10	-0.02137972	0.02174097	0.1097454	-0.1427752	0.06416724	0.04442156	0.02023693	-0.02016993	
0.1097454	-0.1427752	-0.01539312	0.01342355	0.02023842	-0.02029431	0.08203652	0.02986047	
0.06416724	0.04442156	0.02023842	-0.02029431	-0.06987603	0.005536178	0.1604463	-0.08869539	
0.02023693	-0.02016993	0.08203652	0.02986047	0.1604463	-0.08869539	-0.057159	-0.002705549	

1.154e+10	-0.01980703	0.0248385	0.007629473	-0.1794879	0.07677474	0.03692773	0.004308649	-0.0283191	
0.007629473	-0.1794879	-0.01977464	0.01497172	0.004212225	-0.02830631	0.08286939	0.01527816	
0.07677474	0.03692773	0.004212225	-0.02830631	-0.06725716	0.008329643	0.08006028	-0.1644246	
0.004308649	-0.0283191	0.08286939	0.01527816	0.08006028	-0.1644246	-0.06177796	-0.005394007	

1.156e+10	-0.01698526	0.02637619	-0.09692385	-0.1509165	0.08143085	0.02342069	-0.01346149	-0.02524294	
-0.09692385	-0.1509165	-0.02246362	0.01866953	-0.01343276	-0.02512565	0.07415247	0.002737969	
0.08143085	0.02342069	-0.01343276	-0.02512565	-0.06269209	0.008509731	-0.02899765	-0.1802727	
-0.01346149	-0.02524294	0.07415247	0.002737969	-0.02899765	-0.1802727	-0.06608023	-0.005479231	

1.158e+10	-0.01382248	0.02544725	-0.1659876	-0.06740058	0.07707256	0.01048144	-0.0257371	-0.01202329	
-0.1659876	-0.06740058	-0.02235411	0.02251858	-0.02557313	-0.0120338	0.05968008	-0.001889911	
0.07707256	0.01048144	-0.02557313	-0.0120338	-0.05858199	0.004250598	-0.1274331	-0.1304033	
-0.0257371	-0.01202329	0.05968008	-0.001889911	-0.1274331	-0.1304033	-0.06916969	-0.004885344	

1.16e+10	-0.01279041	0.02195849	-0.1742301	0.04060874	0.06649669	0.002688104	-0.02744446	0.005743445	
-0.1742301	0.04060874	-0.02098544	0.02442368	-0.02738686	0.005537084	0.04576483	0.002606648	
0.06649669	0.002688104	-0.02738686	0.005537084	-0.05932227	-0.003441277	-0.1789297	-0.03290431	
-0.02744446	0.005743445	0.04576483	0.002606648	-0.1789297	-0.03290431	-0.07281637	-0.004670538	

1.162e+10	-0.01617789	0.01881517	-0.1184743	0.1334877	0.05323107	0.001843894	-0.01818926	0.02068255	
-0.1184743	0.1334877	-0.02110205	0.02520199	-0.01839788	0.02051197	0.03678683	0.01337841	
0.05323107	0.001843894	-0.01839788	0.02051197	-0.06746262	-0.009229235	-0.1644507	0.07623086	
-0.01818926	0.02068255	0.03678683	0.01337841	-0.1644507	0.07623086	-0.07871561	-0.002583759	

1.164e+10	-0.02238763	0.02065148	-0.01936778	0.1767319	0.04075319	0.008882652	-0.002138243	0.02681589	
-0.01936778	0.1767319	-0.02264583	0.02820603	-0.002425819	0.02694703	0.03422566	0.02715709	
0.04075319	0.008882652	-0.002425819	0.02694703	-0.07963606	-0.006659233	-0.08971361	0.1563955	
-0.002138243	0.02681589	0.03422566	0.02715709	-0.08971361	0.1563955	-0.08466408	0.004852049	

1.166e+10	-0.02557193	0.02893432	0.08575646	0.1545751	0.03379964	0.0234293	0.01382123	0.02214009	
0.08575646	0.1545751	-0.0216554	0.03479086	0.01379685	0.02250559	0.03882426	0.04144064	
0.03379964	0.0234293	0.01379685	0.02250559	-0.08758906	0.00574089	0.01669888	0.1783499	
0.01382123	0.02214009	0.03882426	0.04144064	0.01669888	0.1783499	-0.08504345	0.01750332	

1.168e+10	-0.02056224	0.03901626	0.1580929	0.07627197	0.03748502	0.04129095	0.02339518	0.00938394	
0.1580929	0.07627197	-0.01444955	0.04130766	0.02373386	0.009624296	0.05144086	0.05264536	
0.03748502	0.04129095	0.02373386	0.009624296	-0.0846204	0.02207351	0.1155238	0.135261	
0.02339518	0.00938394	0.05144086	0.05264536	0.1155238	0.135261	-0.07604933	0.02975748	

1.17e+10	-0.008117553	0.04341767	0.1719081	-0.02834947	0.05310815	0.05423605	0.02362803	-0.005818908	
0.1719081	-0.02834947	-0.002292154	0.04182324	0.02405747	-0.005977689	0.07037524	0.05537786	
0.05310815	0.05423605	0.02405747	-0.005977689	-0.070789	0.0332806	0.1710667	0.04402114	
0.02362803	-0.005818908	0.07037524	0.05537786	0.1710667	0.04402114	-0.05982368	0.03440014	

1.172e+10	0.005289066	0.03796535	0.1236511	-0.1210078	0.0750436	0.0543265	0.01536913	-0.01784619	
0.1236511	-0.1210078	0.008736997	0.03356346	0.01551857	-0.01832479	0.08919777	0.04553878	
0.0750436	0.0543265	0.01551857	-0.01832479	-0.05225202	0.03358385	0.1642273	-0.06174208	
0.01536913	-0.01784619	0.08919777	0.04553878	0.1642273	-0.06174208	-0.04314693	0.0281486	

1.174e+10	0.01244858	0.02451098	0.03172481	-0.1689166	0.09277618	0.03958962	0.002087782	-0.02266906	
0.03172481	-0.1689166	0.01241013	0.01934562	0.001785572	-0.02314222	0.0987203	0.02472723	
0.09277618	0.03958962	0.001785572	-0.02314222	-0.03657878	0.02249462	0.09835641	-0.1437643	
0.002087782	-0.02266906	0.0987203	0.02472723	0.09835641	-0.1437643	-0.03291777	0.01292685	

1.176e+10	0.009376462	0.009106755	-0.07009328	-0.1556013	0.09672345	0.01640626	-0.01076492	-0.01883471	
-0.07009328	-0.1556013	0.006223153	0.005684511	-0.01141269	-0.01890411	0.09256158	0.001846928	
0.09672345	0.01640626	-0.01141269	-0.01890411	-0.03002375	0.003394236	-0.001663515	-0.172662	
-0.01076492	-0.01883471	0.09256158	0.001846928	-0.001663515	-0.172662	-0.03343206	-0.005732666	

1.178e+10	-0.002645748	-0.0005880017	-0.1455104	-0.08770823	0.0847597	-0.002740685	-0.01841656	-0.009644321	
-0.1455104	-0.08770823	-0.006439127	-0.0006030077	-0.01887713	-0.009076834	0.07370229	-0.01070038	
0.0847597	-0.002740685	-0.01887713	-0.009076834	-0.03661133	-0.0164154	-0.09878332	-0.140242	
-0.01841656	-0.009644321	0.07370229	-0.01070038	-0.09878332	-0.140242	-0.04434767	-0.02000511	

1.18e+10	-0.01694524	-0.001571963	-0.1698452	0.0109834	0.06578272	-0.009540854	-0.02100868	0.001756763	
-0.1698452	0.0109834	-0.01860787	0.0004775147	-0.02076578	0.002443093	0.05413343	-0.009449549	
0.06578272	-0.009540854	-0.02076578	0.002443093	-0.05336857	-0.0289165	-0.1610604	-0.05906728	
-0.02100868	0.001756763	0.05413343	-0.009449549	-0.1610604	-0.05906728	-0.05962675	-0.02673481	

1.182e+10	-0.02995061	0.004508218	-0.1330455	0.1070096	0.04811531	-0.005369617	-0.01683149	0.0139986	
-0.1330455	0.1070096	-0.02952257	0.005877762	-0.01622368	0.01414783	0.03976691	-8.480081e-05	
0.04811531	-0.005369617	-0.01622368	0.01414783	-0.07523271	-0.0304571	-0.1661199	0.04404589	
-0.01683149	0.0139986	0.03976691	-8.480081e-05	-0.1661199	0.04404589	-0.07766131	-0.02658941	

1.184e+10	-0.03946156	0.01770163	-0.04657379	0.1641508	0.03513859	0.006685884	-0.005044732	0.02166132	
-0.04657379	0.1641508	-0.03874741	0.01765005	-0.004658438	0.02138346	0.03104283	0.01453227	
0.03513859	0.006685884	-0.004658438	0.02138346	-0.09626534	-0.01853778	-0.1100866	0.1315688	
-0.005044732	0.02166132	0.03104283	0.01453227	-0.1100866	0.1315688	-0.09634284	-0.01536264	

1.186e+10	-0.04012024	0.03689245	0.05664866	0.1599975	0.02991454	0.02468596	0.00901137	0.01994034	
0.05664866	0.1599975	-0.04020086	0.03601954	0.00910311	0.01960022	0.03041424	0.0327904	
0.02991454	0.02468596	0.00910311	0.01960022	-0.1073286	0.005887863	-0.01415034	0.1700422	
0.00901137	0.01994034	0.03041424	0.0327904	-0.01415034	0.1700422	-0.1062371	0.007894777	

1.188e+10	-0.02758864	0.05492553	0.1374131	0.09738035	0.03599593	0.04417157	0.01842689	0.01020705	
0.1374131	0.09738035	-0.02886956	0.05418163	0.01836217	0.009933773	0.04025088	0.05023053	
0.03599593	0.04417157	0.01836217	0.009933773	-0.1008543	0.03405885	0.08543824	0.1463918	
0.01842689	0.01020705	0.04025088	0.05023053	0.08543824	0.1463918	-0.09951709	0.0348114	

1.19e+10	-0.004717193	0.06215626	0.1670572	0.0009597712	0.0536479	0.05755248	0.01994663	-0.002301766	
0.1670572	0.0009597712	-0.006855655	0.06263895	0.01976901	-0.00252016	0.05976198	0.06025002	
0.0536479	0.05755248	0.01976901	-0.00252016	-0.07772398	0.05329846	0.1529197	0.07069445	
0.01994663	-0.002301766	0.05976198	0.06025002	0.1529197	0.07069445	-0.07695483	0.05324632	

1.192e+10	0.01882353	0.05352983	0.1366569	-0.09407982	0.07722287	0.05765246	0.01450127	-0.0125991	
0.1366569	-0.09407982	0.01706795	0.05590353	0.01419799	-0.01270116	0.08318911	0.05702904	
0.07722287	0.05765246	0.01419799	-0.01270116	-0.04729706	0.05502674	0.1650663	-0.02931957	
0.01450127	-0.0125991	0.08318911	0.05702904	0.1650663	-0.02931957	-0.04729364	0.05508109	

1.194e+10	0.03248953	0.03235485	0.05819175	-0.1544727	0.09653766	0.04289859	0.004917988	-0.01793286	
0.05819175	-0.1544727	0.03282765	0.03602277	0.004562776	-0.01781084	0.1011585	0.03983719	
0.09653766	0.04289859	0.004562776	-0.01781084	-0.02168618	0.03896238	0.1182196	-0.1179681	
0.004917988	-0.01793286	0.1011585	0.03983719	0.1182196	-0.1179681	-0.02167131	0.03981411	

1.196e+10	0.03138284	0.007793212	-0.04012446	-0.1596242	0.1028893	0.01954903	-0.005628818	-0.01739601	
-0.04012446	-0.1596242	0.03440122	0.010507	-0.005816155	-0.01700697	0.1054725	0.01468544	
0.1028893	0.01954903	-0.005816155	-0.01700697	-0.009503054	0.01165605	0.02936272	-0.1638803	
-0.005628818	-0.01739601	0.1054725	0.01468544	0.02936272	-0.1638803	-0.008534124	0.01273369	

1.198e+10	0.01718193	-0.01185701	-0.1241385	-0.1081022	0.09437709	-0.002567121	-0.01437094	-0.01147628	
-0.1241385	-0.1081022	0.02106573	-0.01156806	-0.01419465	-0.01107014	0.09377866	-0.008020376	
0.09437709	-0.002567121	-0.01419465	-0.01107014	-0.01396855	-0.01817788	-0.06964887	-0.1508031	
-0.01437094	-0.01147628	0.09377866	-0.008020376	-0.06964887	-0.1508031	-0.01240384	-0.0178335	

1.2e+10	-0.005963414	-0.0207969	-0.1639201	-0.01719977	0.07495345	-0.01523447	-0.01872075	-0.001243431	
-0.1639201	-0.01719977	-0.002492511	-0.02233737	-0.01833213	-0.001114818	0.0716015	-0.01888852	
0.07495345	-0.01523447	-0.01833213	-0.001114818	-0.03491507	-0.04181724	-0.1432657	-0.08321535	
-0.01872075	-0.001243431	0.0716015	-0.01888852	-0.1432657	-0.08321535	-0.03322864	-0.04204457	

1.202e+10	-0.03123164	-0.01505764	-0.1436739	0.08046126	0.05241989	-0.01427951	-0.01602703	0.01017106	
-0.1436739	0.08046126	-0.02858742	-0.01826836	-0.01570732	0.01000667	0.04838348	-0.01526361	
0.05241989	-0.01427951	-0.01570732	0.01000667	-0.06743111	-0.04984178	-0.1642825	0.01425729	
-0.01602703	0.01017106	0.04838348	-0.01526361	-0.1642825	0.01425729	-0.06549401	-0.05083899	

1.204e+10	-0.04984374	0.005080522	-0.07060381	0.1479575	0.03477905	-0.001085867	-0.006649076	0.01761486	
-0.07060381	0.1479575	-0.04902162	0.00036791	-0.006538341	0.01733066	0.03156959	-0.0001608969	
0.03477905	-0.001085867	-0.006538341	0.01733066	-0.1003772	-0.03665341	-0.1254398	0.1052565	
-0.006649076	0.01761486	0.03156959	-0.0001608969	-0.1254398	0.1052565	-0.09870443	-0.03900016	

1.206e+10	-0.05370762	0.03411019	0.027355	0.1604042	0.02734935	0.0196525	0.005117377	0.01751368	
0.027355	0.1604042	-0.05578652	0.02902825	0.00503632	0.01726649	0.02535457	0.02138989	
0.02734935	0.0196525	0.00503632	0.01726649	-0.1200372	-0.00496809	-0.04223163	0.1568439	
0.005117377	0.01751368	0.02535457	0.02138989	-0.04223163	0.1568439	-0.1197996	-0.008629377	

1.208e+10	-0.03895347	0.0614994	0.1134064	0.1146323	0.03274768	0.04162534	0.01371575	0.01051572	
0.1134064	0.1146323	-0.04404368	0.05800438	0.01353196	0.01039057	0.03167769	0.04348398	
0.03274768	0.04162534	0.01353196	0.01039057	-0.1168204	0.03343153	0.05429207	0.1517821	
0.01371575	0.01051572	0.03167769	0.04348398	0.05429207	0.1517821	-0.1190132	0.02956303	

1.21e+10	-0.009566382	0.0754187	0.1571677	0.02916052	0.05033502	0.05741225	0.01612389	0.0007644729	
0.1571677	0.02916052	-0.01641235	0.07533699	0.01592325	0.0007728991	0.04979576	0.05923921	
0.05033502	0.05741225	0.01592325	0.0007728991	-0.09098952	0.06291019	0.1302522	0.09335114	
0.01612389	0.0007644729	0.04979576	0.05923921	0.1302522	0.09335114	-0.09565616	0.06058822	

1.212e+10	0.02309439	0.06904187	0.1449492	-0.06493609	0.07487928	0.06025614	0.01307777	-0.007584578	
0.1449492	-0.06493609	0.01681296	0.07315688	0.01294358	-0.007469063	0.07473075	0.06220588	
0.07487928	0.06025614	0.01294358	-0.007469063	-0.05280419	0.07162186	0.1596461	0.002760323	
0.01307777	-0.007584578	0.07473075	0.06220588	0.1596461	0.002760323	-0.05872841	0.07242011	

1.214e+10	0.04577094	0.04457095	0.08216808	-0.1353396	0.09710922	0.04760485	0.006965529	-0.01274814	
0.08216808	-0.1353396	0.04260883	0.05211718	0.006939974	-0.01259563	0.09755829	0.04981357	
0.09710922	0.04760485	0.006939974	-0.01259563	-0.01696395	0.05694074	0.132624	-0.08846256	
0.006965529	-0.01274814	0.09755829	0.04981357	0.132624	-0.08846256	-0.02195959	0.0614321	

1.216e+10	0.04987511	0.01187365	-0.00939235	-0.1580912	0.1074202	0.02382235	-0.0005678103	-0.01449688	
-0.00939235	-0.1580912	0.05162326	0.02058202	-0.0005030616	-0.01438421	0.1088776	0.02613318	
0.1074202	0.02382235	-0.0005030616	-0.01438421	0.004062872	0.02505168	0.05852532	-0.1482564	
-0.0005678103	-0.01449688	0.1088776	0.02613318	0.05852532	-0.1482564	0.002262651	0.03231689	

1.218e+10	0.03469747	-0.01665106	-0.09816615	-0.1247469	0.1012842	-0.001080274	-0.008416185	-0.01236082	
-0.09816615	-0.1247469	0.04155399	-0.009938653	-0.008328841	-0.01232944	0.1040976	0.0007088169	
0.1012842	-0.001080274	-0.008328841	-0.01232944	0.0037293	-0.01298508	-0.03680759	-0.1551024	
-0.008416185	-0.01236082	0.1040976	0.0007088169	-0.03680759	-0.1551024	0.006597564	-0.005250948	

1.22e+10	0.006434778	-0.03126468	-0.1523478	-0.04599652	0.08205095	-0.01675908	-0.01447769	-0.005828802	
-0.1523478	-0.04599652	0.01662296	-0.02947695	-0.01442467	-0.005842593	0.08607425	-0.01647093	
0.08205095	-0.01675908	-0.01442467	-0.005842593	-0.01796221	-0.04461489	-0.1189945	-0.1058341	
-0.01447769	-0.005828802	0.08607425	-0.01647093	-0.1189945	-0.1058341	-0.010575	-0.03938396	

1.222e+10	-0.02502309	-0.02744223	-0.1511341	0.05015845	0.05846574	-0.01804116	-0.0157212	0.003791744	
-0.1511341	0.05015845	-0.01495604	-0.03207333	-0.01569301	0.003784944	0.06273724	-0.02017051	
0.05846574	-0.01804116	-0.01569301	0.003784944	-0.05445197	-0.05874106	-0.1577281	-0.01833346	
-0.0157212	0.003791744	0.06273724	-0.02017051	-0.1577281	-0.01833346	-0.04459794	-0.0586068	

1.224e+10	-0.04922254	-0.006323018	-0.09429878	0.127857	0.03928743	-0.00622793	-0.01052829	0.01260958	
-0.09429878	0.127857	-0.0432342	-0.01649225	-0.0104868	0.01260901	0.04216817	-0.01093527	
0.03928743	-0.00622793	-0.0104868	0.01260901	-0.09345359	-0.04908504	-0.1390588	0.07503206	
-0.01052829	0.01260958	0.04216817	-0.01093527	-0.1390588	0.07503206	-0.08460146	-0.05500383	

1.226e+10	-0.05743826	0.02569338	-0.003449727	0.1579723	0.03005752	0.01362394	-0.0008303261	0.01622276	
-0.003449727	0.1579723	-0.05837902	0.01324196	-0.0007704704	0.01618767	0.0299022	0.007382324	
0.03005752	0.01362394	-0.0007704704	0.01618767	-0.1202355	-0.01769052	-0.07076138	0.1402053	
-0.0008303261	0.01622276	0.0299022	0.007382324	-0.07076138	0.1402053	-0.1160272	-0.02830583	

1.228e+10	-0.04536059	0.05774665	0.08720062	0.1303522	0.03311241	0.03533892	0.008624204	0.01304013	
0.08720062	0.1303522	-0.05363313	0.04755081	0.008651611	0.01295588	0.02916834	0.02963843	
0.03311241	0.03533892	0.008651611	0.01295588	-0.1235265	0.02427971	0.02168731	0.1546265	
0.008624204	0.01304013	0.02916834	0.02963843	0.02168731	0.1546265	-0.1262446	0.01237839	

1.23e+10	-0.01600507	0.07735356	0.1449028	0.05675178	0.04802174	0.05224887	0.01371055	0.005417322	
0.1449028	0.05675178	-0.02922047	0.07346511	0.0136708	0.005335246	0.04097288	0.04939415	
0.04802174	0.05224887	0.0136708	0.005335246	-0.1013038	0.06041314	0.1052962	0.1143565	
0.01371055	0.005417322	0.04097288	0.04939415	0.1052962	0.1143565	-0.1108413	0.05161551	

1.232e+10	0.01983126	0.07599198	0.1505431	-0.03553417	0.07075226	0.05802356	0.01360526	-0.002707243	
0.1505431	-0.03553417	0.006113419	0.08044203	0.01352411	-0.002735538	0.06264946	0.05962276	
0.07075226	0.05802356	0.01352411	-0.002735538	-0.06237249	0.07663995	0.1512642	0.03428034	
0.01360526	-0.002707243	0.06264946	0.05962276	0.1512642	0.03428034	-0.07598133	0.07464059	

1.234e+10	0.04800947	0.05389979	0.103515	-0.1143174	0.09342155	0.04918893	0.009917598	-0.008965011	
0.103515	-0.1143174	0.03875204	0.06584834	0.0098605	-0.008937193	0.08701339	0.05545072	
0.09342155	0.04918893	0.0098605	-0.008937193	-0.02188566	0.06751748	0.1438923	-0.05775391	
0.009917598	-0.008965011	0.08701339	0.05545072	0.1438923	-0.05775391	-0.03501512	0.07390805	

1.236e+10	0.05780039	0.02001292	0.02030971	-0.1529676	0.1066432	0.02812658	0.004088	-0.01281789	
0.02030971	-0.1529676	0.05684763	0.03585431	0.004072284	-0.01279561	0.1045839	0.03760718	
0.1066432	0.02812658	0.004072284	-0.01279561	0.00560057	0.03763153	0.08550285	-0.1295833	
0.004088	-0.01281789	0.1045839	0.03760718	0.08550285	-0.1295833	-0.002039509	0.05106829	

1.238e+10	0.0463535	-0.01241778	-0.07064315	-0.1377522	0.1044046	0.003400707	-0.003311036	-0.01368618	
-0.07064315	-0.1377522	0.05495969	0.001884949	-0.003339676	-0.01368952	0.1082605	0.01318149	
0.1044046	0.003400707	-0.003339676	-0.01368952	0.01135776	-0.00182847	-0.003802895	-0.1554935	
-0.003311036	-0.01368618	0.1082605	0.01318149	-0.003802895	-0.1554935	0.01276628	0.01448254	

1.24e+10	0.01909457	-0.03172725	-0.1373482	-0.07284495	0.08808026	-0.01434036	-0.01094473	-0.01023831	
-0.1373482	-0.07284495	0.03506453	-0.02453695	-0.01101821	-0.0102137	0.09743177	-0.007955226	
0.08808026	-0.01434036	-0.01101821	-0.0102137	-0.005874952	-0.03731637	-0.09225579	-0.1254992	
-0.01094473	-0.01023831	0.09743177	-0.007955226	-0.09225579	-0.1254992	0.005156822	-0.02400944	

1.242e+10	-0.01351324	-0.03197475	-0.1547472	0.01941194	0.06552964	-0.01852943	-0.01571831	-0.002167117	
-0.1547472	0.01941194	0.004496312	-0.03537842	-0.0157755	-0.00204888	0.07765382	-0.01857711	
0.06552964	-0.01852943	-0.0157755	-0.00204888	-0.04020127	-0.05684137	-0.147528	-0.04993547	
-0.01571831	-0.002167117	0.07765382	-0.01857711	-0.147528	-0.04993547	-0.02268618	-0.05200081	

1.244e+10	-0.04018017	-0.01391363	-0.1153535	0.1051109	0.04596516	-0.009347541	-0.01444697	0.007912763	
-0.1153535	0.1051109	-0.02686019	-0.02759202	-0.01437848	0.008075426	0.05651134	-0.01673084	
0.04596516	-0.009347541	-0.01437848	0.008075426	-0.07988254	-0.05315425	-0.1492209	0.04363525	
-0.01444697	0.007912763	0.05651134	-0.01673084	-0.1492209	0.04363525	-0.06196057	-0.05950114	

1.246e+10	-0.0520182	0.0161919	-0.0335892	0.1520132	0.03542404	0.008298198	-0.006829099	0.01518834	
-0.0335892	0.1520132	-0.04887356	-0.003331865	-0.006629731	0.01525462	0.04008654	-0.00441561	
0.03542404	0.008298198	-0.006629731	0.01525462	-0.1103965	-0.02683012	-0.0970478	0.1208326	
-0.006829099	0.01518834	0.04008654	-0.00441561	-0.0970478	0.1208326	-0.09888906	-0.04291612	

1.248e+10	-0.0444596	0.04821416	0.05963715	0.1429595	0.03614656	0.02842616	0.003557778	0.01598998	
0.05963715	0.1429595	-0.05333915	0.02985913	0.003749753	0.01587619	0.03258066	0.0147258	
0.03614656	0.02842616	0.003749753	0.01587619	-0.1198023	0.01276088	-0.01060847	0.1540652	
0.003557778	0.01598998	0.03258066	0.0147258	-0.01060847	0.1540652	-0.119519	-0.007749895	

1.25e+10	-0.0193115	0.07044599	0.1299897	0.0825194	0.04782088	0.04518719	0.01174542	0.01053819	
0.1299897	0.0825194	-0.03756926	0.06014674	0.01179297	0.01033233	0.03671049	0.03555507	
0.04782088	0.04518719	0.01179297	0.01033233	-0.1040775	0.05038027	0.07880018	0.1323355	
0.01174542	0.01053819	0.03671049	0.03555507	0.07880018	0.1323355	-0.1159163	0.03273547	

1.252e+10	0.01446827	0.0738409	0.1530416	-0.006271461	0.06753932	0.05292714	0.01496537	0.002142814	
0.1530416	-0.006271461	-0.00697867	0.07574519	0.0148689	0.001986418	0.05239409	0.05113996	
0.06753932	0.05292714	0.0148689	0.001986418	-0.06961117	0.07135813	0.1399271	0.06393076	
0.01496537	0.002142814	0.05239409	0.05113996	0.1399271	0.06393076	-0.09003491	0.06323065	

1.254e+10	0.0437181	0.05673633	0.121974	-0.09191734	0.0890308	0.04769189	0.01347441	-0.005955849	
0.121974	-0.09191734	0.02660359	0.07081147	0.01334781	-0.006011348	0.07494466	0.05494969	
0.0890308	0.04769189	0.01334781	-0.006011348	-0.03023357	0.0683225	0.1515355	-0.02710175	
0.01347441	-0.005955849	0.07494466	0.05494969	0.1515355	-0.02710175	-0.05243942	0.07332769	

1.256e+10	0.05698019	0.02623568	0.04815019	-0.1450152	0.1036628	0.03015607	0.008506979	-0.01218404	
0.04815019	-0.1450152	0.05057228	0.0482048	0.008403239	-0.01219758	0.09569753	0.04464686	
0.1036628	0.03015607	0.008403239	-0.01219758	-0.0007266761	0.04386898	0.1093321	-0.1088523	
0.008506979	-0.01218404	0.09569753	0.04464686	0.1093321	-0.1088523	-0.01681962	0.06118838	

1.258e+10	0.04990641	-0.005175021	-0.04313454	-0.1471273	0.104598	0.007119222	0.0008152373	-0.01549357	
-0.04313454	-0.1471273	0.05730378	0.01735779	0.0006781594	-0.01549517	0.1062036	0.02435314	
0.104598	0.007119222	0.0006781594	-0.01549517	0.009179057	0.008110667	0.02768651	-0.1522735	
0.0008152373	-0.01549357	0.1062036	0.02435314	0.02768651	-0.1522735	0.005587274	0.03242108	

1.26e+10	0.02667386	-0.02552485	-0.1201141	-0.09650519	0.09134969	-0.01121051	-0.008380179	-0.01419837	
-0.1201141	-0.09650519	0.04627312	-0.01067278	-0.008567663	-0.01410242	0.1029637	0.00273612	
0.09134969	-0.01121051	-0.008567663	-0.01410242	-0.002691331	-0.02597696	-0.06464008	-0.1411862	
-0.008380179	-0.01419837	0.1029637	0.00273612	-0.06464008	-0.1411862	0.008638093	-0.003049581	

1.262e+10	-0.002743348	-0.02834556	-0.1544856	-0.01001721	0.07063312	-0.01721197	-0.01596028	-0.007172833	
-0.1544856	-0.01001721	0.02269976	-0.02736045	-0.01606896	-0.006890485	0.08892333	-0.01218288	
0.07063312	-0.01721197	-0.01606896	-0.006890485	-0.03136138	-0.04681171	-0.1342691	-0.07871223	
-0.01596028	-0.007172833	0.08892333	-0.01218288	-0.1342691	-0.07871223	-0.008111177	-0.03404716	

1.264e+10	-0.02743563	-0.01423343	-0.1324063	0.08104336	0.05179767	-0.01003092	-0.01787671	0.003894484	
-0.1324063	0.08104336	-0.005370892	-0.02850645	-0.01771005	0.004242001	0.07037373	-0.01669531	
0.05179767	-0.01003092	-0.01771005	0.004242001	-0.06645826	-0.04735173	-0.1552507	0.01270937	
-0.01787671	0.003894484	0.07037373	-0.01669531	-0.1552507	0.01270937	-0.0392041	-0.05037803	

1.266e+10	-0.03945271	0.01086709	-0.06132982	0.1426117	0.04130194	0.005548791	-0.01219201	0.01421462	
-0.06132982	0.1426117	-0.02939946	-0.01417429	-0.01176861	0.01433754	0.05301404	-0.01116021	
0.04130194	0.005548791	-0.01176861	0.01433754	-0.09522953	-0.02745058	-0.1197474	0.0994515	
-0.01219201	0.01421462	0.05301404	-0.01116021	-0.1197474	0.0994515	-0.07406985	-0.04615824	

1.268e+10	-0.03513167	0.03827239	0.03201063	0.151495	0.0410879	0.02344848	-0.001182244	0.01870267	
0.03201063	0.151495	-0.04148393	0.01144216	-0.0007861986	0.01845026	0.04102353	0.002506016	
0.0410879	0.02344848	-0.0007861986	0.01845026	-0.1068282	0.005505154	-0.04106612	0.1499068	
-0.001182244	0.01870267	0.04102353	0.002506016	-0.04106612	0.1499068	-0.1000936	-0.0226305	

1.27e+10	-0.01570315	0.05848246	0.1127748	0.1051348	0.05042335	0.03860039	0.009928246	0.01550111	
0.1127748	0.1051348	-0.03669049	0.03981684	0.01000172	0.0150424	0.0380872	0.02109731	
0.05042335	0.03860039	0.01000172	0.0150424	-0.09673047	0.03876778	0.05199238	0.1462215	
0.009928246	0.01550111	0.0380872	0.02109731	0.05199238	0.1462215	-0.1075853	0.01123174	

1.272e+10	0.0121549	0.06365185	0.1519863	0.02150394	0.06701286	0.0465162	0.01658569	0.006822249	
0.1519863	0.02150394	-0.01620212	0.06025676	0.01632259	0.00648862	0.04651235	0.03902296	
0.06701286	0.0465162	0.01632259	0.00648862	-0.06926662	0.05924296	0.1261035	0.09026463	
0.01658569	0.006822249	0.04651235	0.03902296	0.1261035	0.09026463	-0.09439874	0.04246409	

1.274e+10	0.03763474	0.05133671	0.1366783	-0.06884967	0.08610578	0.0435178	0.01725502	-0.003447266	
0.1366783	-0.06884967	0.01192153	0.0648788	0.01690138	-0.003490264	0.06454938	0.04906138	
0.08610578	0.0435178	0.01690138	-0.003490264	-0.03595311	0.05943586	0.1551257	0.002109047	
0.01725502	-0.003447266	0.06454938	0.04906138	0.1551257	0.002109047	-0.06680196	0.05993797	

1.276e+10	0.05037525	0.02664306	0.07302374	-0.1344035	0.1003775	0.02913387	0.01264457	-0.01228686	
0.07302374	-0.1344035	0.03659327	0.05290459	0.01241866	-0.0121447	0.08536326	0.0462829	
0.1003775	0.02913387	0.01241866	-0.0121447	-0.01000905	0.04071889	0.1287566	-0.08701097	
0.01264457	-0.01228686	0.08536326	0.0462829	0.1287566	-0.08701097	-0.03572024	0.05907417	

1.278e+10	0.04570491	0.0003153203	-0.01673873	-0.1523734	0.1028788	0.008507892	0.003996739	-0.01765732	
-0.01673873	-0.1523734	0.04936044	0.03044994	0.003891414	-0.01749955	0.1001327	0.03176396	
0.1028788	0.008507892	0.003891414	-0.01749955	-0.0003941072	0.01179942	0.05599679	-0.1454213	
0.003996739	-0.01765732	0.1001327	0.03176396	0.05599679	-0.1454213	-0.01136774	0.04227736	

1.28e+10	0.02702853	-0.01674077	-0.1013182	-0.1158572	0.09194174	-0.009008324	-0.006840483	-0.01759937	
-0.1013182	-0.1158572	0.04772546	0.006499561	-0.006930734	-0.01743388	0.1032407	0.0122928	
0.09194174	-0.009008324	-0.006930734	-0.01743388	-0.00893107	-0.01590847	-0.03753316	-0.1517781	
-0.006840483	-0.01759937	0.1032407	0.0122928	-0.03753316	-0.1517781	-0.0003363104	0.01621751	

1.282e+10	0.003480509	-0.0188158	-0.1501469	-0.03679628	0.07316419	-0.01541278	-0.01645543	-0.01092882	
-0.1501469	-0.03679628	0.03452582	-0.01145978	-0.01648582	-0.01064884	0.09526066	-0.004103368	
0.07316419	-0.01541278	-0.01648582	-0.01064884	-0.03102383	-0.03278385	-0.1182637	-0.1029864	
-0.01645543	-0.01092882	0.09526066	-0.004103368	-0.1182637	-0.1029864	-0.004893894	-0.01084382	

1.284e+10	-0.01529709	-0.007247239	-0.1443684	0.05663549	0.05575167	-0.009177551	-0.02049216	0.000901874	
-0.1443684	0.05663549	0.0149717	-0.0193844	-0.0202749	0.001243618	0.08096079	-0.01276543	
0.05575167	-0.009177551	-0.0202749	0.001243618	-0.05788978	-0.03361155	-0.1562821	-0.01620532	
-0.02049216	0.000901874	0.08096079	-0.01276543	-0.1562821	-0.01620532	-0.0231107	-0.03063554	

1.286e+10	-0.02335417	0.01193036	-0.08532636	0.1296996	0.04639317	0.00497356	-0.01629317	0.01326472	
-0.08532636	0.1296996	-0.005323459	-0.0159564	-0.01579586	0.01337218	0.06528246	-0.01289076	
0.04639317	0.00497356	-0.01579586	0.01337218	-0.07965298	-0.01885853	-0.1372414	0.07663876	
-0.01629317	0.01326472	0.06528246	-0.01289076	-0.1372414	0.07663876	-0.04891092	-0.03683026	

1.288e+10	-0.01927392	0.03165023	0.005198178	0.1549829	0.04654895	0.0206753	-0.005158677	0.02056794	
0.005198178	0.1549829	-0.02069225	-0.002003372	-0.00468433	0.02022563	0.0517045	-0.005236544	
0.04654895	0.0206753	-0.00468433	0.02022563	-0.08839228	0.005592149	-0.06815255	0.1415473	
-0.005158677	0.02056794	0.0517045	-0.005236544	-0.06815255	0.1415473	-0.0733955	-0.02733929	

1.29e+10	-0.004866318	0.04557292	0.0933003	0.123298	0.05469363	0.03345462	0.008025879	0.01952154	
0.0933003	0.123298	-0.02563375	0.01859668	0.008084334	0.01890498	0.04382799	0.009017322	
0.05469363	0.03345462	0.008084334	0.01890498	-0.08087708	0.03015828	0.02547616	0.154828	
0.008025879	0.01952154	0.04382799	0.009017322	0.02547616	0.154828	-0.08765178	-0.00588329	

1.292e+10	0.0151673	0.04871757	0.146678	0.04708468	0.0685911	0.0402132	0.01768345	0.0110254	
0.146678	0.04708468	-0.01761118	0.03846614	0.01726797	0.01058307	0.04545392	0.0263254	
0.0685911	0.0402132	0.01726797	0.01058307	-0.06040304	0.04499025	0.1095535	0.1120678	
0.01768345	0.0110254	0.04545392	0.0263254	0.1095535	0.1120678	-0.08693422	0.01905011	

1.294e+10	0.03332601	0.0392675	0.1466813	-0.04534374	0.08486496	0.03815585	0.02056739	-0.001046542	
0.1466813	-0.04534374	0.0002870884	0.04969417	0.02001325	-0.001035085	0.05769711	0.03999907	
0.08486496	0.03815585	0.02001325	-0.001035085	-0.03589914	0.04431592	0.1538805	0.02900371	
0.02056739	-0.001046542	0.05769711	0.03999907	0.1538805	0.02900371	-0.07290618	0.03814684	

1.296e+10	0.04180882	0.02081778	0.09420691	-0.1208617	0.09772235	0.02626325	0.01639038	-0.0124108	
0.09420691	-0.1208617	0.02039131	0.04851376	0.01607741	-0.01207345	0.07619189	0.04344323	
0.09772235	0.02626325	0.01607741	-0.01207345	-0.01776624	0.02956799	0.1427446	-0.06435271	
0.01639038	-0.0124108	0.07619189	0.04344323	0.1427446	-0.06435271	-0.05209373	0.04582994	

1.298e+10	0.03691119	0.001778331	0.008144414	-0.1530535	0.1007592	0.008171675	0.006683078	-0.01971824	
0.008144414	-0.1530535	0.03509877	0.03717176	0.006669839	-0.01937721	0.09273929	0.03491199	
0.1007592	0.008171675	0.006669839	-0.01937721	-0.01271017	0.008222575	0.08021211	-0.1346372	
0.006683078	-0.01971824	0.09273929	0.03491199	0.08021211	-0.1346372	-0.03188889	0.04160349	

1.3e+10	0.02179429	-0.008988299	-0.08111895	-0.1303738	0.09153657	-0.007959797	-0.005823762	-0.02049878	
-0.08111895	-0.1303738	0.0407957	0.02149912	-0.005730133	-0.02029041	0.1003594	0.01898851	
0.09153657	-0.007959797	-0.005730133	-0.02029041	-0.02108707	-0.01043562	-0.01154139	-0.1565652	
-0.005823762	-0.02049878	0.1003594	0.01898851	-0.01154139	-0.1565652	-0.0176793	0.02849158	

1.302e+10	0.004666849	-0.007439594	-0.14165	-0.06027279	0.07450867	-0.01422811	-0.01702783	-0.01374954	
-0.14165	-0.06027279	0.03817489	0.006806858	-0.016933	-0.01356589	0.09757141	0.003047725	
0.07450867	-0.01422811	-0.016933	-0.01356589	-0.03785628	-0.01950563	-0.09958832	-0.1217598	
-0.01702783	-0.01374954	0.09757141	0.003047725	-0.09958832	-0.1217598	-0.01233893	0.01088206	

1.304e+10	-0.00636236	0.003737254	-0.1507979	0.03235579	0.0584495	-0.00851165	-0.02237714	-0.001231488	
-0.1507979	0.03235579	0.02965833	-0.004001108	-0.02215282	-0.001013702	0.08765316	-0.007680373	
0.0584495	-0.00851165	-0.02215282	-0.001013702	-0.05560133	-0.01674469	-0.1517321	-0.04230729	
-0.02237714	-0.001231488	0.08765316	-0.007680373	-0.1517321	-0.04230729	-0.01672264	-0.006446026	

1.306e+10	-0.007868529	0.0179676	-0.1045812	0.1134924	0.05017726	0.004679625	-0.01913433	0.01239277	
-0.1045812	0.1134924	0.01732556	-0.009384705	-0.0186844	0.01244211	0.0747606	-0.01168327	
0.05017726	0.004679625	-0.0186844	0.01244211	-0.06756281	-0.004416458	-0.1484863	0.05275681	
-0.01913433	0.01239277	0.0747606	-0.01168327	-0.1484863	0.05275681	-0.02943597	-0.01855117	

1.308e+10	-0.001242466	0.0294478	-0.01990298	0.1529101	0.05098937	0.01877458	-0.008193695	0.02151348	
-0.01990298	0.1529101	0.003579062	-0.007675674	-0.007744626	0.02115175	0.06167268	-0.009000589	
0.05098937	0.01877458	-0.007744626	0.02115175	-0.06965841	0.01228266	-0.0909055	0.1285807	
-0.008193695	0.02151348	0.06167268	-0.009000589	-0.0909055	0.1285807	-0.04647086	-0.02155134	

1.31e+10	0.01017701	0.03506605	0.07174875	0.1361066	0.05861957	0.02952232	0.006081892	0.02226218	
0.07174875	0.1361066	-0.007361367	0.001804039	0.006115163	0.02159902	0.05126929	0.0005272363	
0.05861957	0.02952232	0.006115163	0.02159902	-0.06130418	0.02671945	-0.0002908645	0.1572197	
0.006081892	0.02226218	0.05126929	0.0005272363	-0.0002908645	0.1572197	-0.06185982	-0.01455466	

1.312e+10	0.02284693	0.03346473	0.1366022	0.06970744	0.07055529	0.03494724	0.01790941	0.0144485	
0.1366022	0.06970744	-0.01072042	0.01630788	0.01740346	0.01396226	0.04778061	0.01542259	
0.07055529	0.03494724	0.01740346	0.01396226	-0.04592922	0.03296704	0.08998168	0.1285215	
0.01790941	0.0144485	0.04778061	0.01542259	0.08998168	0.1285215	-0.07023322	-0.000625175	

1.314e+10	0.0325907	0.02461866	0.1513015	-0.02141863	0.08435495	0.03333038	0.02287489	0.001388669	
0.1513015	-0.02141863	-0.004815702	0.02984193	0.0221896	0.001451194	0.05443595	0.03042198	
0.08435495	0.03333038	0.0221896	0.001451194	-0.03019437	0.02829496	0.1471318	0.0533336	
0.02287489	0.001388669	0.05443595	0.03042198	0.1471318	0.0533336	-0.06951673	0.01470017	

1.316e+10	0.03495787	0.01126144	0.1112874	-0.1040171	0.09580911	0.02350815	0.01951112	-0.01200004	
0.1112874	-0.1040171	0.007216557	0.03702934	0.01914326	-0.01150016	0.0695441	0.03830177	
0.09580911	0.02350815	0.01914326	-0.01150016	-0.02127905	0.01504412	0.1507475	-0.04068044	
0.01951112	-0.01200004	0.0695441	0.03830177	0.1507475	-0.04068044	-0.06143485	0.02647074	

1.318e+10	0.02796038	-0.0006086329	0.03149201	-0.1487326	0.09930103	0.007698506	0.009163829	-0.02114901	
0.03149201	-0.1487326	0.01994946	0.03652616	0.009254237	-0.02064362	0.08617424	0.03498472	
0.09930103	0.007698506	0.009254237	-0.02064362	-0.02296144	-0.0001603037	0.1000354	-0.1195731	
0.009163829	-0.02114901	0.08617424	0.03498472	0.1000354	-0.1195731	-0.04947808	0.03234056	

1.32e+10	0.01479861	-0.004538796	-0.05945749	-0.1398016	0.09180389	-0.007304126	-0.004746686	-0.02282057	
-0.05945749	-0.1398016	0.02958016	0.03061404	-0.004452534	-0.02259039	0.09672175	0.02273576	
0.09180389	-0.007304126	-0.004452534	-0.02259039	-0.0336274	-0.01005673	0.01339551	-0.1552331	
-0.004746686	-0.02282057	0.09672175	0.02273576	0.01339551	-0.1552331	-0.03678243	0.03199703	

1.322e+10	0.002844204	0.001723597	-0.1289618	-0.08030286	0.07648941	-0.01388807	-0.01732075	-0.01602235	
-0.1289618	-0.08030286	0.03525916	0.02207603	-0.01708626	-0.01597786	0.09790963	0.007976353	
0.07648941	-0.01388807	-0.01708626	-0.01597786	-0.04747032	-0.01051523	-0.07815042	-0.1348165	
-0.01732075	-0.01602235	0.09790963	0.007976353	-0.07815042	-0.1348165	-0.02578287	0.02595444	

1.324e+10	-0.001200749	0.01415416	-0.1516632	0.008479287	0.06130972	-0.00922593	-0.02364484	-0.002932549	
-0.1516632	0.008479287	0.037119	0.01214383	-0.02344292	-0.002895043	0.09155382	-0.003686144	
0.06130972	-0.00922593	-0.02344292	-0.002895043	-0.05785732	-0.002222654	-0.1414748	-0.06540049	
-0.02364484	-0.002932549	0.09155382	-0.003686144	-0.1414748	-0.06540049	-0.01892512	0.01522163	

1.326e+10	0.004019813	0.02546062	-0.1190226	0.09420095	0.05321958	0.002908541	-0.02103133	0.01151432	
-0.1190226	0.09420095	0.03421783	0.00171939	-0.02071511	0.0114873	0.08118062	-0.01006353	
0.05321958	0.002908541	-0.02071511	0.0114873	-0.06056341	0.0104067	-0.1532796	0.02796619	
-0.02103133	0.01151432	0.08118062	-0.01006353	-0.1532796	0.02796619	-0.01853761	0.002194071	

1.328e+10	0.01454568	0.03043138	-0.04294674	0.1453583	0.05389261	0.01600158	-0.01038894	0.02171255	
-0.04294674	0.1453583	0.02555036	-0.006355738	-0.01004302	0.02140064	0.06923389	-0.01075324	
0.05389261	0.01600158	-0.01004302	0.02140064	-0.05502323	0.0218964	-0.1090825	0.1110032	
-0.01038894	0.02171255	0.06923389	-0.01075324	-0.1090825	0.1110032	-0.0253694	-0.009108545	

1.33e+10	0.02512981	0.02837214	0.04853738	0.1432082	0.06084861	0.02567343	0.004244237	0.0237406	
0.04853738	0.1432082	0.01295757	-0.00798434	0.004273442	0.02314987	0.05792555	-0.005023823	
0.06084861	0.02567343	0.004273442	0.02314987	-0.04364845	0.02782855	-0.02519547	0.1532223	
0.004244237	0.0237406	0.05792555	-0.005023823	-0.02519547	0.1532223	-0.03730579	-0.01462749	

1.332e+10	0.03242607	0.02130157	0.1217588	0.08876523	0.07121712	0.03046339	0.01728452	0.01681316	
0.1217588	0.08876523	0.00162823	-0.001348282	0.01681736	0.01632963	0.05113552	0.007142949	
0.07121712	0.03046339	0.01681736	0.01632963	-0.03073264	0.02576034	0.06741806	0.1393368	
0.01728452	0.01681316	0.05113552	0.007142949	0.06741806	0.1393368	-0.05002481	-0.01253752	

1.334e+10	0.03482176	0.01162823	0.149928	0.002568265	0.08300022	0.02961383	0.02377437	0.003643893	
0.149928	0.002568265	-0.003236917	0.01080977	0.02306798	0.003650226	0.05325732	0.02219724	
0.08300022	0.02961383	0.02306798	0.003650226	-0.02152768	0.01604624	0.1347208	0.07491688	
0.02377437	0.003643893	0.05325732	0.02219724	0.1347208	0.07491688	-0.05924806	-0.004059906	

1.336e+10	0.03141166	0.002042587	0.1235708	-0.08346882	0.09344205	0.02216971	0.02146291	-0.01070849	
0.1235708	-0.08346882	-7.022454e-05	0.02312389	0.02097025	-0.01021066	0.06500683	0.03319555	
0.09344205	0.02216971	0.02097025	-0.01021066	-0.0203816	0.002455618	0.152625	-0.01589046	
0.02146291	-0.01070849	0.06500683	0.03319555	0.152625	-0.01589046	-0.06261343	0.007699056	

1.338e+10	0.02266122	-0.00401985	0.05338958	-0.1385063	0.09826805	0.009018323	0.0114687	-0.02111657	
0.05338958	-0.1385063	0.009000972	0.03116418	0.01144849	-0.02044024	0.08142805	0.0342476	
0.09826805	0.009018323	0.01144849	-0.02044024	-0.02819508	-0.008852018	0.1155526	-0.1000383	
0.0114687	-0.02111657	0.08142805	0.0342476	0.1155526	-0.1000383	-0.05961508	0.01953129	

1.34e+10	0.01118256	-0.00336195	-0.03524542	-0.1439273	0.09384094	-0.005326703	-0.002777402	-0.02409646	
-0.03524542	-0.1439273	0.02017118	0.03321363	-0.002363877	-0.02360795	0.09452763	0.0248994	
0.09384094	-0.005326703	-0.002363877	-0.02360795	-0.04153288	-0.01257907	0.0374923	-0.1477885	
-0.002777402	-0.02409646	0.09452763	0.0248994	0.0374923	-0.1477885	-0.05102605	0.02852918	

1.342e+10	0.002120537	0.005483244	-0.1113298	-0.09780565	0.0808796	-0.01374961	-0.01645742	-0.01818186	
-0.1113298	-0.09780565	0.03049601	0.03015725	-0.0158836	-0.01807992	0.09883367	0.01052965	
0.0808796	-0.01374961	-0.0158836	-0.01807992	-0.05442326	-0.006788422	-0.05383422	-0.1424681	
-0.01645742	-0.01818186	0.09883367	0.01052965	-0.05383422	-0.1424681	-0.0386296	0.03227645	

1.344e+10	0.001480612	0.01912878	-0.1472865	-0.01615651	0.06600548	-0.01172052	-0.02409479	-0.005125902	
-0.1472865	-0.01615651	0.0387616	0.02280591	-0.02361011	-0.005342423	0.0946376	-0.00235917	
0.06600548	-0.01172052	-0.02361011	-0.005342423	-0.06071964	0.006156969	-0.1256857	-0.08580127	
-0.02409479	-0.005125902	0.0946376	-0.00235917	-0.1256857	-0.08580127	-0.02537075	0.02895018	

1.346e+10	0.01054938	0.02988997	-0.1297197	0.071314	0.05670022	-0.00149772	-0.02249325	0.009873847	
-0.1297197	0.071314	0.04279039	0.01140804	-0.02219192	0.009429056	0.08522236	-0.01047743	
0.05670022	-0.00149772	-0.02219192	0.009429056	-0.05741115	0.02026272	-0.151978	0.001909912	
-0.02249325	0.009873847	0.08522236	-0.01047743	-0.151978	0.001909912	-0.01559612	0.01841637	

1.348e+10	0.02415865	0.0319945	-0.06516085	0.1327166	0.05557704	0.01069641	-0.0125933	0.0209422	
-0.06516085	0.1327166	0.03954295	-0.001290357	-0.01260322	0.02035863	0.07333304	-0.01283626	
0.05557704	0.01069641	-0.01260322	0.02035863	-0.04633479	0.02926901	-0.1231401	0.0886482	
-0.0125933	0.0209422	0.07333304	-0.01283626	-0.1231401	0.0886482	-0.01359547	0.003849693	

1.35e+10	0.03531464	0.0257047	0.02284918	0.1459118	0.06049238	0.02039203	0.001664471	0.02436521	
0.02284918	0.1459118	0.02887157	-0.009807883	0.001267385	0.02386437	0.06145769	-0.00856754	
0.06049238	0.02039203	0.001267385	0.02386437	-0.03246937	0.03016184	-0.04989162	0.143028	
0.001664471	0.02436521	0.06145769	-0.00856754	-0.04989162	0.143028	-0.02043274	-0.008965095	

1.352e+10	0.04040278	0.01528386	0.1024422	0.1061635	0.06887361	0.02635814	0.01538154	0.01914172	
0.1024422	0.1061635	0.01521306	-0.009784615	0.01469316	0.01901073	0.05340201	0.002446079	
0.06887361	0.02635814	0.01469316	0.01901073	-0.02068918	0.02331098	0.04118419	0.1454934	
0.01538154	0.01914172	0.05340201	0.002446079	0.04118419	0.1454934	-0.03300156	-0.01517902	

1.354e+10	0.0395043	0.004709205	0.1446323	0.02790677	0.07959405	0.02801075	0.02384856	0.006915558	
0.1446323	0.02790677	0.004963234	-0.001520445	0.023218	0.007308134	0.05362783	0.01720459	
0.07959405	0.02801075	0.023218	0.007308134	-0.01458748	0.011157	0.1170245	0.09525257	
0.02384856	0.006915558	0.05362783	0.01720459	0.1170245	0.09525257	-0.0462588	-0.0132645	

1.356e+10	0.03369259	-0.003912549	0.1340896	-0.06011886	0.09094624	0.02346273	0.02374734	-0.008260405	
0.1340896	-0.06011886	0.001983264	0.0104861	0.02356211	-0.007513285	0.06359307	0.02924417	
0.09094624	0.02346273	0.02356211	-0.007513285	-0.01636184	-0.002655902	0.150074	0.0107706	
0.02374734	-0.008260405	0.06359307	0.02924417	0.150074	0.0107706	-0.0560554	-0.004746516	

1.358e+10	0.0236442	-0.008471437	0.07501866	-0.1258699	0.09843966	0.01201345	0.01467817	-0.0207699	
0.07501866	-0.1258699	0.005952224	0.02126258	0.01508348	-0.02011489	0.07932443	0.03228291	
0.09843966	0.01201345	0.01508348	-0.02011489	-0.02624024	-0.01318599	0.1287409	-0.07694004	
0.01467817	-0.0207699	0.07932443	0.03228291	0.1287409	-0.07694004	-0.05990256	0.007609944	

1.36e+10	0.01174715	-0.006109708	-0.01074774	-0.1457643	0.09730058	-0.002662447	-0.0002205635	-0.02568505	
-0.01074774	-0.1457643	0.01425498	0.02816507	0.0004880552	-0.02553434	0.09323736	0.0248068	
0.09730058	-0.002662447	0.0004880552	-0.02553434	-0.04096334	-0.01568335	0.06135783	-0.1364382	
-0.0002205635	-0.02568505	0.09323736	0.0248068	0.06135783	-0.1364382	-0.05667419	0.02047103	

1.362e+10	0.003168162	0.004126591	-0.09221384	-0.1130251	0.08687851	-0.01359005	-0.01533847	-0.02082742	
-0.09221384	-0.1130251	0.02471693	0.03055556	-0.01481357	-0.02117956	0.099269	0.01113901	
0.08687851	-0.01359005	-0.01481357	-0.02117956	-0.05451656	-0.008400641	-0.02771297	-0.1468072	
-0.01533847	-0.02082742	0.099269	0.01113901	-0.02771297	-0.1468072	-0.04677124	0.0301189	

1.364e+10	0.00327306	0.01853218	-0.1401678	-0.03958423	0.07220937	-0.01530248	-0.02470728	-0.007885097	
-0.1401678	-0.03958423	0.03581012	0.02771616	-0.02459817	-0.00837869	0.09644838	-0.002266195	
0.07220937	-0.01530248	-0.02459817	-0.00837869	-0.06089582	0.006003081	-0.1067683	-0.1044458	
-0.02470728	-0.007885097	0.09644838	-0.002266195	-0.1067683	-0.1044458	-0.03257569	0.03303374	

1.366e+10	0.01310256	0.02983572	-0.1373544	0.04793942	0.06053506	-0.007881685	-0.02462071	0.008042533	
-0.1373544	0.04793942	0.04471772	0.01878474	-0.02476498	0.00770869	0.08768717	-0.01114822	
0.06053506	-0.007881685	-0.02476498	0.00770869	-0.05720917	0.02145794	-0.1473728	-0.02434456	
-0.02462071	0.008042533	0.08768717	-0.01114822	-0.1473728	-0.02434456	-0.01865713	0.02730936	

1.368e+10	0.02778668	0.03224803	-0.08485307	0.1179986	0.05612919	0.003877981	-0.01531282	0.0208078	
-0.08485307	0.1179986	0.04714898	0.005318521	-0.01548543	0.02061717	0.07630599	-0.01428717	
0.05612919	0.003877981	-0.01548543	0.02061717	-0.04517379	0.03167805	-0.1345645	0.06479047	
-0.01531282	0.0208078	0.07630599	-0.01428717	-0.1345645	0.06479047	-0.01044788	0.01438028	

1.37e+10	0.04015923	0.02552025	-0.001665174	0.1452105	0.05871061	0.01492914	-0.0004464795	0.02581114	
-0.001665174	0.1452105	0.04055873	-0.00733129	-0.0006633649	0.02562341	0.06472159	-0.01133694	
0.05871061	0.01492914	-0.0006633649	0.02562341	-0.0297693	0.0331435	-0.07277568	0.1302701	
-0.0004464795	0.02581114	0.06472159	-0.01133694	-0.07277568	0.1302701	-0.01141963	-0.0007765099	

1.372e+10	0.04582294	0.01402085	0.08204809	0.1196266	0.0659619	0.02274728	0.0145829	0.02137052	
0.08204809	0.1196266	0.02745317	-0.01284599	0.01417922	0.02127129	0.05584705	-0.002004094	
0.0659619	0.02274728	0.01417922	0.02127129	-0.01644948	0.02598032	0.01536939	0.1481449	
0.0145829	0.02137052	0.05584705	-0.002004094	0.01536939	0.1481449	-0.02092095	-0.0120398	

1.374e+10	0.04465003	0.002553707	0.1356732	0.05053731	0.0762317	0.02632162	0.0243707	0.009027571	
0.1356732	0.05053731	0.01446821	-0.008757085	0.02386852	0.009274286	0.05389294	0.0120149	
0.0762317	0.02632162	0.02386852	0.009274286	-0.009344115	0.01292263	0.09745341	0.1120362	
0.0243707	0.009027571	0.05389294	0.0120149	0.09745341	0.1120362	-0.03465223	-0.01537747	

1.376e+10	0.03843874	-0.006215391	0.1396591	-0.03657897	0.08790868	0.02411012	0.0252234	-0.006823273	
0.1396591	-0.03657897	0.007569735	0.001810766	0.02500965	-0.00618463	0.06163016	0.02525501	
0.08790868	0.02411012	0.02500965	-0.00618463	-0.01060412	-0.001801168	0.1435679	0.03561723	
0.0252234	-0.006823273	0.06163016	0.02525501	0.1435679	0.03561723	-0.04723828	-0.01036008	

1.378e+10	0.02867952	-0.01079535	0.0929842	-0.1098102	0.09736826	0.01488865	0.01664979	-0.0203341	
0.0929842	-0.1098102	0.008277716	0.01326514	0.01700839	-0.01968357	0.07670555	0.03080745	
0.09736826	0.01488865	0.01700839	-0.01968357	-0.02000861	-0.01329872	0.1375112	-0.05288476	
0.01664979	-0.0203341	0.07670555	0.03080745	0.1375112	-0.05288476	-0.0546121	0.0005623849	

1.38e+10	0.0172584	-0.009292302	0.01313837	-0.1428471	0.09963809	0.0007617546	0.001684796	-0.02638226	
0.01313837	-0.1428471	0.0144452	0.02176814	0.002427077	-0.02620786	0.09194991	0.02546886	
0.09963809	0.0007617546	0.002427077	-0.02620786	-0.03452373	-0.01725806	0.08226887	-0.1216661	
0.001684796	-0.02638226	0.09194991	0.02546886	0.08226887	-0.1216661	-0.05479648	0.0136623	

1.382e+10	0.008165154	-0.0005638606	-0.07094848	-0.1242851	0.09236591	-0.0121607	-0.01412573	-0.02249217	
-0.07094848	-0.1242851	0.0235517	0.02614946	-0.01352299	-0.0229026	0.1002296	0.01228765	
0.09236591	-0.0121607	-0.01352299	-0.0229026	-0.04878609	-0.01176655	-0.002016292	-0.1465961	
-0.01412573	-0.02249217	0.1002296	0.01228765	-0.002016292	-0.1465961	-0.04772738	0.02495127	

1.384e+10	0.006432858	0.01297596	-0.1291663	-0.06105662	0.07872327	-0.01749578	-0.02467572	-0.009954613	
-0.1291663	-0.06105662	0.03405403	0.02582032	-0.02456657	-0.01059529	0.09908544	-0.002160668	
0.07872327	-0.01749578	-0.02456657	-0.01059529	-0.0570274	0.001333967	-0.08549719	-0.1190258	
-0.02467572	-0.009954613	0.09908544	-0.002160668	-0.08549719	-0.1190258	-0.03522587	0.03065378	

1.386e+10	0.01413675	0.02502738	-0.1406641	0.02401888	0.06553441	-0.01330811	-0.02577849	0.006374757	
-0.1406641	0.02401888	0.04375887	0.01971744	-0.0260744	0.00593353	0.09080753	-0.01252322	
0.06553441	-0.01330811	-0.0260744	0.00593353	-0.05582934	0.0167921	-0.1383189	-0.04857413	
-0.02577849	0.006374757	0.09080753	-0.01252322	-0.1383189	-0.04857413	-0.02132702	0.02819938	

1.388e+10	0.02774664	0.02941006	-0.1013808	0.1002546	0.0582961	-0.002956009	-0.01714905	0.02012158	
-0.1013808	0.1002546	0.04869558	0.008300772	-0.0175239	0.01998922	0.07922485	-0.01675885	
0.0582961	-0.002956009	-0.0175239	0.01998922	-0.04598833	0.02842515	-0.141176	0.03965621	
-0.01714905	0.02012158	0.07922485	-0.01675885	-0.141176	0.03965621	-0.01139979	0.01797013	

1.39e+10	0.04043814	0.02470777	-0.02542859	0.1402027	0.05815594	0.008438739	-0.002274926	0.02623455	
-0.02542859	0.1402027	0.04539852	-0.004281831	-0.002571984	0.02624528	0.06723645	-0.01470172	
0.05815594	0.008438739	-0.002571984	0.02624528	-0.03177509	0.03231199	-0.09272213	0.1135267	
-0.002274926	0.02623455	0.06723645	-0.01470172	-0.09272213	0.1135267	-0.009655284	0.004038893	

1.392e+10	0.04722311	0.01461167	0.05976701	0.1292173	0.06342565	0.01762884	0.01331703	0.02266297	
0.05976701	0.1292173	0.03474217	-0.01167381	0.01300901	0.02273985	0.05756195	-0.006321242	
0.06342565	0.01762884	0.01300901	0.02273985	-0.01830957	0.02802264	-0.01052258	0.1460113	
0.01331703	0.02266297	0.05756195	-0.006321242	-0.01052258	0.1460113	-0.01652867	-0.007577889	

1.394e+10	0.04754155	0.004029363	0.1230347	0.07119743	0.07243864	0.0232324	0.02398337	0.01075391	
0.1230347	0.07119743	0.02246484	-0.01012958	0.02365026	0.01103734	0.05399658	0.007165934	
0.07243864	0.0232324	0.02365026	0.01103734	-0.009512344	0.01765895	0.07516294	0.125201	
0.02398337	0.01075391	0.05399658	0.007165934	0.07516294	0.125201	-0.02840266	-0.01223799	

1.396e+10	0.04334575	-0.004385169	0.1412382	-0.01249685	0.08389804	0.02368066	0.02578856	-0.005156338	
0.1412382	-0.01249685	0.01499496	-0.001541617	0.02568238	-0.004588142	0.05976648	0.02119377	
0.08389804	0.02368066	0.02568238	-0.004588142	-0.007559294	0.004540286	0.1329937	0.05909027	
0.02578856	-0.005156338	0.05976648	0.02119377	0.1329937	0.05909027	-0.03992808	-0.0089323	

1.398e+10	0.03607616	-0.009813171	0.108073	-0.09107361	0.09483679	0.01716125	0.01802159	-0.01917829	
0.108073	-0.09107361	0.01477452	0.008643221	0.01840811	-0.01859995	0.07384193	0.02892495	
0.09483679	0.01716125	0.01840811	-0.01859995	-0.0129367	-0.007438933	0.1422994	-0.02775042	
0.01802159	-0.01917829	0.07384193	0.02892495	0.1422994	-0.02775042	-0.04688798	4.091749e-05	

1.4e+10	0.0265689	-0.01097913	0.0361704	-0.1361679	0.1002644	0.004379917	0.003548258	-0.02611303	
0.0361704	-0.1361679	0.01985688	0.0160861	0.004307084	-0.0259804	0.08992894	0.02592775	
0.1002644	0.004379917	0.004307084	-0.0259804	-0.02410169	-0.0143789	0.1004972	-0.1038573	
0.003548258	-0.02611303	0.08992894	0.02592775	0.1004972	-0.1038573	-0.04747444	0.01102145	

1.402e+10	0.01725052	-0.006093149	-0.04827833	-0.1319981	0.09643715	-0.009642366	-0.01232403	-0.02335483	
-0.04827833	-0.1319981	0.02725055	0.01963059	-0.01169331	-0.02383741	0.1003664	0.01379489	
0.09643715	-0.009642366	-0.01169331	-0.02383741	-0.03729774	-0.01359739	0.0230057	-0.1424037	
-0.01232403	-0.02335483	0.1003664	0.01379489	0.0230057	-0.1424037	-0.04187934	0.02043497	

1.404e+10	0.01258662	0.004398402	-0.1150663	-0.08036093	0.08460634	-0.01804846	-0.02366475	-0.01179881	
-0.1150663	-0.08036093	0.03535238	0.01950671	-0.02359331	-0.01256592	0.1012424	-0.001242113	
0.08460634	-0.01804846	-0.02359331	-0.01256592	-0.04755042	-0.005182424	-0.06257031	-0.1298955	
-0.02366475	-0.01179881	0.1012424	-0.001242113	-0.06257031	-0.1298955	-0.03183019	0.02521926	

1.406e+10	0.01594636	0.01603455	-0.1402199	0.000146838	0.07079292	-0.01710045	-0.02607842	0.00424714	
-0.1402199	0.000146838	0.04299473	0.01527339	-0.0265329	0.003724234	0.09397058	-0.01300339	
0.07079292	-0.01710045	-0.0265329	0.003724234	-0.05085785	0.007582608	-0.1257786	-0.07058363	
-0.02607842	0.00424714	0.09397058	-0.01300339	-0.1257786	-0.07058363	-0.02058455	0.0233568	

1.408e+10	0.02603578	0.02280785	-0.1146754	0.08053546	0.06139121	-0.008580884	-0.01863973	0.01860073	
-0.1146754	0.08053546	0.04750888	0.00675001	-0.01921572	0.01854345	0.08257215	-0.01856755	
0.06139121	-0.008580884	-0.01921572	0.01854345	-0.04629301	0.01961208	-0.1435716	0.01438096	
-0.01863973	0.01860073	0.08257215	-0.01856755	-0.1435716	0.01438096	-0.01256094	0.01507076	

1.41e+10	0.03745404	0.02186271	-0.04757821	0.1317206	0.05899191	0.002573064	-0.004323243	0.02586518	
-0.04757821	0.1317206	0.04567997	-0.003422427	-0.004695579	0.02609693	0.07045516	-0.01770626	
0.05899191	0.002573064	-0.004695579	0.02609693	-0.03625401	0.02677763	-0.1091952	0.09428805	
-0.004323243	0.02586518	0.07045516	-0.01770626	-0.1091952	0.09428805	-0.01140419	0.003692246	

1.412e+10	0.04515223	0.01529988	0.03677324	0.135022	0.0625399	0.01236735	0.01145915	0.02348329	
0.03677324	0.135022	0.03735094	-0.009909006	0.01127183	0.02375875	0.06019967	-0.01068743	
0.0625399	0.01236735	0.01127183	0.02375875	-0.02453324	0.02756454	-0.03505857	0.1397805	
0.01145915	0.02348329	0.06019967	-0.01068743	-0.03505857	0.1397805	-0.01758764	-0.005484677	

1.414e+10	0.04786263	0.00723256	0.1076016	0.0891424	0.07019255	0.01901302	0.02289424	0.01242176	
0.1076016	0.0891424	0.02709594	-0.008731387	0.02277208	0.01273471	0.05504777	0.001633299	
0.07019255	0.01901302	0.02277208	0.01273471	-0.01443154	0.02259202	0.05161062	0.1342192	
0.02289424	0.01242176	0.05504777	0.001633299	0.05161062	0.1342192	-0.02775783	-0.008253873	

1.416e+10	0.047067	-1.003513e-05	0.1389482	0.01096279	0.0806676	0.02116124	0.02574503	-0.003174412	
0.1389482	0.01096279	0.02109517	-0.001044237	0.02577536	-0.002724974	0.05839343	0.01574154	
0.0806676	0.02116124	0.02577536	-0.002724974	-0.008252081	0.01347145	0.1190101	0.07992926	
0.02574503	-0.003174412	0.05839343	0.01574154	0.1190101	0.07992926	-0.03675723	-0.003960661	

1.418e+10	0.04373581	-0.006192289	0.1196359	-0.07063136	0.09169128	0.01698404	0.01904073	-0.01742135	
0.1196359	-0.07063136	0.02209259	0.007844665	0.01943297	-0.01697816	0.07047744	0.02534149	
0.09169128	0.01698404	0.01943297	-0.01697816	-0.007584316	0.002505336	0.1428322	-0.00281883	
0.01904073	-0.01742135	0.07047744	0.02534149	0.1428322	-0.00281883	-0.04074663	0.004613679	

1.42e+10	0.03746973	-0.01055132	0.05730741	-0.1260877	0.09883121	0.006208062	0.005449318	-0.02510438	
0.05730741	-0.1260877	0.02794277	0.01322878	0.006160718	-0.02504233	0.086333	0.02516541	
0.09883121	0.006208062	0.006160718	-0.02504233	-0.01292875	-0.007172424	0.1151076	-0.08386714	
0.005449318	-0.02510438	0.086333	0.02516541	0.1151076	-0.08386714	-0.03877892	0.01348907	

1.422e+10	0.02891037	-0.0106656	-0.02523238	-0.135877	0.09772254	-0.007435448	-0.01000208	-0.02359778	
-0.02523238	-0.135877	0.03478675	0.01411412	-0.009402758	-0.02411683	0.09838482	0.01521267	
0.09772254	-0.007435448	-0.009402758	-0.02411683	-0.02283011	-0.01220551	0.04631379	-0.1343831	
-0.01000208	-0.02359778	0.09838482	0.01521267	0.04631379	-0.1343831	-0.03216597	0.01948041	

1.424e+10	0.02153026	-0.004855608	-0.09843044	-0.09679489	0.08805153	-0.01734685	-0.02178982	-0.01349447	
-0.09843044	-0.09679489	0.04051926	0.01193699	-0.02175695	-0.01431884	0.1016169	0.0007971557	
0.08805153	-0.01734685	-0.02175695	-0.01431884	-0.03381923	-0.0105983	-0.03889206	-0.1366221	
-0.02178982	-0.01349447	0.1016169	0.0007971557	-0.03889206	-0.1366221	-0.02329552	0.02073368	

1.426e+10	0.01969669	0.004870789	-0.1361015	-0.02275117	0.07472959	-0.01863495	-0.02560624	0.001628956	
-0.1361015	-0.02275117	0.0448057	0.007631658	-0.02616853	0.001060186	0.09628333	-0.01162019	
0.07472959	-0.01863495	-0.02616853	0.001060186	-0.04176285	-0.002993598	-0.1102371	-0.08965121	
-0.02560624	0.001628956	0.09628333	-0.01162019	-0.1102371	-0.08965121	-0.01508951	0.01662391	

1.428e+10	0.02468913	0.01340176	-0.1244584	0.05952368	0.06451258	-0.01168903	-0.01991596	0.01619103	
-0.1244584	0.05952368	0.0467401	0.00121928	-0.02063755	0.01619936	0.0861816	-0.01839551	
0.06451258	-0.01168903	-0.02063755	0.01619936	-0.04392952	0.007540579	-0.1417716	-0.0100877	
-0.01991596	0.01619103	0.0861816	-0.01839551	-0.1417716	-0.0100877	-0.01076164	0.008207083	

1.43e+10	0.03333781	0.01668051	-0.06756978	0.1202112	0.06109207	-0.001155535	-0.006805534	0.02474107	
-0.06756978	0.1202112	0.04431175	-0.005946695	-0.007231543	0.0251531	0.07492748	-0.01914613	
0.06109207	-0.001155535	-0.007231543	0.0251531	-0.04018557	0.0172817	-0.1217566	0.07324552	
-0.006805534	0.02474107	0.07492748	-0.01914613	-0.1217566	0.07324552	-0.01266524	-0.00133117	

1.432e+10	0.04116117	0.01474351	0.01388765	0.1370783	0.06389249	0.00832835	0.008842375	0.02406916	
0.01388765	0.1370783	0.03708234	-0.01004587	0.00877551	0.0245104	0.06481609	-0.01436107	
0.06389249	0.00832835	0.00877551	0.0245104	-0.03223018	0.02364945	-0.05736583	0.1298202	
0.008842375	0.02406916	0.06481609	-0.01436107	-0.05736583	0.1298202	-0.02047496	-0.007452277	

1.434e+10	0.04621624	0.01029499	0.09012491	0.103911	0.07063593	0.01460486	0.02117053	0.01438802	
0.09012491	0.103911	0.02858987	-0.007585274	0.02125437	0.01470954	0.05830162	-0.004473578	
0.07063593	0.01460486	0.02125437	0.01470954	-0.02222225	0.02542006	0.02773973	0.1388869	
0.02117053	0.01438802	0.05830162	-0.004473578	0.02773973	0.1388869	-0.03055005	-0.006778377	

1.436e+10	0.04917972	0.005046838	0.1331657	0.03298478	0.07969593	0.01685123	0.02547664	-0.0006528463	
0.1331657	0.03298478	0.02448429	0.0006143752	0.02562965	-0.0003470982	0.05861943	0.008363136	
0.07969593	0.01685123	0.02562965	-0.0003470982	-0.01233611	0.02209098	0.1022586	0.09738296	
0.02547664	-0.0006528463	0.05861943	0.008363136	0.1022586	0.09738296	-0.03767785	0.0005590032	

1.438e+10	0.05034246	-0.001290656	0.1274939	-0.04940043	0.08938341	0.01386907	0.02019218	-0.01523525	
0.1274939	-0.04940043	0.02761562	0.009310856	0.02055034	-0.01494495	0.06725416	0.01903862	
0.08938341	0.01386907	0.02055034	-0.01494495	-0.005183606	0.01393085	0.1391774	0.0209142	
0.02019218	-0.01523525	0.06725416	0.01903862	0.1391774	0.0209142	-0.03829159	0.01086431	

1.44e+10	0.0481167	-0.008461328	0.07580208	-0.1132532	0.09630409	0.005080456	0.00759713	-0.02389853	
0.07580208	-0.1132532	0.03561314	0.01328971	0.008200267	-0.02388028	0.08111618	0.02202054	
0.09630409	0.005080456	0.008200267	-0.02388028	-0.003421278	0.002831333	0.1256215	-0.06247661	
0.00759713	-0.02389853	0.08111618	0.02202054	0.1256215	-0.06247661	-0.03234256	0.01929534	

1.442e+10	0.04132117	-0.01363287	-0.00281907	-0.1359408	0.09637567	-0.006978631	-0.007487337	-0.02376126	
-0.00281907	-0.1359408	0.04358005	0.01140619	-0.006943111	-0.02424545	0.09360747	0.01568215	
0.09637567	-0.006978631	-0.006943111	-0.02424545	-0.008257228	-0.007574313	0.06694507	-0.122934	
-0.007487337	-0.02376126	0.09360747	0.01568215	0.06694507	-0.122934	-0.02259398	0.02257034	

1.444e+10	0.03212076	-0.01318351	-0.08019693	-0.1096153	0.0884481	-0.01653823	-0.01972354	-0.01511801	
-0.08019693	-0.1096153	0.0484017	0.006095419	-0.01969512	-0.01592036	0.09920663	0.003737266	
0.0884481	-0.01653823	-0.01969512	-0.01592036	-0.01822116	-0.01333588	-0.01560275	-0.1389266	
-0.01972354	-0.01511801	0.09920663	0.003737266	-0.01560275	-0.1389266	-0.01270641	0.01975432	

1.446e+10	0.02542411	-0.006520708	-0.1285381	-0.04365784	0.07641035	-0.01844891	-0.02486225	-0.001015957	
-0.1285381	-0.04365784	0.04994198	-4.783453e-05	-0.02544198	-0.001596215	0.09697411	-0.007920073	
0.07641035	-0.01844891	-0.02544198	-0.001596215	-0.02959501	-0.01228892	-0.09244012	-0.1047421	
-0.02486225	-0.001015957	0.09697411	-0.007920073	-0.09244012	-0.1047421	-0.005978514	0.01182006	

1.448e+10	0.02487859	0.002684449	-0.1301835	0.03819167	0.06679703	-0.01227763	-0.02093252	0.01359893	
-0.1301835	0.03819167	0.04880112	-0.006133087	-0.02170665	0.01361656	0.08982009	-0.01544892	
0.06679703	-0.01227763	-0.02170665	0.01361656	-0.0382375	-0.005061222	-0.1357348	-0.03253693	
-0.02093252	0.01359893	0.08982009	-0.01544892	-0.1357348	-0.03253693	-0.00487844	0.001189235	

1.45e+10	0.02983775	0.009616056	-0.08434451	0.1060356	0.06385047	-0.002411595	-0.00914799	0.02330699	
-0.08434451	0.1060356	0.04447628	-0.01143198	-0.009603759	0.02378209	0.08100998	-0.01824896	
0.06385047	-0.002411595	-0.009603759	0.02378209	-0.04151325	0.005598057	-0.129492	0.05142643	
-0.00914799	0.02330699	0.08100998	-0.01824896	-0.129492	0.05142643	-0.01044722	-0.008432856	

1.452e+10	0.03682604	0.01232253	-0.007803281	0.1349646	0.06710325	0.006067435	0.00622165	0.02427746	
-0.007803281	0.1349646	0.03682776	-0.0134734	0.006186832	0.02476798	0.07225217	-0.01681493	
0.06710325	0.006067435	0.006186832	0.02476798	-0.03882137	0.01647869	-0.07601596	0.1162531	
0.00622165	0.02427746	0.07225217	-0.01681493	-0.07601596	0.1162531	-0.0212	-0.01284929	

1.454e+10	0.04344722	0.01197388	0.07107155	0.1144125	0.07363995	0.01093225	0.01922101	0.01589987	
0.07107155	0.1144125	0.02870907	-0.009467944	0.01932895	0.01622179	0.06497054	-0.01104692	
0.07363995	0.01093225	0.01932895	0.01622179	-0.03081586	0.02494529	0.004678431	0.1381908	
0.01922101	0.01589987	0.06497054	-0.01104692	0.004678431	0.1381908	-0.03282764	-0.009425578	

1.456e+10	0.0498294	0.009617278	0.1233277	0.05248164	0.08145177	0.01217043	0.02453884	0.001538092	
0.1233277	0.05248164	0.02515096	4.648227e-05	0.02466791	0.001874144	0.0616356	-0.001506234	
0.08145177	0.01217043	0.02466791	0.001874144	-0.01881434	0.0286639	0.08270303	0.1098224	
0.02453884	0.001538092	0.0616356	-0.001506234	0.08270303	0.1098224	-0.04008446	0.000874646	

1.458e+10	0.05591392	0.003974512	0.1304903	-0.02756523	0.0896372	0.009090789	0.02041973	-0.01268496	
0.1304903	-0.02756523	0.02941643	0.01030437	0.02083102	-0.01230324	0.06469745	0.008953115	
0.0896372	0.009090789	0.02083102	-0.01230324	-0.005348004	0.02522532	0.1299878	0.04256693	
0.02041973	-0.01268496	0.06469745	0.008953115	0.1299878	0.04256693	-0.03961657	0.0140134	

1.46e+10	0.05842931	-0.005805346	0.0909291	-0.09695166	0.09535724	0.0007255646	0.009367909	-0.02162621	
0.0909291	-0.09695166	0.03991858	0.01530492	0.01012913	-0.02159883	0.07414691	0.01554548	
0.09535724	0.0007255646	0.01012913	-0.02159883	0.004496469	0.01387248	0.1306511	-0.03918229	
0.009367909	-0.02162621	0.07414691	0.01554548	0.1306511	-0.03918229	-0.0310359	0.02483777	

1.462e+10	0.05373882	-0.01624313	0.01904147	-0.1313267	0.09468587	-0.01052468	-0.004430258	-0.02285559	
0.01904147	-0.1313267	0.05092397	0.01239604	-0.003746465	-0.02348707	0.08585905	0.01460275	
0.09468587	-0.01052468	-0.003746465	-0.02348707	0.005662172	-0.0016611	0.08469224	-0.1067172	
-0.004430258	-0.02285559	0.08585905	0.01460275	0.08469224	-0.1067172	-0.01736668	0.0286645	

1.464e+10	0.04282687	-0.02144049	-0.05960217	-0.1185057	0.08642164	-0.01917346	-0.01646849	-0.0163254	
-0.05960217	-0.1185057	0.05753781	0.003990136	-0.01644904	-0.01737614	0.09411643	0.006967797	
0.08642164	-0.01917346	-0.01644904	-0.01737614	-0.002741462	-0.01495175	0.008330808	-0.135935	
-0.01646849	-0.0163254	0.09411643	0.006967797	0.008330808	-0.135935	-0.003780111	0.02382093	

1.466e+10	0.03119354	-0.01803719	-0.1168261	-0.06285177	0.07416662	-0.02009225	-0.02287661	-0.004178011	
-0.1168261	-0.06285177	0.05847172	-0.005721663	-0.02368087	-0.004951506	0.09609996	-0.003038867	
0.07416662	-0.02009225	-0.02368087	-0.004951506	-0.01717739	-0.02058039	-0.07112836	-0.1161164	
-0.02287661	-0.004178011	0.09609996	-0.003038867	-0.07112836	-0.1161164	0.004905296	0.01203146	

1.468e+10	0.02487868	-0.008028404	-0.1316888	0.01577287	0.06461923	-0.01251507	-0.021352	0.009658748	
-0.1316888	0.01577287	0.05473203	-0.01403142	-0.02245957	0.009728432	0.09285778	-0.01145777	
0.06461923	-0.01251507	-0.02245957	0.009728432	-0.0319898	-0.01665993	-0.1248784	-0.05409145	
-0.021352	0.009658748	0.09285778	-0.01145777	-0.1248784	-0.05409145	0.00544219	-0.002829283	

1.47e+10	0.02623627	0.00307625	-0.09843696	0.08863304	0.06280327	-0.001047246	-0.01206068	0.02036105	
-0.09843696	0.08863304	0.0472976	-0.0195768	-0.01272273	0.02114909	0.08670144	-0.01689389	
0.06280327	-0.001047246	-0.01272273	0.02114909	-0.04179673	-0.005035757	-0.1330664	0.02750829	
-0.01206068	0.02036105	0.08670144	-0.01689389	-0.1330664	0.02750829	-0.002859301	-0.01565604	

1.472e+10	0.03316738	0.01070127	-0.02941479	0.128845	0.06844452	0.007987343	0.00194647	0.02380255	
-0.02941479	0.128845	0.03709931	-0.02036854	0.002001609	0.02468899	0.07876849	-0.01913762	
0.06844452	0.007987343	0.002001609	0.02468899	-0.04350848	0.01012474	-0.09283524	0.09875581	
0.00194647	0.02380255	0.07876849	-0.01913762	-0.09283524	0.09875581	-0.01768959	-0.02142107	

1.474e+10	0.0422603	0.013666	0.0499345	0.1219529	0.0774003	0.01130818	0.01553156	0.01835311	
0.0499345	0.1219529	0.02727235	-0.01415295	0.01602125	0.01889762	0.07000198	-0.01706076	
0.0774003	0.01130818	0.01602125	0.01889762	-0.03664673	0.02409988	-0.01919316	0.1337701	
0.01553156	0.01835311	0.07000198	-0.01706076	-0.01919316	0.1337701	-0.03378542	-0.01694799	

1.476e+10	0.05175766	0.01248421	0.1106371	0.07083433	0.0858855	0.009414942	0.02338888	0.005840176	
0.1106371	0.07083433	0.02320994	-0.001712129	0.02396709	0.006009445	0.06323567	-0.00967156	
0.0858855	0.009414942	0.02396709	0.006009445	-0.02281395	0.0325696	0.06089296	0.1201617	
0.02338888	0.005840176	0.06323567	-0.00967156	0.06089296	0.1201617	-0.04437519	-0.002962955	

1.478e+10	0.06056755	0.006663502	0.1307701	-0.005601616	0.09218133	0.003735743	0.0223103	-0.008913546	
0.1307701	-0.005601616	0.02868964	0.01151165	0.02285377	-0.008983453	0.06233042	0.001148487	
0.09218133	0.003735743	0.02285377	-0.008983453	-0.005813762	0.03208656	0.1184619	0.06322887	
0.0223103	-0.008913546	0.06233042	0.001148487	0.1184619	0.06322887	-0.04432108	0.01530425	

1.48e+10	0.06568342	-0.004175382	0.1035162	-0.07933325	0.09501199	-0.004796807	0.01283582	-0.02003844	
0.1035162	-0.07933325	0.04204487	0.01838556	0.01336557	-0.02034559	0.06876599	0.01042689	
0.09501199	-0.004796807	0.01336557	-0.02034559	0.008544552	0.0217584	0.1329014	-0.01607506	
0.01283582	-0.02003844	0.06876599	0.01042689	0.1329014	-0.01607506	-0.03305522	0.03027891	

1.482e+10	0.06328495	-0.01720126	0.03926348	-0.1239919	0.09249664	-0.014453	-0.001030996	-0.02349139	
0.03926348	-0.1239919	0.05674717	0.01532856	-0.0006637825	-0.02417189	0.07954281	0.01346237	
0.09249664	-0.014453	-0.0006637825	-0.02417189	0.01452424	0.00464198	0.09944082	-0.08911669	
-0.001030996	-0.02349139	0.07954281	0.01346237	0.09944082	-0.08911669	-0.01498129	0.03588428	

1.484e+10	0.05268359	-0.02637968	-0.03883942	-0.1239367	0.08384506	-0.02137184	-0.01410638	-0.01855083	
-0.03883942	-0.1239367	0.06620717	0.004559758	-0.01429432	-0.01949499	0.08932549	0.009431206	
0.08384506	-0.02137184	-0.01429432	-0.01949499	0.009317843	-0.01290953	0.030344	-0.1297695	
-0.01410638	-0.01855083	0.08932549	0.009431206	0.030344	-0.1297695	0.003017676	0.03019056	

1.486e+10	0.03843656	-0.02651164	-0.1029182	-0.07914332	0.07186472	-0.0211523	-0.02209317	-0.007280961	
-0.1029182	-0.07914332	0.06783342	-0.008604719	-0.02301996	-0.007912928	0.09444864	0.001329785	
0.07186472	-0.0211523	-0.02301996	-0.007912928	-0.005232294	-0.02395729	-0.04950044	-0.1235098	
-0.02209317	-0.007280961	0.09444864	0.001329785	-0.04950044	-0.1235098	0.01468695	0.01550118	

1.488e+10	0.02773346	-0.01748836	-0.1296604	-0.005570405	0.06262717	-0.01269043	-0.0224468	0.006589427	
-0.1296604	-0.005570405	0.06277401	-0.01980461	-0.02364842	0.006848127	0.09463858	-0.007212261	
0.06262717	-0.01269043	-0.02364842	0.006848127	-0.02337438	-0.02423026	-0.1112868	-0.0725193	
-0.0224468	0.006589427	0.09463858	-0.007212261	-0.1112868	-0.0725193	0.01623077	-0.003152003	

1.49e+10	0.02528227	-0.004321805	-0.109085	0.07003135	0.06143383	-0.0001443107	-0.01481596	0.01843393	
-0.109085	0.07003135	0.05311946	-0.02686167	-0.01545233	0.01952398	0.09128347	-0.01439811	
0.06143383	-0.0001443107	-0.01545233	0.01952398	-0.0380986	-0.01389689	-0.1324509	0.004578997	
-0.01481596	0.01843393	0.09128347	-0.01439811	-0.1324509	0.004578997	0.007042214	-0.01960666	

1.492e+10	0.03076711	0.00705226	-0.048678	0.1198195	0.06858786	0.009803882	-0.001491523	0.02391353	
-0.048678	0.1198195	0.04065287	-0.02808015	-0.00112666	0.0250717	0.08499779	-0.01957173	
0.06858786	0.009803882	-0.00112666	0.0250717	-0.04422991	0.002992028	-0.1054623	0.0796159	
-0.001491523	0.02391353	0.08499779	-0.01957173	-0.1054623	0.0796159	-0.0102151	-0.02811156	

1.494e+10	0.04093596	0.01345985	0.02913647	0.1255638	0.0797355	0.01286692	0.01286753	0.0205628	
0.02913647	0.1255638	0.02848506	-0.02152121	0.01384734	0.02103173	0.07610481	-0.02112004	
0.0797355	0.01286692	0.01384734	0.02103173	-0.03980698	0.02063398	-0.04049766	0.1253084	
0.01286753	0.0205628	0.07610481	-0.02112004	-0.04049766	0.1253084	-0.02983557	-0.02493756	

1.496e+10	0.05293132	0.01421558	0.09569527	0.08554943	0.08985765	0.009166704	0.02266661	0.009166648	
0.09569527	0.08554943	0.02208574	-0.007479909	0.02351361	0.008872861	0.06694251	-0.01685579	
0.08985765	0.009166704	0.02351361	0.008872861	-0.02604731	0.0332313	0.03860511	0.1254022	
0.02266661	0.009166648	0.06694251	-0.01685579	0.03860511	0.1254022	-0.04436031	-0.01024954	

1.498e+10	0.06457224	0.008821302	0.1268792	0.01489029	0.09618859	0.001110681	0.02372352	-0.005961137	
0.1268792	0.01489029	0.02632621	0.008894032	0.02408273	-0.006536364	0.06202123	-0.007035506	
0.09618859	0.001110681	0.02408273	-0.006536364	-0.006976865	0.03623035	0.1031971	0.08027023	
0.02372352	-0.005961137	0.06202123	-0.007035506	0.1031971	0.08027023	-0.04742162	0.01094814	

1.5e+10	0.07245107	-0.002922854	0.1119323	-0.06029707	0.09774385	-0.009061744	0.01556578	-0.01860921	
0.1119323	-0.06029707	0.04077307	0.01942068	0.01561541	-0.01910277	0.06470506	0.004071011	
0.09774385	-0.009061744	0.01561541	-0.01910277	0.01106641	0.02773255	0.1301318	0.006619288	
0.01556578	-0.01860921	0.06470506	0.004071011	0.1301318	0.006619288	-0.03706192	0.03030244	

1.502e+10	0.07219778	-0.01838151	0.05701089	-0.1130928	0.09367594	-0.01926299	0.001813777	-0.02386618	
0.05701089	-0.1130928	0.05885003	0.01861521	0.001757064	-0.02433365	0.0738685	0.01081496	
0.09367594	-0.01926299	0.001757064	-0.02433365	0.0212194	0.01001949	0.1101279	-0.0689091	
0.001813777	-0.02386618	0.0738685	0.01081496	0.1101279	-0.0689091	-0.01715667	0.0400488	

1.504e+10	0.06197514	-0.03119872	-0.01795416	-0.1250881	0.08376489	-0.02615402	-0.01205599	-0.02031267	
-0.01795416	-0.1250881	0.07237246	0.007411822	-0.0123656	-0.0208592	0.08473438	0.01038996	
0.08376489	-0.02615402	-0.0123656	-0.0208592	0.01908334	-0.01050981	0.05067831	-0.1192806	
-0.01205599	-0.02031267	0.08473438	0.01038996	0.05067831	-0.1192806	0.004652155	0.03666605	

1.506e+10	0.04552982	-0.03466936	-0.0863574	-0.09212226	0.07054958	-0.02572676	-0.02131317	-0.009784942	
-0.0863574	-0.09212226	0.076754	-0.008497992	-0.02208989	-0.01011354	0.09264706	0.004195412	
0.07054958	-0.02572676	-0.02208989	-0.01011354	0.005189149	-0.02575851	-0.02678295	-0.1265468	
-0.02131317	-0.009784942	0.09264706	0.004195412	-0.02678295	-0.1265468	0.02062081	0.02181428	

1.508e+10	0.03082827	-0.02675613	-0.1235474	-0.02578788	0.05985664	-0.01649176	-0.02312924	0.004049178	
-0.1235474	-0.02578788	0.0722253	-0.02320013	-0.02409455	0.004422178	0.0957831	-0.004462566	
0.05985664	-0.01649176	-0.02409455	0.004422178	-0.01491987	-0.02965197	-0.09440971	-0.08806929	
-0.02312924	0.004049178	0.0957831	-0.004462566	-0.09440971	-0.08806929	0.02561811	0.0008436186	

1.51e+10	0.02473053	-0.01176409	-0.1157271	0.04998368	0.05757236	-0.002082105	-0.01683464	0.01665345	
-0.1157271	0.04998368	0.06130196	-0.0331182	-0.01725724	0.01773981	0.0945279	-0.01312692	
0.05757236	-0.002082105	-0.01725724	0.01773981	-0.03318605	-0.02092265	-0.1275528	-0.01788097	
-0.01683464	0.01665345	0.0945279	-0.01312692	-0.1275528	-0.01788097	0.0182105	-0.01928334	

1.512e+10	0.02879928	0.003121941	-0.06563976	0.1072824	0.06505689	0.01040051	-0.00424543	0.02359511	
-0.06563976	0.1072824	0.0466409	-0.03612366	-0.003680104	0.02468013	0.08927545	-0.02044681	
0.06505689	0.01040051	-0.003680104	0.02468013	-0.04282982	-0.003303095	-0.114353	0.0584167	
-0.00424543	0.02359511	0.08927545	-0.02044681	-0.114353	0.0584167	0.0006745243	-0.03190887	

1.514e+10	0.03995153	0.01270484	0.0080922	0.1250685	0.07821554	0.01533677	0.01039414	0.0219493	
0.0080922	0.1250685	0.03170419	-0.03030459	0.011554	0.02222628	0.08021668	-0.02442217	
0.07821554	0.01533677	0.011554	0.02222628	-0.04069984	0.01670052	-0.05991577	0.1130657	
0.01039414	0.0219493	0.08021668	-0.02442217	-0.05991577	0.1130657	-0.02137995	-0.03228933	

1.516e+10	0.05416801	0.01520656	0.07824532	0.09719938	0.09104101	0.01182691	0.02150888	0.01178943	
0.07824532	0.09719938	0.02216225	-0.01554759	0.02238896	0.01116175	0.06944655	-0.02224071	
0.09104101	0.01182691	0.02238896	0.01116175	-0.02756969	0.0323142	0.0156819	0.1265319	
0.02150888	0.01178943	0.06944655	-0.02224071	0.0156819	0.1265319	-0.04009994	-0.01941098	

1.518e+10	0.06823436	0.01024372	0.1192735	0.03438144	0.09947397	0.002444641	0.02438878	-0.003209111	
0.1192735	0.03438144	0.02383974	0.00350483	0.02450116	-0.004100968	0.06176263	-0.01310665	
0.09947397	0.002444641	0.02450116	-0.004100968	-0.007504265	0.03814383	0.08509376	0.09434381	
0.02438878	-0.003209111	0.06176263	-0.01310665	0.08509376	0.09434381	-0.04789584	0.002719723	

1.52e+10	0.07847947	-0.002079044	0.1168059	-0.04004625	0.1020023	-0.009673315	0.01767438	-0.01689	
0.1168059	-0.04004625	0.03786814	0.01813362	0.01727683	-0.01742765	0.06182286	-0.0006230753	
0.1020023	-0.009673315	0.01727683	-0.01742765	0.01292321	0.03154767	0.1233595	0.02850474	
0.01767438	-0.01689	0.06182286	-0.0006230753	0.1233595	0.02850474	-0.04096089	0.02569472	

1.522e+10	0.08030406	-0.01932674	0.07254081	-0.09924523	0.0980503	-0.02182522	0.004366569	-0.0237123	
0.07254081	-0.09924523	0.05835342	0.02092573	0.003957341	-0.02386816	0.07002853	0.008909375	
0.0980503	-0.02182522	0.003957341	-0.02386816	0.02622254	0.01409578	0.1171134	-0.04710064	
0.004366569	-0.0237123	0.07002853	0.008909375	0.1171134	-0.04710064	-0.02170223	0.04040672	

1.524e+10	0.07096494	-0.03521958	0.002753433	-0.1225591	0.08758611	-0.03068595	-0.009985319	-0.02152136	
0.002753433	-0.1225591	0.07601518	0.0109373	-0.01030385	-0.02160248	0.08208637	0.01102164	
0.08758611	-0.03068595	-0.01030385	-0.02160248	0.02688312	-0.008107279	0.06891233	-0.1054014	
-0.009985319	-0.02152136	0.08208637	0.01102164	0.06891233	-0.1054014	0.002408501	0.04136895	

1.526e+10	0.0531756	-0.04206342	-0.06784506	-0.1019605	0.07280392	-0.03217564	-0.02024332	-0.01181503	
-0.06784506	-0.1019605	0.08417464	-0.006548713	-0.02071109	-0.01184696	0.09239106	0.005720643	
0.07280392	-0.03217564	-0.02071109	-0.01184696	0.01422874	-0.02642012	-0.003856541	-0.1256508	
-0.02024332	-0.01181503	0.09239106	0.005720643	-0.003856541	-0.1256508	0.02256575	0.02876365	

1.528e+10	0.0350083	-0.03596464	-0.1140374	-0.04457601	0.05921569	-0.02395355	-0.02328504	0.00176716	
-0.1140374	-0.04457601	0.0815255	-0.02444331	-0.02387735	0.002139398	0.09756992	-0.003802833	
0.05921569	-0.02395355	-0.02387735	0.002139398	-0.006775239	-0.03345076	-0.07509572	-0.1005654	
-0.02328504	0.00176716	0.09756992	-0.003802833	-0.07509572	-0.1005654	0.03216591	0.007452699	

1.53e+10	0.02506208	-0.0199982	-0.118853	0.02912711	0.0534879	-0.008499501	-0.01822644	0.01477529	
-0.118853	0.02912711	0.07046692	-0.03761951	-0.01841902	0.01567027	0.09712207	-0.01414002	
0.0534879	-0.008499501	-0.01841902	0.01567027	-0.02756303	-0.02655231	-0.1189757	-0.03920927	
-0.01822644	0.01477529	0.09712207	-0.01414002	-0.1189757	-0.03920927	0.02845071	-0.01531528	

1.532e+10	0.02700338	-0.001968079	-0.08020195	0.09213181	0.05872613	0.007233969	-0.006506414	0.02279564	
-0.08020195	0.09213181	0.05432388	-0.04316474	-0.005863336	0.02365723	0.09159888	-0.02294517	
0.05872613	0.007233969	-0.005863336	0.02365723	-0.04009348	-0.008851809	-0.1196329	0.03609653	
-0.006506414	0.02279564	0.09159888	-0.02294517	-0.1196329	0.03609653	0.01273639	-0.03213075	

1.534e+10	0.03850411	0.01101252	-0.01243999	0.1211027	0.07213981	0.0162164	0.008022541	0.02261731	
-0.01243999	0.1211027	0.03699164	-0.03900832	0.00918585	0.02266854	0.08168964	-0.0279288	
0.07213981	0.0162164	0.00918585	0.02266854	-0.04004832	0.01272716	-0.07701186	0.09789978	
0.008022541	0.02261731	0.08168964	-0.0279288	-0.07701186	0.09789978	-0.009979595	-0.0371665	

1.536e+10	0.05467466	0.01570663	0.05928308	0.1056887	0.08751224	0.01570337	0.0199672	0.0137472	
0.05928308	0.1056887	0.02425615	-0.02464019	0.02073871	0.01286506	0.06965655	-0.02626546	
0.08751224	0.01570337	0.02073871	0.01286506	-0.02774871	0.0305811	-0.006922634	0.1239368	
0.0199672	0.0137472	0.06965655	-0.02626546	-0.006922634	0.1239368	-0.03191071	-0.02797509	

1.538e+10	0.0711497	0.01156197	0.1086645	0.05207961	0.09951541	0.007343579	0.02431978	-0.000738788	
0.1086645	0.05207961	0.02268208	-0.003970651	0.02412364	-0.001817338	0.0604302	-0.0168224	
0.09951541	0.007343579	0.02412364	-0.001817338	-0.007263086	0.03866067	0.06515028	0.1051176	
0.02431978	-0.000738788	0.0604302	-0.0168224	0.06515028	0.1051176	-0.04460917	-0.007121276	

1.54e+10	0.08380822	-0.000984389	0.1181602	-0.01957062	0.1054509	-0.005609316	0.01903101	-0.01493241	
0.1181602	-0.01957062	0.03496256	0.01423664	0.01819265	-0.01538215	0.05934289	-0.002885533	
0.1054509	-0.005609316	0.01819265	-0.01538215	0.01467584	0.03380696	0.1131914	0.04869171	
0.01903101	-0.01493241	0.05934289	-0.002885533	0.1131914	0.04869171	-0.0424741	0.01770636	

1.542e+10	0.08793829	-0.01959047	0.08524471	-0.08318973	0.1041585	-0.02004645	0.006465325	-0.02292891	
0.08524471	-0.08318973	0.05641328	0.02105391	0.00577296	-0.02264987	0.06775069	0.008723537	
0.1041585	-0.02004645	0.00577296	-0.02264987	0.03030017	0.01705237	0.1202811	-0.02474485	
0.006465325	-0.02292891	0.06775069	0.008723537	0.1202811	-0.02474485	-0.02601592	0.03668927	

1.544e+10	0.08008419	-0.03824797	0.02235265	-0.1165356	0.09514927	-0.0324174	-0.007929475	-0.02195281	
0.02235265	-0.1165356	0.07735431	0.01349131	-0.008110757	-0.02148718	0.08158938	0.01225083	
0.09514927	-0.0324174	-0.008110757	-0.02148718	0.03340787	-0.005946638	0.08428108	-0.0888572	
-0.007929475	-0.02195281	0.08158938	0.01225083	0.08428108	-0.0888572	-0.001736003	0.04261065	

1.546e+10	0.06179996	-0.04867021	-0.0481672	-0.1082361	0.07976854	-0.03819643	-0.01874085	-0.01318106	
-0.0481672	-0.1082361	0.0893178	-0.004168063	-0.01868405	-0.01293745	0.09421686	0.006617864	
0.07976854	-0.03819643	-0.01868405	-0.01293745	0.02227663	-0.02646559	0.01821864	-0.1208646	
-0.01874085	-0.01318106	0.09421686	0.006617864	0.01821864	-0.1208646	0.02120969	0.0338702	

1.548e+10	0.04069383	-0.04525699	-0.1014675	-0.06111255	0.06293009	-0.03365661	-0.0226591	-0.0002016981	
-0.1014675	-0.06111255	0.08927291	-0.02421978	-0.02270098	-3.169657e-05	0.1007846	-0.004824634	
0.06293009	-0.03365661	-0.02270098	-3.169657e-05	0.001157565	-0.03619049	-0.05416209	-0.1093963	
-0.0226591	-0.0002016981	0.1007846	-0.004824634	-0.05416209	-0.1093963	0.03506333	0.01427554	

1.55e+10	0.02660537	-0.02935811	-0.11816	0.008283277	0.05187936	-0.01932572	-0.01873598	0.01267568	
-0.11816	0.008283277	0.07910047	-0.04012822	-0.01873993	0.01305857	0.09994288	-0.01736357	
0.05187936	-0.01932572	-0.01873993	0.01305857	-0.02136652	-0.03127522	-0.1069606	-0.05853498	
-0.01873598	0.01267568	0.09994288	-0.01736357	-0.1069606	-0.05853498	0.03575916	-0.009205344	

1.552e+10	0.02547201	-0.00870066	-0.09169956	0.07470842	0.05192179	-0.001126047	-0.00817021	0.02123979	
-0.09169956	0.07470842	0.06259519	-0.0481352	-0.007733449	0.02168212	0.09277968	-0.02738926	
0.05192179	-0.001126047	-0.007733449	0.02168212	-0.03633841	-0.01405827	-0.1210025	0.01338017	
-0.00817021	0.02123979	0.09277968	-0.02738926	-0.1210025	0.01338017	0.02348533	-0.02885957	

1.554e+10	0.03640546	0.007990272	-0.03179934	0.1135099	0.06269028	0.013059	0.005688074	0.0222422	
-0.03179934	0.1135099	0.04405532	-0.04605457	0.006496979	0.02216336	0.08111234	-0.03227852	
0.06269028	0.013059	0.006496979	0.02216336	-0.0383781	0.008536335	-0.09115704	0.08025271	
0.005688074	0.0222422	0.08111234	-0.03227852	-0.09115704	0.08025271	0.002284811	-0.03819873	

1.556e+10	0.05422105	0.01554354	0.03916972	0.1105138	0.07900765	0.01815178	0.01773814	0.01477572	
0.03916972	0.1105138	0.02920069	-0.03324196	0.01823095	0.01397495	0.06791818	-0.02974475	
0.07900765	0.01815178	0.01823095	0.01397495	-0.0270985	0.02820874	-0.02852555	0.117641	
0.01773814	0.01477572	0.06791818	-0.02974475	-0.02852555	0.117641	-0.02063552	-0.0336214	

1.558e+10	0.0731619	0.01263554	0.09490475	0.06755005	0.09474251	0.01369362	0.02301209	0.001470138	
0.09490475	0.06755005	0.02455482	-0.01297478	0.02264038	0.0005476254	0.05807384	-0.01922408	
0.09474251	0.01369362	0.02264038	0.0005476254	-0.006551459	0.03819114	0.04388093	0.1123228	
0.02301209	0.001470138	0.05807384	-0.01922408	0.04388093	0.1123228	-0.0367919	-0.01626553	

1.56e+10	0.08821893	0.0001147178	0.1157257	0.0009971973	0.1056594	0.002084294	0.01923639	-0.01229698	
0.1157257	0.0009971973	0.03362612	0.006950783	0.01829723	-0.01253119	0.05669381	-0.003917587	
0.1056594	0.002084294	0.01829723	-0.01253119	0.0163329	0.03494001	0.09989609	0.06672322	
0.01923639	-0.01229698	0.05669381	-0.003917587	0.09989609	0.06672322	-0.03969158	0.007585934	

1.562e+10	0.09461726	-0.01936191	0.09498421	-0.06488375	0.1093292	-0.01358493	0.008145209	-0.02084944	
0.09498421	-0.06488375	0.05361901	0.01744981	0.007486544	-0.0202888	0.06566817	0.009438478	
0.1093292	-0.01358493	0.007486544	-0.0202888	0.03364325	0.01916488	0.1196757	-0.002409473	
0.008145209	-0.02084944	0.06566817	0.009438478	0.1196757	-0.002409473	-0.02798127	0.02873361	

1.564e+10	0.08862536	-0.04011649	0.04089845	-0.106968	0.1042262	-0.02964438	-0.005329291	-0.02110762	
0.04089845	-0.106968	0.07581999	0.01360529	-0.005275199	-0.02041238	0.08136891	0.01415535	
0.1042262	-0.02964438	-0.005275199	-0.02041238	0.03887762	-0.003892496	0.09656352	-0.07014206	
-0.005329291	-0.02110762	0.08136891	0.01415535	0.09656352	-0.07014206	-0.006368056	0.03909273	

1.566e+10	0.07074042	-0.05374162	-0.02723039	-0.1110296	0.09043152	-0.04106343	-0.01593041	-0.01391658	
-0.02723039	-0.1110296	0.09078499	-0.001999324	-0.01552785	-0.01367038	0.09642128	0.008184345	
0.09043152	-0.04106343	-0.01552785	-0.01367038	0.02963269	-0.0257811	0.03917661	-0.1125252	
-0.01593041	-0.01391658	0.09642128	0.008184345	0.03917661	-0.1125252	0.01677014	0.03547591	

1.568e+10	0.04785386	-0.05336022	-0.0857784	-0.07578362	0.07155694	-0.04258713	-0.02058584	-0.002596946	
-0.0857784	-0.07578362	0.09408354	-0.02189219	-0.02038306	-0.002676243	0.1046654	-0.00510819	
0.07155694	-0.04258713	-0.02038306	-0.002676243	0.009172306	-0.03789062	-0.03215386	-0.1146983	
-0.02058584	-0.002596946	0.1046654	-0.00510819	-0.03215386	-0.1146983	0.03356867	0.02015973	

1.57e+10	0.0303522	-0.03871934	-0.1140132	-0.0130708	0.05496289	-0.03225428	-0.01848773	0.009241828	
-0.1140132	-0.0130708	0.0868556	-0.03920038	-0.01848994	0.00929543	0.1040473	-0.02014749	
0.05496289	-0.03225428	-0.01848994	0.00929543	-0.01436243	-0.03526441	-0.09208118	-0.07566325	
-0.01848773	0.009241828	0.1040473	-0.02014749	-0.09208118	-0.07566325	0.03922532	-0.001242711	

1.572e+10	0.02591073	-0.01682662	-0.1009873	0.05501432	0.04793604	-0.01389405	-0.01021487	0.0181878	
-0.1009873	0.05501432	0.07241286	-0.04995801	-0.009988862	0.01842786	0.09561503	-0.03228952	
0.04793604	-0.01389405	-0.009988862	0.01842786	-0.03145495	-0.01910236	-0.1188571	-0.00916642	
-0.01021487	0.0181878	0.09561503	-0.03228952	-0.1188571	-0.00916642	0.03243856	-0.02196586	

1.574e+10	0.03524286	0.002577623	-0.05083161	0.1031671	0.05318406	0.004604369	0.002010142	0.0210844	
-0.05083161	0.1031671	0.05435609	-0.05171379	0.002598557	0.02101495	0.08182404	-0.03822648	
0.05318406	0.004604369	0.002598557	0.02101495	-0.0355508	0.003880888	-0.1024872	0.06073156	
0.002010142	0.0210844	0.08182404	-0.03822648	-0.1024872	0.06073156	0.01534722	-0.03541783	

1.576e+10	0.05321845	0.0127609	0.01795085	0.1133372	0.06753863	0.01616847	0.01406885	0.01624726	
0.01795085	0.1133372	0.03745542	-0.04286795	0.01447069	0.01553149	0.06622018	-0.03557692	
0.06753863	0.01616847	0.01447069	0.01553149	-0.02557739	0.02482953	-0.0488575	0.1084091	
0.01406885	0.01624726	0.06622018	-0.03557692	-0.0488575	0.1084091	-0.006578258	-0.03678138	

1.578e+10	0.07328218	0.01179917	0.07964825	0.08190982	0.08506229	0.01790838	0.02110177	0.004916747	
0.07964825	0.08190982	0.02829	-0.02460947	0.02068772	0.004016415	0.05412579	-0.02364473	
0.08506229	0.01790838	0.02068772	0.004016415	-0.005555789	0.03635392	0.02220373	0.1164623	
0.02110177	0.004916747	0.05412579	-0.02364473	0.02220373	0.1164623	-0.02548609	-0.0249404	

1.58e+10	0.09001345	0.0006773314	0.1115851	0.02108625	0.1005559	0.01057115	0.0198705	-0.008504604	
0.1115851	0.02108625	0.03239959	-0.003258126	0.01879532	-0.00872091	0.05149934	-0.005582251	
0.1005559	0.01057115	0.01879532	-0.00872091	0.01749584	0.03473223	0.08468582	0.08231599	
0.0198705	-0.008504604	0.05149934	-0.005582251	0.08468582	0.08231599	-0.03387583	-0.003859664	

1.582e+10	0.09878546	-0.01810023	0.1028609	-0.04634628	0.1103789	-0.003673602	0.01084887	-0.01831962	
0.1028609	-0.04634628	0.04944423	0.01151331	0.01001775	-0.01756512	0.06112396	0.01107395	
0.1103789	-0.003673602	0.01001775	-0.01756512	0.03579554	0.02048371	0.1160873	0.01886401	
0.01084887	-0.01831962	0.06112396	0.01107395	0.1160873	0.01886401	-0.02812566	0.01826501	

1.584e+10	0.0957318	-0.03952427	0.05770017	-0.09624977	0.1115925	-0.02168532	-0.001817469	-0.0206823	
0.05770017	-0.09624977	0.0720473	0.01275705	-0.001716607	-0.01961302	0.07959463	0.01827201	
0.1115925	-0.02168532	-0.001716607	-0.01961302	0.04291073	-0.00166459	0.1056484	-0.05069082	
-0.001817469	-0.0206823	0.07959463	0.01827201	0.1056484	-0.05069082	-0.01067036	0.03276216	

1.586e+10	0.08024489	-0.0558423	-0.007393325	-0.1116655	0.1024477	-0.03849125	-0.01294133	-0.01549964	
-0.007393325	-0.1116655	0.09037855	0.0006652503	-0.01213581	-0.01498648	0.0986839	0.01250465	
0.1024477	-0.03849125	-0.01213581	-0.01498648	0.0360226	-0.02393245	0.05765841	-0.1016913	
-0.01294133	-0.01549964	0.0986839	0.01250465	0.05765841	-0.1016913	0.01149781	0.03471128	

1.588e+10	0.05747884	-0.05953771	-0.06978503	-0.08751214	0.0844434	-0.04767271	-0.01900033	-0.005462617	
-0.06978503	-0.08751214	0.0980469	-0.01860769	-0.01826915	-0.0057077	0.1102985	-0.003369925	
0.0844434	-0.04767271	-0.01826915	-0.0057077	0.01736166	-0.03796667	-0.01073814	-0.1163053	
-0.01900033	-0.005462617	0.1102985	-0.003369925	-0.01073814	-0.1163053	0.03048475	0.02432608	

1.59e+10	0.03723359	-0.04817811	-0.1075245	-0.03191147	0.06374032	-0.04439643	-0.01869131	0.005961562	
-0.1075245	-0.03191147	0.09423626	-0.03757167	-0.01847646	0.005472976	0.1104885	-0.0225193	
0.06374032	-0.04439643	-0.01847646	0.005472976	-0.006016593	-0.03807759	-0.07536854	-0.0892814	
-0.01869131	0.005961562	0.1104885	-0.0225193	-0.07536854	-0.0892814	0.04043612	0.005814327	

1.592e+10	0.0286698	-0.02687851	-0.1065696	0.03569907	0.04900033	-0.02923325	-0.01225897	0.01546697	
-0.1065696	0.03569907	0.08181108	-0.05096849	-0.01230497	0.01520079	0.100198	-0.03807965	
0.04900033	-0.02923325	-0.01230497	0.01520079	-0.02470822	-0.02407808	-0.1130193	-0.02998764	
-0.01225897	0.01546697	0.100198	-0.03807965	-0.1130193	-0.02998764	0.0387734	-0.01461955	

1.594e+10	0.03484051	-0.005435757	-0.06654616	0.09065793	0.04628899	-0.008637666	-0.001363477	0.01997452	
-0.06654616	0.09065793	0.06457451	-0.05593225	-0.001294227	0.01979373	0.08324501	-0.04548283	
0.04628899	-0.008637666	-0.001294227	0.01979373	-0.03120318	-0.00172814	-0.1097474	0.04037917	
-0.001363477	0.01997452	0.08324501	-0.04548283	-0.1097474	0.04037917	0.02632188	-0.03054805	

1.596e+10	0.05172657	0.007723481	-0.002051645	0.1122613	0.0556906	0.009030383	0.01056095	0.01738338	
-0.002051645	0.1122613	0.04691024	-0.05073833	0.01058935	0.01693005	0.06463481	-0.0424313	
0.0556906	0.009030383	0.01058935	0.01693005	-0.02328612	0.01999389	-0.06645832	0.09604963	
0.01056095	0.01738338	0.06463481	-0.0424313	-0.06645832	0.09604963	0.007101079	-0.03668912	

1.598e+10	0.07225874	0.00931758	0.06283434	0.09252044	0.07257285	0.0181375	0.01892581	0.008004697	
0.06283434	0.09252044	0.03471093	-0.03555347	0.01844146	0.007456824	0.05026326	-0.02890732	
0.07257285	0.0181375	0.01844146	0.007456824	-0.004477653	0.03303492	0.0008437433	0.1164869	
0.01892581	0.008004697	0.05026326	-0.02890732	0.0008437433	0.1164869	-0.01227455	-0.0305493	

1.6e+10	0.09024292	0.0001233947	0.1039981	0.03928309	0.09123721	0.01703008	0.01999924	-0.004699618	
0.1039981	0.03928309	0.0340754	-0.01491339	0.01902645	-0.004677571	0.04625781	-0.008420648	
0.09123721	0.01703008	0.01902645	-0.004677571	0.01818578	0.03321426	0.0673262	0.09449944	
0.01999924	-0.004699618	0.04625781	-0.008420648	0.0673262	0.09449944	-0.02443682	-0.01398377	

1.602e+10	0.1010111	-0.01722967	0.1069623	-0.02725442	0.1068045	0.006465274	0.0132042	-0.01538059	
0.1069623	-0.02725442	0.04679131	0.002422995	0.01250459	-0.01447598	0.05586778	0.0113045	
0.1068045	0.006465274	0.01250459	-0.01447598	0.03697547	0.02083801	0.1088232	0.03861116	
0.0132042	-0.01538059	0.05586778	0.0113045	0.1088232	0.03861116	-0.02441985	0.006698843	

1.604e+10	0.1007769	-0.03830167	0.07177359	-0.08292202	0.1149264	-0.01129395	0.001728475	-0.01968928	
0.07177359	-0.08292202	0.06765823	0.008345626	0.002013956	-0.01849668	0.07616893	0.02131834	
0.1149264	-0.01129395	0.002013956	-0.01849668	0.0455924	0.0002338295	0.1108541	-0.03041154	
0.001728475	-0.01968928	0.07616893	0.02131834	0.1108541	-0.03041154	-0.01236884	0.02333113	

1.606e+10	0.08823302	-0.05610461	0.01176752	-0.1086043	0.1120108	-0.03162619	-0.009516014	-0.01665632	
0.01176752	-0.1086043	0.08737353	0.0007788613	-0.008407695	-0.01612354	0.09858476	0.01682395	
0.1120108	-0.03162619	-0.008407695	-0.01612354	0.0410625	-0.02151809	0.07345713	-0.08792232	
-0.009516014	-0.01665632	0.09858476	0.01682395	0.07345713	-0.08792232	0.006627308	0.02997306	

1.608e+10	0.06701845	-0.0630601	-0.05212491	-0.09592228	0.0974171	-0.04749876	-0.01677075	-0.008328721	
-0.05212491	-0.09592228	0.09847175	-0.01578566	-0.01572304	-0.008801722	0.11365	-5.665265e-05	
0.0974171	-0.04749876	-0.01572304	-0.008801722	0.02482886	-0.03660598	0.01021504	-0.1139631	
-0.01677075	-0.008328721	0.11365	-5.665265e-05	0.01021504	-0.1139631	0.02555972	0.02513238	

1.61e+10	0.04586036	-0.05531957	-0.09774341	-0.04913844	0.07559619	-0.05193834	-0.01841565	0.002228538	
-0.09774341	-0.04913844	0.09866837	-0.03423836	-0.01812263	0.001283151	0.115911	-0.02199801	
0.07559619	-0.05193834	-0.01812263	0.001283151	0.002778071	-0.03915858	-0.05672506	-0.09944962	
-0.01841565	0.002228538	0.115911	-0.02199801	-0.05672506	-0.09944962	0.03843766	0.01127784	

1.612e+10	0.03438719	-0.03611011	-0.1085988	0.01578479	0.05531939	-0.04236988	-0.01425028	0.01208084	
-0.1085988	0.01578479	0.0899172	-0.0489756	-0.01461569	0.01140671	0.1056613	-0.04075857	
0.05531939	-0.04236988	-0.01461569	0.01140671	-0.01639383	-0.02787568	-0.1035855	-0.04918599	
-0.01425028	0.01208084	0.1056613	-0.04075857	-0.1035855	-0.04918599	0.04177657	-0.006760193	

1.614e+10	0.03739369	-0.01448454	-0.07991595	0.07557276	0.04503551	-0.02292793	-0.005157818	0.01832496	
-0.07991595	0.07557276	0.07552685	-0.05695698	-0.005619564	0.01810911	0.08724805	-0.05056168	
0.04503551	-0.02292793	-0.005619564	0.01810911	-0.0247998	-0.007261366	-0.1132251	0.01919125	
-0.005157818	0.01832496	0.08724805	-0.05056168	-0.1132251	0.01919125	0.03499969	-0.02336485	

1.616e+10	0.05223833	0.0002644589	-0.02172941	0.107863	0.04798782	-0.001988549	0.006359991	0.01839771	
-0.02172941	0.107863	0.05893912	-0.05632935	0.006030168	0.0183064	0.06649187	-0.04882884	
0.04798782	-0.001988549	0.006030168	0.0183064	-0.01916729	0.0141727	-0.08156488	0.08088441	
0.006359991	0.01839771	0.06649187	-0.04882884	-0.08156488	0.08088441	0.02030864	-0.03335593	

1.618e+10	0.07184472	0.003720713	0.04441095	0.1004177	0.06158172	0.01291782	0.01614215	0.01149369	
0.04441095	0.1004177	0.04481848	-0.04612167	0.0156822	0.01139504	0.04971067	-0.03570233	
0.06158172	0.01291782	0.0156822	0.01139504	-0.002252853	0.02801256	-0.02013427	0.112919	
0.01614215	0.01149369	0.04971067	-0.03570233	-0.02013427	0.112919	0.00254579	-0.03319151	

1.62e+10	0.08952113	-0.003537482	0.09375194	0.05620721	0.08041194	0.01801399	0.01997728	-0.000169032	
0.09375194	0.05620721	0.03917231	-0.02848647	0.01927877	9.349789e-05	0.04308005	-0.01450055	
0.08041194	0.01801399	0.01927877	9.349789e-05	0.01914675	0.02968717	0.04830228	0.1036365	
0.01997728	-0.000169032	0.04308005	-0.01450055	0.04830228	0.1036365	-0.01185949	-0.02256986	

1.622e+10	0.1007856	-0.01866859	0.1083591	-0.007807766	0.09904548	0.01256259	0.01598168	-0.01182539	
0.1083591	-0.007807766	0.04587977	-0.0103058	0.01555045	-0.01091364	0.05051137	0.00745806	
0.09904548	0.01256259	0.01555045	-0.01091364	0.03746846	0.01931077	0.09861045	0.05686165	
0.01598168	-0.01182539	0.05051137	0.00745806	0.09861045	0.05686165	-0.01718862	-0.005363533	

1.624e+10	0.1024462	-0.03774973	0.08387405	-0.06799018	0.1123674	-0.002252719	0.006000432	-0.01860323	
0.08387405	-0.06799018	0.062664	-1.685709e-05	0.006454509	-0.01748256	0.07025896	0.0208837	
0.1123674	-0.002252719	0.006454509	-0.01748256	0.04676541	0.0008423386	0.1128673	-0.009777155	
0.006000432	-0.01860323	0.07025896	0.0208837	0.1128673	-0.009777155	-0.01137818	0.0115947	

1.626e+10	0.09299454	-0.05501653	0.03001217	-0.1032152	0.1155914	-0.02275566	-0.005575611	-0.01827121	
0.03001217	-0.1032152	0.08182628	-0.001970497	-0.004318257	-0.01782231	0.09431922	0.01958923	
0.1155914	-0.02275566	-0.004318257	-0.01782231	0.04413952	-0.01937589	0.08677414	-0.07217954	
-0.005575611	-0.01827121	0.09431922	0.01958923	0.08677414	-0.07217954	0.002858811	0.02195163	

1.628e+10	0.07470421	-0.06357602	-0.03404489	-0.1018085	0.1062261	-0.04222311	-0.01455163	-0.01181314	
-0.03404489	-0.1018085	0.09541696	-0.0139547	-0.01334805	-0.01247341	0.1125782	0.004293333	
0.1062261	-0.04222311	-0.01334805	-0.01247341	0.03048153	-0.03432011	0.03004988	-0.1085992	
-0.01455163	-0.01181314	0.1125782	0.004293333	0.03004988	-0.1085992	0.01995196	0.02265735	

1.63e+10	0.0548	-0.0588955	-0.08614759	-0.06435288	0.08672888	-0.05269053	-0.01853856	-0.001853662	
-0.08614759	-0.06435288	0.09980249	-0.02995168	-0.01823169	-0.00313933	0.1181655	-0.0181418	
0.08672888	-0.05269053	-0.01823169	-0.00313933	0.01067596	-0.03831961	-0.03727746	-0.1063882	
-0.01853856	-0.001853662	0.1181655	-0.0181418	-0.03727746	-0.1063882	0.03422625	0.0143635	

1.632e+10	0.04248557	-0.04258356	-0.107845	-0.003445689	0.0648594	-0.04928809	-0.0166697	0.008744368	
-0.107845	-0.003445689	0.09578879	-0.04449823	-0.01731832	0.007754116	0.1102667	-0.03887862	
0.0648594	-0.04928809	-0.01731832	0.007754116	-0.007598494	-0.02946604	-0.09158659	-0.06610294	
-0.0166697	0.008744368	0.1102667	-0.03887862	-0.09158659	-0.06610294	0.04171886	0.0003078305	

1.634e+10	0.04352694	-0.02257957	-0.09053833	0.05933694	0.04993095	-0.03372959	-0.009146899	0.01693803	
-0.09053833	0.05933694	0.08593517	-0.05461189	-0.01010164	0.01671927	0.09292558	-0.05126805	
0.04993095	-0.03372959	-0.01010164	0.01671927	-0.0166316	-0.01112969	-0.113189	-0.001580519	
-0.009146899	0.01693803	0.09292558	-0.05126805	-0.113189	-0.001580519	0.0407064	-0.0151321	

1.636e+10	0.05639317	-0.008281463	-0.03987687	0.1008203	0.04743251	-0.01341847	0.002174668	0.01963192	
-0.03987687	0.1008203	0.07250649	-0.05859945	0.001489307	0.01993745	0.07220251	-0.05232162	
0.04743251	-0.01341847	0.001489307	0.01993745	-0.01250323	0.008852779	-0.0936052	0.06385314	
0.002174668	0.01963192	0.07220251	-0.05232162	-0.0936052	0.06385314	0.03172442	-0.0273664	

1.638e+10	0.07418008	-0.004749949	0.02560235	0.1053126	0.05651493	0.0034967	0.01342813	0.01508253	
0.02560235	0.1053126	0.05839698	-0.05465266	0.01302999	0.01551148	0.05413285	-0.04203516	
0.05651493	0.0034967	0.01302999	0.01551148	0.002661487	0.02214564	-0.039758	0.1059991	
0.01342813	0.01508253	0.05413285	-0.04203516	-0.039758	0.1059991	0.01751045	-0.03246477	

1.64e+10	0.08984646	-0.0113058	0.08142803	0.07111433	0.07247673	0.01211921	0.01997852	0.004444865	
0.08142803	0.07111433	0.04868023	-0.04247096	0.01968877	0.004997019	0.04455892	-0.02295033	
0.07247673	0.01211921	0.01968877	0.004997019	0.0223001	0.0239424	0.02841607	0.1092551	
0.01997852	0.004444865	0.04455892	-0.02295033	0.02841607	0.1092551	0.002936692	-0.02829702	

1.642e+10	0.09927172	-0.02445697	0.1070791	0.01126448	0.09000665	0.0109725	0.01882907	-0.008104015	
0.1070791	0.01126448	0.04858723	-0.02611123	0.0188463	-0.007278608	0.04791852	-0.001136794	
0.09000665	0.0109725	0.0188463	-0.007278608	0.03882852	0.01442091	0.08559816	0.07286263	
0.01882907	-0.008104015	0.04791852	-0.001136794	0.08559816	0.07286263	-0.006217464	-0.01623091	

1.644e+10	0.1004956	-0.04028694	0.09375262	-0.05194226	0.104257	0.0007905525	0.01056117	-0.01736803	
0.09375262	-0.05194226	0.05895427	-0.01313139	0.01124296	-0.01657337	0.06402017	0.01470374	
0.104257	0.0007905525	0.01124296	-0.01657337	0.04668017	-0.002113774	0.1114371	0.0108083	
0.01056117	-0.01736803	0.06402017	0.01470374	0.1114371	0.0108083	-0.006302363	-0.001322373	

1.646e+10	0.09291807	-0.05437746	0.04711298	-0.0959025	0.110893	-0.01577906	-0.001187333	-0.02006791	
0.04711298	-0.0959025	0.07466281	-0.009390274	2.194276e-05	-0.01995599	0.08645019	0.0175822	
0.110893	-0.01577906	2.194276e-05	-0.01995599	0.04393284	-0.01938127	0.09748002	-0.05458026	
-0.001187333	-0.02006791	0.08645019	0.0175822	0.09748002	-0.05458026	0.001984929	0.01049189	

1.648e+10	0.07827333	-0.06160389	-0.01605801	-0.1055555	0.1069873	-0.03370216	-0.01215948	-0.01588669	
-0.01605801	-0.1055555	0.08854955	-0.01508929	-0.01115445	-0.01673171	0.1056919	0.006634943	
0.1069873	-0.03370216	-0.01115445	-0.01673171	0.03230406	-0.03160467	0.04898798	-0.1004402	
-0.01215948	-0.01588669	0.1056919	0.006634943	0.04898798	-0.1004402	0.01481426	0.01559406	

1.65e+10	0.06195776	-0.05807445	-0.07365348	-0.07756034	0.09303074	-0.04610803	-0.01907082	-0.006499667	
-0.07365348	-0.07756034	0.0962734	-0.02609016	-0.01897265	-0.007827712	0.114356	-0.01270826	
0.09303074	-0.04610803	-0.01897265	-0.007827712	0.01593356	-0.03472822	-0.01720395	-0.1106708	
-0.01907082	-0.006499667	0.114356	-0.01270826	-0.01720395	-0.1106708	0.0278321	0.0133887	

1.652e+10	0.05178382	-0.04452382	-0.1051399	-0.02137184	0.07456146	-0.04737475	-0.01982884	0.00534652	
-0.1051399	-0.02137184	0.0975983	-0.03784805	-0.02068055	0.004388242	0.1105543	-0.03224248	
0.07456146	-0.04737475	-0.02068055	0.004388242	0.0009293171	-0.02723915	-0.07776165	-0.08114578	
-0.01982884	0.00534652	0.1105543	-0.03224248	-0.07776165	-0.08114578	0.03756574	0.005337233	

1.654e+10	0.05330128	-0.02769725	-0.09861307	0.04312399	0.05997903	-0.03739033	-0.013715	0.01604119	
-0.09861307	0.04312399	0.09416908	-0.04813899	-0.01487006	0.01596852	0.09759215	-0.04545821	
0.05997903	-0.03739033	-0.01487006	0.01596852	-0.006217814	-0.01186331	-0.1106496	-0.02186907	
-0.013715	0.01604119	0.09759215	-0.04545821	-0.1106496	-0.02186907	0.04194294	-0.006035776	

1.656e+10	0.06528469	-0.01642019	-0.05582608	0.09228883	0.05502087	-0.02182652	-0.002111234	0.02162921	
-0.05582608	0.09228883	0.08669882	-0.05601503	-0.002870911	0.02223543	0.08068196	-0.04957766	
0.05502087	-0.02182652	-0.002870911	0.02223543	-0.002119254	0.004691443	-0.1033461	0.04594781	
-0.002111234	0.02162921	0.08068196	-0.04957766	-0.1033461	0.04594781	0.04013926	-0.01784681	

1.658e+10	0.08076189	-0.01546898	0.00766248	0.1076877	0.05975411	-0.007845877	0.01111416	0.01936877	
0.00766248	0.1076877	0.07562519	-0.05941931	0.01091516	0.02010741	0.06458826	-0.04452818	
0.05975411	-0.007845877	0.01091516	0.02010741	0.01120063	0.01508551	-0.05796676	0.09727874	
0.01111416	0.01936877	0.06458826	-0.04452818	-0.05796676	0.09727874	0.03245784	-0.02696903	

1.66e+10	0.09263945	-0.02325223	0.06843031	0.08348949	0.07034863	0.0002287551	0.0208055	0.009452247	
0.06843031	0.08348949	0.06372292	-0.05560863	0.02091816	0.01005195	0.0535303	-0.03170314	
0.07034863	0.0002287551	0.02091816	0.01005195	0.0276176	0.01538754	0.008752342	0.1128712	
0.0208055	0.009452247	0.0535303	-0.03170314	0.008752342	0.1128712	0.02094933	-0.03033039	

1.662e+10	0.09776034	-0.03506873	0.1039553	0.02860867	0.0826913	0.001449301	0.02279475	-0.004628944	
0.1039553	0.02860867	0.05640704	-0.04467562	0.02308791	-0.00409928	0.05141929	-0.01445331	
0.0826913	0.001449301	0.02308791	-0.00409928	0.04057812	0.00649731	0.07208755	0.08705841	
0.02279475	-0.004628944	0.05141929	-0.01445331	0.07208755	0.08705841	0.009571679	-0.02633658	

1.664e+10	0.09619699	-0.04701197	0.1011824	-0.03654564	0.0936342	-0.003768268	0.01592911	-0.01733734	
0.1011824	-0.03654564	0.05778897	-0.03145918	0.01653932	-0.01691182	0.05998748	0.001123749	
0.0936342	-0.003768268	0.01653932	-0.01691182	0.04593794	-0.007492827	0.1088182	0.02959176	
0.01592911	-0.01733734	0.05998748	0.001123749	0.1088182	0.02959176	0.002794153	-0.01638953	

1.666e+10	0.08868546	-0.05623158	0.0614623	-0.08794049	0.1001031	-0.01423412	0.002801672	-0.02355497	
0.0614623	-0.08794049	0.06677125	-0.02234523	0.003723747	-0.02357472	0.07620816	0.008366073	
0.1001031	-0.01423412	0.003723747	-0.02357472	0.04254926	-0.02147174	0.1057998	-0.03824469	
0.002801672	-0.02355497	0.07620816	0.008366073	0.1057998	-0.03824469	0.003095209	-0.004547118	

1.668e+10	0.07682078	-0.05955825	-0.0003456488	-0.1070494	0.09928157	-0.02674176	-0.01147995	-0.02093386	
-0.0003456488	-0.1070494	0.0782654	-0.02031515	-0.01069016	-0.02165844	0.09292632	0.004412041	
0.09928157	-0.02674176	-0.01069016	-0.02165844	0.03190365	-0.0306298	0.06456828	-0.09188159	
-0.01147995	-0.02093386	0.09292632	0.004412041	0.06456828	-0.09188159	0.009727075	0.004867559	

1.67e+10	0.06489111	-0.05423622	-0.06181865	-0.08721275	0.09091113	-0.03597958	-0.02167934	-0.01052692	
-0.06181865	-0.08721275	0.08793066	-0.02378973	-0.02160769	-0.01168323	0.1032146	-0.007815092	
0.09091113	-0.03597958	-0.02160769	-0.01168323	0.01790003	-0.03140374	7.247497e-05	-0.11223	
-0.02167934	-0.01052692	0.1032146	-0.007815092	7.247497e-05	-0.11223	0.01993146	0.009386258	

1.672e+10	0.05945625	-0.04140171	-0.1006645	-0.03558786	0.07914788	-0.03747389	-0.02408411	0.004030297	
-0.1006645	-0.03558786	0.0947595	-0.0300431	-0.02484994	0.003143684	0.104545	-0.02212257	
0.07914788	-0.03747389	-0.02484994	0.003143684	0.006397035	-0.02298127	-0.06443665	-0.09188847	
-0.02408411	0.004030297	0.104545	-0.02212257	-0.06443665	-0.09188847	0.03081063	0.008512703	

1.674e+10	0.06487715	-0.02768182	-0.1025638	0.02894531	0.07039467	-0.03130346	-0.01748608	0.01755947	
-0.1025638	0.02894531	0.0991962	-0.03834626	-0.01859771	0.0174522	0.09888265	-0.03342762	
0.07039467	-0.03130346	-0.01859771	0.0174522	0.003045012	-0.008702979	-0.1055884	-0.03803499	
-0.01748608	0.01755947	0.09888265	-0.03342762	-0.1055884	-0.03803499	0.04012602	0.002733266	

1.676e+10	0.0787642	-0.02143962	-0.06697063	0.08252499	0.06857967	-0.02234775	-0.003972764	0.02479171	
-0.06697063	0.08252499	0.0999915	-0.04892691	-0.004781738	0.02537947	0.08960745	-0.03984522	
0.06857967	-0.02234775	-0.004781738	0.02537947	0.009995456	0.004628291	-0.1081189	0.02976059	
-0.003972764	0.02479171	0.08960745	-0.03984522	-0.1081189	0.02976059	0.04579982	-0.00702202	

1.678e+10	0.09311759	-0.02626539	-0.007199904	0.1057752	0.07248354	-0.01609045	0.01139846	0.02267417	
-0.007199904	0.1057752	0.09464957	-0.05971019	0.0111506	0.02350746	0.07911359	-0.04129807	
0.07248354	-0.01609045	0.0111506	0.02350746	0.02396261	0.010377	-0.07112877	0.0865012	
0.01139846	0.02267417	0.07911359	-0.04129807	-0.07112877	0.0865012	0.04578839	-0.01874559	

1.68e+10	0.1003775	-0.03864594	0.05492929	0.09051711	0.07786324	-0.0144789	0.02274004	0.01189023	
0.05492929	0.09051711	0.08311947	-0.06589385	0.02296229	0.01262676	0.06912861	-0.03764477	
0.07786324	-0.0144789	0.02296229	0.01262676	0.0381132	0.006198798	-0.008219902	0.1115074	
0.02274004	0.01189023	0.06912861	-0.03764477	-0.008219902	0.1115074	0.03921949	-0.02888764	

1.682e+10	0.09849123	-0.05157975	0.09706385	0.04219852	0.08175997	-0.01594881	0.025761	-0.003683399	
0.09706385	0.04219852	0.06979677	-0.06352354	0.0262715	-0.003194462	0.06225408	-0.02906792	
0.08175997	-0.01594881	0.0262715	-0.003194462	0.04640539	-0.005183549	0.05745153	0.09567592	
0.025761	-0.003683399	0.06225408	-0.02906792	0.05745153	0.09567592	0.02787841	-0.03350944	

1.684e+10	0.09028452	-0.05997581	0.1034877	-0.02170831	0.083729	-0.01849329	0.01897717	-0.01840172	
0.1034877	-0.02170831	0.06110592	-0.05341512	0.01967063	-0.01820182	0.06145746	-0.0178062	
0.083729	-0.01849329	0.01967063	-0.01820182	0.04629531	-0.01848963	0.1018679	0.04491425	
0.01897717	-0.01840172	0.06145746	-0.0178062	0.1018679	0.04491425	0.01601008	-0.03054781	

1.686e+10	0.07951114	-0.06216786	0.07154169	-0.07746928	0.08402478	-0.02132241	0.004465429	-0.02645173	
0.07154169	-0.07746928	0.06043229	-0.04081122	0.005248231	-0.02665932	0.06743952	-0.008419042	
0.08402478	-0.02132241	0.005248231	-0.02665932	0.03865685	-0.02863276	0.1087507	-0.0220821	
0.004465429	-0.02645173	0.06743952	-0.008419042	0.1087507	-0.0220821	0.008230074	-0.02127565	

1.688e+10	0.06920288	-0.05778465	0.01328676	-0.1040652	0.08241966	-0.02366927	-0.01228796	-0.02416859	
0.01328676	-0.1040652	0.06637386	-0.03070981	-0.01170672	-0.02488931	0.07715153	-0.00474001	
0.08241966	-0.02366927	-0.01170672	-0.02488931	0.02666224	-0.03199761	0.075794	-0.0804222	
-0.01228796	-0.02416859	0.07715153	-0.00474001	0.075794	-0.0804222	0.007050769	-0.009408172	

1.69e+10	0.0630796	-0.04695133	-0.04908324	-0.09184756	0.07935467	-0.02375169	-0.02442018	-0.01210104	
-0.04908324	-0.09184756	0.07587492	-0.02479975	-0.02445547	-0.0131294	0.08600274	-0.006898919	
0.07935467	-0.02375169	-0.02445547	-0.0131294	0.01496668	-0.02697173	0.01551489	-0.1088499	
-0.02442018	-0.01210104	0.08600274	-0.006898919	0.01551489	-0.1088499	0.01232105	0.001276474	

1.692e+10	0.06584792	-0.03287649	-0.09224813	-0.04615415	0.07753799	-0.02051103	-0.026746	0.00489916	
-0.09224813	-0.04615415	0.08746115	-0.02326671	-0.02751801	0.004142059	0.09156433	-0.01213532	
0.07753799	-0.02051103	-0.02751801	0.004142059	0.008992671	-0.0148715	-0.04968914	-0.09735235	
-0.026746	0.00489916	0.09156433	-0.01213532	-0.04968914	-0.09735235	0.02244098	0.008058461	

1.694e+10	0.07896739	-0.02316501	-0.1009436	0.01512214	0.08009896	-0.01636184	-0.01841362	0.01963597	
-0.1009436	0.01512214	0.09995439	-0.0274307	-0.01945394	0.01961761	0.09422147	-0.01803507	
0.08009896	-0.01636184	-0.01945394	0.01961761	0.01277826	-0.0009429507	-0.09601226	-0.05085733	
-0.01841362	0.01963597	0.09422147	-0.01803507	-0.09601226	-0.05085733	0.03508697	0.009116587	

1.696e+10	0.09664801	-0.02496788	-0.07347353	0.0695777	0.08632657	-0.01591866	-0.003318298	0.0263781	
-0.07347353	0.0695777	0.110093	-0.03864898	-0.004054491	0.02700028	0.09510565	-0.02410959	
0.08632657	-0.01591866	-0.004054491	0.02700028	0.02536293	0.007448365	-0.107323	0.01334877	
-0.003318298	0.0263781	0.09510565	-0.02410959	-0.107323	0.01334877	0.04738365	0.003584003	

1.698e+10	0.1092407	-0.03845042	-0.02044588	0.09846975	0.09178398	-0.02117988	0.01252698	0.02310451	
-0.02044588	0.09846975	0.1126636	-0.05542761	0.01236025	0.02396192	0.09383877	-0.0310233	
0.09178398	-0.02117988	0.01236025	0.02396192	0.04071916	0.005848281	-0.07997829	0.0721899	
0.01252698	0.02310451	0.09383877	-0.0310233	-0.07997829	0.0721899	0.0556143	-0.008291569	

1.7e+10	0.1101371	-0.05690685	0.03928238	0.09226577	0.09203456	-0.02992693	0.02334282	0.01153421	
0.03928238	0.09226577	0.1044108	-0.07145412	0.02368953	0.01224698	0.08874414	-0.03750525	
0.09203456	-0.02992693	0.02368953	0.01224698	0.05172117	-0.005007424	-0.02409117	0.1046837	
0.02334282	0.01153421	0.08874414	-0.03750525	-0.02409117	0.1046837	0.05598572	-0.02339179	

1.702e+10	0.09936904	-0.07114125	0.08509258	0.05322959	0.08571946	-0.03715631	0.0257271	-0.003879789	
0.08509258	0.05322959	0.08804868	-0.07942699	0.02635589	-0.003528192	0.08018491	-0.04054999	
0.08571946	-0.03715631	0.02635589	-0.003528192	0.05353551	-0.02002463	0.04029888	0.09942333	
0.0257271	-0.003879789	0.08018491	-0.04054999	0.04029888	0.09942333	0.0476568	-0.03624039	

1.704e+10	0.08302222	-0.0751454	0.100477	-0.005547699	0.07576199	-0.03855271	0.01909858	-0.01813655	
0.100477	-0.005547699	0.07046589	-0.07618954	0.01976597	-0.01818402	0.07093038	-0.03836472	
0.07576199	-0.03855271	0.01976597	-0.01818402	0.04594183	-0.032406	0.09011193	0.05813998	
0.01909858	-0.01813655	0.07093038	-0.03836472	0.09011193	0.05813998	0.033457	-0.04207026	

1.706e+10	0.06854013	-0.06873179	0.07870939	-0.06285988	0.0669868	-0.03334439	0.005099165	-0.02642246	
0.07870939	-0.06285988	0.05833461	-0.06371239	0.005620363	-0.02681431	0.06422519	-0.03143163	
0.0669868	-0.03334439	0.005620363	-0.02681431	0.03285036	-0.03722604	0.107024	-0.004533913	
0.005099165	-0.02642246	0.06422519	-0.03143163	0.107024	-0.004533913	0.01839259	-0.0386598	

1.708e+10	0.06076262	-0.05538091	0.02722798	-0.09662706	0.06284441	-0.02382216	-0.01183247	-0.02485193	
0.02722798	-0.09662706	0.05516201	-0.04678906	-0.01161811	-0.02545828	0.06203542	-0.02200324	
0.06284441	-0.02382216	-0.01161811	-0.02545828	0.01980397	-0.03299846	0.08437522	-0.0654104	
-0.01183247	-0.02485193	0.06203542	-0.02200324	0.08437522	-0.0654104	0.007826957	-0.02706394	

1.71e+10	0.06202549	-0.03944766	-0.03387422	-0.09352549	0.06475518	-0.01314046	-0.02481385	-0.01288977	
-0.03387422	-0.09352549	0.06154644	-0.03027126	-0.02498057	-0.01349568	0.06474872	-0.01247215	
0.06475518	-0.01314046	-0.02498057	-0.01349568	0.0119839	-0.02144354	0.03077085	-0.10154	
-0.02481385	-0.01288977	0.06474872	-0.01247215	0.03077085	-0.10154	0.005531622	-0.01104302	

1.712e+10	0.07314537	-0.02606891	-0.0806807	-0.05567867	0.07287745	-0.004479718	-0.0276008	0.004926392	
-0.0806807	-0.05567867	0.07674814	-0.01872337	-0.02808581	0.004518731	0.07224489	-0.00478229	
0.07287745	-0.004479718	-0.02808581	0.004518731	0.01292488	-0.006805292	-0.03324273	-0.09975692	
-0.0276008	0.004926392	0.07224489	-0.00478229	-0.03324273	-0.09975692	0.01287388	0.004347053	

1.714e+10	0.0917435	-0.0214777	-0.09630918	0.000857288	0.08584333	-0.001586976	-0.01862576	0.02044076	
-0.09630918	0.000857288	0.09764439	-0.0172017	-0.01924896	0.02038369	0.08386018	-0.001629086	
0.08584333	-0.001586976	-0.01924896	0.02038369	0.02318891	0.004900197	-0.08366015	-0.06188266	
-0.01862576	0.02044076	0.08386018	-0.001629086	-0.08366015	-0.06188266	0.02835769	0.01357395	

1.716e+10	0.1106999	-0.02960398	-0.07743753	0.05468691	0.09943898	-0.007264828	-0.002523477	0.02679042	
-0.07743753	0.05468691	0.117117	-0.0285219	-0.003069101	0.02711385	0.09661867	-0.005603144	
0.09943898	-0.007264828	-0.003069101	0.02711385	0.03920972	0.008258496	-0.1030103	-0.002859346	
-0.002523477	0.02679042	0.09661867	-0.005603144	-0.1030103	-0.002859346	0.0471599	0.01260735	

1.718e+10	0.1214537	-0.04831264	-0.03251185	0.08798534	0.1079605	-0.02092674	0.01333425	0.02238439	
-0.03251185	0.08798534	0.1270999	-0.04983294	0.01310297	0.02297754	0.1058904	-0.01683316	
0.1079605	-0.02092674	0.01310297	0.02297754	0.05470945	0.001261785	-0.08551862	0.05606847	
0.01333425	0.02238439	0.1058904	-0.01683316	-0.08551862	0.05606847	0.06270497	0.001121341	

1.72e+10	0.118646	-0.07022296	0.02280636	0.09051504	0.1067683	-0.03832955	0.02307378	0.01022778	
0.02280636	0.09051504	0.1229266	-0.07343316	0.02326754	0.01080981	0.1074463	-0.03234788	
0.1067683	-0.03832955	0.02326754	0.01080981	0.06327715	-0.01392859	-0.0381304	0.09428129	
0.02307378	0.01022778	0.1074463	-0.03234788	-0.0381304	0.09428129	0.06935048	-0.01721004	

1.722e+10	0.1030594	-0.08576836	0.07020048	0.06167697	0.09475038	-0.05236977	0.02427192	-0.004524391	
0.07020048	0.06167697	0.1060003	-0.09010171	0.02472977	-0.004218563	0.09973825	-0.0466529	
0.09475038	-0.05236977	0.02472977	-0.004218563	0.06096211	-0.03133968	0.02239023	0.09895862	
0.02427192	-0.004524391	0.09973825	-0.0466529	0.02239023	0.09895862	0.06473551	-0.03603872	

1.724e+10	0.08173594	-0.08841835	0.09329942	0.01044262	0.07608836	-0.05660097	0.01748879	-0.01732594	
0.09329942	0.01044262	0.08314686	-0.09391105	0.01798818	-0.0173328	0.08498973	-0.05456872	
0.07608836	-0.05660097	0.01798818	-0.0173328	0.04864998	-0.04362509	0.07500124	0.06832968	
0.01748879	-0.01732594	0.08498973	-0.05456872	0.07500124	0.06832968	0.05051475	-0.04903775	

1.726e+10	0.06375388	-0.07784489	0.08250036	-0.04554452	0.05822246	-0.04882329	0.00460374	-0.02455719	
0.08250036	-0.04554452	0.0627127	-0.08425211	0.004974674	-0.0248214	0.06791982	-0.05302661	
0.05822246	-0.04882329	0.004974674	-0.0248214	0.03158665	-0.04572597	0.1006363	0.01274401	
0.00460374	-0.02455719	0.06791982	-0.05302661	0.1006363	0.01274401	0.03140953	-0.05167382	

1.728e+10	0.05579289	-0.05903234	0.0405441	-0.08497957	0.0481166	-0.03187546	-0.01080973	-0.02318154	
0.0405441	-0.08497957	0.05133322	-0.06504113	-0.0106722	-0.02355951	0.05412075	-0.0421273	
0.0481166	-0.03187546	-0.0106722	-0.02355951	0.01690048	-0.03688663	0.08929951	-0.04761342	
-0.01080973	-0.02318154	0.05412075	-0.0421273	0.08929951	-0.04761342	0.01411081	-0.04274722	

1.73e+10	0.06019076	-0.03903459	-0.01648347	-0.09197969	0.04952727	-0.01194348	-0.02300126	-0.01240044	
-0.01648347	-0.09197969	0.05237782	-0.04243592	-0.02306324	-0.01273159	0.04823234	-0.02494256	
0.04952727	-0.01194348	-0.02306324	-0.01273159	0.01060599	-0.02076076	0.04505375	-0.0899585	
-0.02300126	-0.01240044	0.04823234	-0.02494256	0.04505375	-0.0899585	0.004932227	-0.02515604	

1.732e+10	0.07564986	-0.02453489	-0.06594133	-0.06430453	0.06221836	0.004200604	-0.02606113	0.004216315	
-0.06594133	-0.06430453	0.06623433	-0.02320921	-0.02620956	0.003973182	0.05286101	-0.006374701	
0.06221836	0.004200604	-0.02620956	0.003973182	0.01536219	-0.0036159	-0.01504325	-0.09851507	
-0.02606113	0.004216315	0.05286101	-0.006374701	-0.01504325	-0.09851507	0.007557556	-0.0048236	

1.734e+10	0.09775579	-0.02111412	-0.08921486	-0.01425797	0.08255208	0.01071065	-0.01784237	0.01920068	
-0.08921486	-0.01425797	0.08984445	-0.01438657	-0.01806981	0.01899508	0.06789966	0.007309842	
0.08255208	0.01071065	-0.01806981	0.01899508	0.02973622	0.007818905	-0.06810155	-0.07111496	
-0.01784237	0.01920068	0.06789966	0.007309842	-0.06810155	-0.07111496	0.02180005	0.01095761	

1.736e+10	0.1189581	-0.03150783	-0.07980596	0.03835656	0.1040088	0.004356533	-0.002271689	0.02542371	
-0.07980596	0.03835656	0.1156966	-0.02084837	-0.002652014	0.0253215	0.08928206	0.01027186	
0.1040088	0.004356533	-0.002652014	0.0253215	0.04864492	0.008886771	-0.09532198	-0.01920297	
-0.002271689	0.02542371	0.08928206	0.01027186	-0.09532198	-0.01920297	0.04312991	0.01607158	

1.738e+10	0.1306378	-0.0530279	-0.04358533	0.07543119	0.1186888	-0.01381422	0.01296313	0.0207389	
-0.04358533	0.07543119	0.1337957	-0.0416548	0.01251068	0.02090547	0.10946	5.729975e-05	
0.1186888	-0.01381422	0.01251068	0.02090547	0.06510347	-0.001225384	-0.08838771	0.03797436	
0.01296313	0.0207389	0.10946	5.729975e-05	-0.08838771	0.03797436	0.06398685	0.008222559	

1.74e+10	0.12749	-0.07765842	0.006144095	0.08613615	0.1204742	-0.03798305	0.02153009	0.008690852	
0.006144095	0.08613615	0.1367124	-0.06929218	0.02126215	0.009169248	0.1206325	-0.02048836	
0.1204742	-0.03798305	0.02126215	0.009169248	0.07294663	-0.01903789	-0.05093892	0.08079579	
0.02153009	0.008690852	0.1206325	-0.02048836	-0.05093892	0.08079579	0.07695308	-0.009897781	

1.742e+10	0.1105541	-0.09563671	0.05342774	0.0677971	0.1077513	-0.05944264	0.02156699	-0.004856376	
0.05342774	0.0677971	0.1234632	-0.09333049	0.02168387	-0.004299422	0.1181802	-0.04427044	
0.1077513	-0.05944264	0.02168387	-0.004299422	0.06919348	-0.03811339	0.003796919	0.09515628	
0.02156699	-0.004856376	0.1181802	-0.04427044	0.003796919	0.09515628	0.07771983	-0.03188473	

1.744e+10	0.08660911	-0.0999843	0.08288943	0.02578703	0.08448464	-0.06995886	0.01478903	-0.01547583	
0.08288943	0.02578703	0.09952195	-0.1051643	0.01523179	-0.01514114	0.1026081	-0.06285614	
0.08448464	-0.06995886	0.01523179	-0.01514114	0.05508192	-0.05140427	0.05723716	0.07617458	
0.01478903	-0.01547583	0.1026081	-0.06285614	0.05723716	0.07617458	0.06636131	-0.05028158	

1.746e+10	0.0652386	-0.08935958	0.08333377	-0.02650068	0.0589925	-0.06503	0.00381957	-0.02092017	
0.08333377	-0.02650068	0.0739117	-0.101414	0.004323736	-0.02093926	0.07905522	-0.06967939	
0.0589925	-0.06503	0.004323736	-0.02093926	0.03581952	-0.05366851	0.09068831	0.02980978	
0.00381957	-0.02092017	0.07905522	-0.06967939	0.09068831	0.02980978	0.04689591	-0.05901753	

1.748e+10	0.05456336	-0.06841154	0.05284837	-0.0701347	0.04085037	-0.04603029	-0.00869967	-0.01979024	
0.05284837	-0.0701347	0.05528855	-0.08428414	-0.008362816	-0.02005091	0.05538925	-0.06216316	
0.04085037	-0.04603029	-0.008362816	-0.02005091	0.01904422	-0.04372355	0.09139043	-0.02779267	
-0.00869967	-0.01979024	0.05538925	-0.06216316	0.09139043	-0.02779267	0.02602118	-0.05510298	

1.75e+10	0.05818388	-0.04531612	0.002173711	-0.08756602	0.03695286	-0.01988625	-0.01905243	-0.0113891	
0.002173711	-0.08756602	0.0493981	-0.05976725	-0.01890622	-0.01169496	0.03962241	-0.04244673	
0.03695286	-0.01988625	-0.01890622	-0.01169496	0.01171282	-0.02544677	0.05845504	-0.07521873	
-0.01905243	-0.0113891	0.03962241	-0.04244673	0.05845504	-0.07521873	0.01114468	-0.03977102	

1.752e+10	0.0745634	-0.02825401	-0.04865207	-0.0717239	0.04876704	0.00402669	-0.02255448	0.002334757	
-0.04865207	-0.0717239	0.05834191	-0.03555059	-0.02248387	0.00202641	0.03748945	-0.01658956	
0.04876704	0.00402669	-0.02248387	0.00202641	0.01690141	-0.006139588	0.004253223	-0.09450033	
-0.02255448	0.002334757	0.03748945	-0.01658956	0.004253223	-0.09450033	0.007846081	-0.01826401	

1.754e+10	0.09828012	-0.02323787	-0.07974142	-0.02998872	0.07231064	0.01720815	-0.01649881	0.0157116	
-0.07974142	-0.02998872	0.08014531	-0.01993345	-0.01652747	0.01529389	0.05073022	0.006609685	
0.07231064	0.01720815	-0.01652747	0.01529389	0.03260585	0.006609441	-0.05030448	-0.07893182	
-0.01649881	0.0157116	0.05073022	0.006609685	-0.05030448	-0.07893182	0.01776794	0.00157937	

1.756e+10	0.1214742	-0.03266711	-0.0809768	0.02049028	0.09969719	0.01486978	-0.003259347	0.02215251	
-0.0809768	0.02049028	0.1080267	-0.01942928	-0.003600552	0.02168106	0.07554485	0.01850387	
0.09969719	0.01486978	-0.003600552	0.02168106	0.05296719	0.008166153	-0.08536305	-0.03555069	
-0.003259347	0.02215251	0.07554485	0.01850387	-0.08536305	-0.03555069	0.03757165	0.01239363	

1.758e+10	0.1356653	-0.054007	-0.05438229	0.06151125	0.1214882	-0.002779017	0.01054214	0.01877358	
-0.05438229	0.06151125	0.1317165	-0.03520464	0.009818125	0.01858162	0.1032613	0.01402975	
0.1214882	-0.002779017	0.009818125	0.01858162	0.07076447	-0.001900864	-0.08945492	0.01899791	
0.01054214	0.01877358	0.1032613	0.01402975	-0.08945492	0.01899791	0.06007051	0.0102278	

1.76e+10	0.1352302	-0.0798985	-0.0105701	0.08055951	0.1298405	-0.03017183	0.01860954	0.008241949	
-0.0105701	0.08055951	0.142313	-0.06159317	0.0178213	0.008650866	0.1238746	-0.005575933	
0.1298405	-0.03017183	0.0178213	0.008650866	0.08007207	-0.02003696	-0.0625265	0.06572817	
0.01860954	0.008241949	0.1238746	-0.005575933	-0.0625265	0.06572817	0.07750937	-0.003790434	

1.762e+10	0.1200758	-0.1008056	0.03616884	0.0725847	0.1211782	-0.05806148	0.01869377	-0.00383456	
0.03616884	0.0725847	0.1363846	-0.0888809	0.01837101	-0.002903208	0.1300498	-0.03359927	
0.1211782	-0.05806148	0.01837101	-0.002903208	0.0778453	-0.04020133	-0.0143972	0.08920667	
0.01869377	-0.00383456	0.1300498	-0.03359927	-0.0143972	0.08920667	0.08447155	-0.02464041	

1.764e+10	0.09584061	-0.1088898	0.07110053	0.03993892	0.09778496	-0.07647772	0.01258978	-0.01283518	
0.07110053	0.03993892	0.1168536	-0.1076332	0.0130249	-0.01189629	0.1195322	-0.06049796	
0.09778496	-0.07647772	0.0130249	-0.01189629	0.06467074	-0.0555942	0.03857883	0.08172486	
0.01258978	-0.01283518	0.1195322	-0.06049796	0.03857883	0.08172486	0.0791765	-0.04551196	

1.766e+10	0.07190115	-0.1011486	0.08197863	-0.007576499	0.06760336	-0.07817294	0.003505061	-0.01694019	
0.08197863	-0.007576499	0.09106676	-0.1121536	0.004452393	-0.01655989	0.09567916	-0.07716751	
0.06760336	-0.07817294	0.004452393	-0.01655989	0.04488513	-0.06046874	0.078436	0.04541473	
0.003505061	-0.01694019	0.09567916	-0.07716751	0.078436	0.04541473	0.06353745	-0.05984117	

1.768e+10	0.05757528	-0.08096242	0.06330244	-0.05375659	0.04181526	-0.06195401	-0.006103855	-0.01605163	
0.06330244	-0.05375659	0.06782167	-0.101856	-0.005212035	-0.01638081	0.06639084	-0.07777766	
0.04181526	-0.06195401	-0.005212035	-0.01638081	0.02598603	-0.05244732	0.0906342	-0.007596589	
-0.006103855	-0.01605163	0.06639084	-0.07777766	0.0906342	-0.007596589	0.04275908	-0.0628921	

1.77e+10	0.05804742	-0.05653347	0.02050737	-0.08077749	0.03022295	-0.03372663	-0.01423858	-0.01022392	
0.02050737	-0.08077749	0.05438019	-0.08059464	-0.01380265	-0.01092808	0.04147025	-0.06172821	
0.03022295	-0.03372663	-0.01380265	-0.01092808	0.0157787	-0.03438119	0.06988131	-0.05841534	
-0.01423858	-0.01022392	0.04147025	-0.06172821	0.06988131	-0.05841534	0.02397971	-0.05344707	

1.772e+10	0.07254843	-0.03702909	-0.03012982	-0.07731886	0.03700688	-0.004106323	-0.01806939	-0.0001482274	
-0.03012982	-0.07731886	0.05507926	-0.05516007	-0.01806178	-0.0008549312	0.02971786	-0.03405183	
0.03700688	-0.004106323	-0.01806178	-0.0008549312	0.01861826	-0.01368047	0.0233605	-0.08778906	
-0.01806939	-0.0001482274	0.02971786	-0.03405183	0.0233605	-0.08778906	0.01411611	-0.03466829	

1.774e+10	0.09565904	-0.02911268	-0.0684939	-0.04506056	0.05938637	0.01628973	-0.01486085	0.01094436	
-0.0684939	-0.04506056	0.07046138	-0.03388806	-0.01512158	0.01031911	0.03587898	-0.004069245	
0.05938637	0.01628973	-0.01512158	0.01031911	0.03316831	0.001355661	-0.03119506	-0.08464889	
-0.01486085	0.01094436	0.03587898	-0.004069245	-0.03119506	-0.08464889	0.01709228	-0.01336789	

1.776e+10	0.1196143	-0.03546089	-0.08058638	0.00229321	0.08940212	0.02054316	-0.005009654	0.01773919	
-0.08058638	0.00229321	0.0960713	-0.02486541	-0.005588742	0.01722083	0.05846046	0.01733343	
0.08940212	0.02054316	-0.005588742	0.01722083	0.05361525	0.005374953	-0.07333943	-0.05099122	
-0.005009654	0.01773919	0.05846046	0.01733343	-0.07333943	-0.05099122	0.0320086	0.002511768	

1.778e+10	0.1362814	-0.05424397	-0.06405986	0.04671325	0.116798	0.007204037	0.006797938	0.01657838	
-0.06405986	0.04671325	0.1227987	-0.03223854	0.005862169	0.01642206	0.08948977	0.02196092	
0.116798	0.007204037	0.005862169	0.01642206	0.0726561	-0.002497087	-0.08840777	-0.0002005912	
0.006797938	0.01657838	0.08948977	0.02196092	-0.08840777	-0.0002005912	0.05328724	0.007159076	

1.78e+10	0.1397273	-0.07927617	-0.02658312	0.07371633	0.1322522	-0.01934843	0.01467157	0.008523978	
-0.02658312	0.07371633	0.140652	-0.0534624	0.01367968	0.009065718	0.1177097	0.008127643	
0.1322522	-0.01934843	0.01367968	0.009065718	0.08427274	-0.01914475	-0.07240109	0.04946278	
0.01467157	0.008523978	0.1177097	0.008127643	-0.07240109	0.04946278	0.0733868	-0.0005681669	

1.782e+10	0.1285719	-0.1018099	0.01895682	0.07575	0.1302411	-0.05033683	0.01565242	-0.001695698	
0.01895682	0.07575	0.1435474	-0.08048256	0.01520909	-0.0004906396	0.1332611	-0.01907954	
0.1302411	-0.05033683	0.01520909	-0.0004906396	0.08513198	-0.03916533	-0.03175405	0.0813191	
0.01565242	-0.001695698	0.1332611	-0.01907954	-0.03175405	0.0813191	0.08592459	-0.01752217	

1.784e+10	0.106781	-0.1137818	0.05835648	0.05245411	0.1109295	-0.07515294	0.01097037	-0.009443337	
0.05835648	0.05245411	0.1314531	-0.103793	0.01149315	-0.008155988	0.1310911	-0.05021619	
0.1109295	-0.07515294	0.01149315	-0.008155988	0.07498165	-0.05632442	0.01964633	0.08506372	
0.01097037	-0.009443337	0.1310911	-0.05021619	0.01964633	0.08506372	0.08752579	-0.03805548	

1.786e+10	0.08249987	-0.1107991	0.07862331	0.01053515	0.08061012	-0.0846756	0.003891802	-0.01286106	
0.07862331	0.01053515	0.1094713	-0.1161112	0.005195525	-0.01225952	0.1121398	-0.07491246	
0.08061012	-0.0846756	0.005195525	-0.01225952	0.05686868	-0.06475961	0.06457745	0.05927185	
0.003891802	-0.01286106	0.1121398	-0.07491246	0.06457745	0.05927185	0.07807735	-0.05589583	

1.788e+10	0.0650643	-0.09419292	0.07147059	-0.0366899	0.05015797	-0.07488267	-0.0031322	-0.01251603	
0.07147059	-0.0366899	0.08527314	-0.1144069	-0.001793882	-0.01295438	0.08269951	-0.0849824	
0.05015797	-0.07488267	-0.001793882	-0.01295438	0.03706183	-0.06086502	0.08737749	0.01205391	
-0.0031322	-0.01251603	0.08269951	-0.0849824	0.08737749	0.01205391	0.06063424	-0.06548131	

1.79e+10	0.06113133	-0.07084132	0.03757848	-0.07189323	0.03115239	-0.04924586	-0.009179848	-0.009176644	
0.03757848	-0.07189323	0.06647165	-0.1000517	-0.008519923	-0.01030248	0.0525821	-0.0769843	
0.03115239	-0.04924586	-0.008519923	-0.01030248	0.02352817	-0.04559085	0.07897842	-0.04041182	
-0.009179848	-0.009176644	0.0525821	-0.0769843	0.07897842	-0.04041182	0.04096423	-0.06353969	

1.792e+10	0.07160136	-0.0499628	-0.01118273	-0.08059993	0.03059654	-0.0176272	-0.01320247	-0.00284724	
-0.01118273	-0.08059993	0.05873256	-0.07768091	-0.0133531	-0.003988345	0.03195535	-0.05330901	
0.03059654	-0.0176272	-0.0133531	-0.003988345	0.02211887	-0.02508099	0.04138346	-0.07874037	
-0.01320247	-0.00284724	0.03195535	-0.05330901	0.04138346	-0.07874037	0.02599157	-0.05051773	

1.794e+10	0.0920173	-0.03892074	-0.05562183	-0.05883901	0.04810999	0.008189285	-0.01297592	0.0055347	
-0.05562183	-0.05883901	0.06500414	-0.05424596	-0.0136212	0.00475407	0.02832272	-0.02182955	
0.04810999	0.008189285	-0.0136212	0.00475407	0.03326002	-0.007850691	-0.01155072	-0.08802136	
-0.01297592	0.0055347	0.02832272	-0.02182955	-0.01155072	-0.08802136	0.02142057	-0.03101729	

1.796e+10	0.1151871	-0.04110012	-0.07845404	-0.01581911	0.0768803	0.0193909	-0.007157396	0.01254825	
-0.07845404	-0.01581911	0.08421591	-0.03796302	-0.008047707	0.01215415	0.04353058	0.006368737	
0.0768803	0.0193909	-0.008047707	0.01215415	0.05213516	-0.0002968224	-0.05969471	-0.06496301	
-0.007157396	0.01254825	0.04353058	0.006368737	-0.05969471	-0.06496301	0.02918056	-0.01223822	

1.798e+10	0.1335487	-0.0557551	-0.07241264	0.03132074	0.1068238	0.01256327	0.002105113	0.01416341	
-0.07241264	0.03132074	0.1100746	-0.03563802	0.001035846	0.01423135	0.07234766	0.02075902	
0.1068238	0.01256327	0.001035846	0.01423135	0.07170309	-0.004400623	-0.08539958	-0.01901083	
0.002105113	0.01416341	0.07234766	0.02075902	-0.08539958	-0.01901083	0.04644443	-0.001202563	

1.8e+10	0.1408939	-0.07819846	-0.04167014	0.06589019	0.1278536	-0.009817821	0.009942526	0.009420933	
-0.04167014	0.06589019	0.132794	-0.04866406	0.008935557	0.01016755	0.1041048	0.0160188	
0.1278536	-0.009817821	0.008935557	0.01016755	0.08573775	-0.0180881	-0.08046135	0.0325902	
0.009942526	0.009420933	0.1041048	0.0160188	-0.08046135	0.0325902	0.06685378	-0.001684542	

1.802e+10	0.1345659	-0.1008955	0.00231538	0.07751143	0.1328444	-0.04022196	0.01259973	0.001406562	
0.00231538	0.07751143	0.1440404	-0.07190379	0.01220186	0.002804463	0.1273447	-0.005650402	
0.1328444	-0.04022196	0.01220186	0.002804463	0.0903585	-0.03678451	-0.04773543	0.07201109	
0.01259973	0.001406562	0.1273447	-0.005650402	-0.04773543	0.07201109	0.08350768	-0.01297066	

1.804e+10	0.1167071	-0.1158304	0.0453543	0.06319163	0.1198558	-0.06833961	0.01004164	-0.005509946	
0.0453543	0.06319163	0.1406379	-0.09658548	0.01071673	-0.004028796	0.1344012	-0.03619629	
0.1198558	-0.06833961	0.01071673	-0.004028796	0.08435139	-0.05487477	0.001149997	0.08635134	
0.01004164	-0.005509946	0.1344012	-0.03619629	0.001149997	0.08635134	0.09145344	-0.03099798	

1.806e+10	0.09388321	-0.1175634	0.07379255	0.02704952	0.09304137	-0.08417853	0.004988561	-0.009002196	
0.07379255	0.02704952	0.125034	-0.1145003	0.006595827	-0.008304282	0.1235049	-0.06513881	
0.09304137	-0.08417853	0.006595827	-0.008304282	0.06934254	-0.06662966	0.04994169	0.07089927	
0.004988561	-0.009002196	0.1235049	-0.06513881	0.04994169	0.07089927	0.08867289	-0.05008498	

1.808e+10	0.0749519	-0.1055807	0.07720627	-0.0199094	0.0620006	-0.08164726	-3.278171e-05	-0.009534244	
0.07720627	-0.0199094	0.1033601	-0.1207287	0.001671508	-0.01013408	0.0987674	-0.08302856	
0.0620006	-0.08164726	0.001671508	-0.01013408	0.05020223	-0.0675087	0.08198078	0.03030284	
-3.278171e-05	-0.009534244	0.0987674	-0.08302856	0.08198078	0.03030284	0.0762628	-0.06433534	

1.81e+10	0.06733853	-0.08502408	0.05247458	-0.06150067	0.03848645	-0.06159119	-0.004450531	-0.008328106	
0.05247458	-0.06150067	0.08266583	-0.1144842	-0.003623204	-0.009900871	0.06857693	-0.08426063	
0.03848645	-0.06159119	-0.003623204	-0.009900871	0.03427993	-0.0565561	0.08535138	-0.02219102	
-0.004450531	-0.008328106	0.06857693	-0.08426063	0.08535138	-0.02219102	0.05828431	-0.06914133	

1.812e+10	0.07349804	-0.06452189	0.007188792	-0.08126967	0.03133748	-0.03210935	-0.008442332	-0.005295865	
0.007188792	-0.08126967	0.06895916	-0.09830484	-0.008837123	-0.006906802	0.04294379	-0.06863909	
0.03133748	-0.03210935	-0.008837123	-0.006906802	0.02842215	-0.03807573	0.05747024	-0.06773302	
-0.008442332	-0.005295865	0.04294379	-0.06863909	0.05747024	-0.06773302	0.040979	-0.06283528	

1.814e+10	0.09011538	-0.05173496	-0.04147694	-0.07044198	0.0423958	-0.00464961	-0.01073876	0.0002193198	
-0.04147694	-0.07044198	0.06641636	-0.07693866	-0.01191485	-0.0006932654	0.03045612	-0.04131572	
0.0423958	-0.00464961	-0.01191485	-0.0006932654	0.03496521	-0.01992116	0.007805854	-0.08875741	
-0.01073876	0.0002193198	0.03045612	-0.04131572	0.007805854	-0.08875741	0.03056952	-0.04756577	

1.816e+10	0.1108406	-0.05044525	-0.07424388	-0.03314871	0.0666065	0.01114204	-0.009021372	0.00689736	
-0.07424388	-0.03314871	0.07683827	-0.05712758	-0.01034778	0.006799807	0.0357424	-0.0116141	
0.0666065	0.01114204	-0.01034778	0.006799807	0.0506699	-0.009203714	-0.04476643	-0.07685471	
-0.009021372	0.00689736	0.0357424	-0.0116141	-0.04476643	-0.07685471	0.03107974	-0.02887198	

1.818e+10	0.1289851	-0.06064355	-0.07899356	0.01541203	0.09508136	0.01052396	-0.002941838	0.01116597	
-0.07899356	0.01541203	0.0976803	-0.04660786	-0.00409192	0.01170433	0.05729141	0.009695464	
0.09508136	0.01052396	-0.00409192	0.01170433	0.06933821	-0.009078445	-0.0803868	-0.03693981	
-0.002941838	0.01116597	0.05729141	0.009695464	-0.0803868	-0.03693981	0.04256231	-0.01368411	

1.82e+10	0.1388182	-0.07921581	-0.05560556	0.05700103	0.1181368	-0.005817745	0.004439422	0.01029783	
-0.05560556	0.05700103	0.1213252	-0.050329	0.003657276	0.01139655	0.08709329	0.01454817	
0.1181368	-0.005817745	0.003657276	0.01139655	0.08482815	-0.01876557	-0.08652803	0.01547532	
0.004439422	0.01029783	0.08709329	0.01454817	-0.08652803	0.01547532	0.06085155	-0.00771766	

1.822e+10	0.1368255	-0.1002145	-0.01376711	0.07791811	0.1280516	-0.03216672	0.009064236	0.005165957	
-0.01376711	0.07791811	0.1384198	-0.06697139	0.009004559	0.006682013	0.113869	0.001583375	
0.1280516	-0.03216672	0.009004559	0.006682013	0.09285435	-0.03487022	-0.0621399	0.06157848	
0.009064236	0.005165957	0.113869	0.001583375	-0.0621399	0.06157848	0.07935691	-0.01294002	

1.824e+10	0.1234193	-0.116341	0.03235187	0.07229982	0.1213294	-0.05944653	0.009351277	-0.0007984156	
0.03235187	0.07229982	0.1429496	-0.08965822	0.01033813	0.0006080963	0.1281588	-0.02369037	
0.1213294	-0.05944653	0.01033813	0.0006080963	0.09122554	-0.05259269	-0.01640653	0.08584324	
0.009351277	-0.0007984156	0.1281588	-0.02369037	-0.01640653	0.08584324	0.09187412	-0.02722133	

1.826e+10	0.1034736	-0.1214866	0.06800271	0.04197474	0.1001729	-0.07790385	0.006820503	-0.004891648	
0.06800271	0.04197474	0.1346141	-0.1098708	0.008655606	-0.004406256	0.125787	-0.05181228	
0.1001729	-0.07790385	0.008655606	-0.004406256	0.08025723	-0.06650316	0.03514768	0.08036955	
0.006820503	-0.004891648	0.125787	-0.05181228	0.03514768	0.08036955	0.09464356	-0.04556311	

1.828e+10	0.08495175	-0.1136235	0.08096088	-0.004067586	0.07240257	-0.08063451	0.003629611	-0.006967369	
0.08096088	-0.004067586	0.1178211	-0.1213529	0.005431253	-0.00789042	0.1086747	-0.07327445	
0.07240257	-0.08063451	0.005431253	-0.00789042	0.06331204	-0.07151847	0.07513986	0.04658869	
0.003629611	-0.006967369	0.1086747	-0.07327445	0.07513986	0.04658869	0.08718421	-0.06187618	

1.83e+10	0.07561043	-0.09649544	0.06498888	-0.05053238	0.04882071	-0.06671482	0.0002345133	-0.008058088	
0.06498888	-0.05053238	0.09888642	-0.1219317	0.0009456671	-0.01000039	0.08335003	-0.08146579	
0.04882071	-0.06671482	0.0009456671	-0.01000039	0.04681359	-0.06526091	0.08918008	-0.004702917	
0.0002345133	-0.008058088	0.08335003	-0.08146579	0.08918008	-0.004702917	0.0724257	-0.0708824	

1.832e+10	0.07878029	-0.07806852	0.02403672	-0.07980471	0.03842931	-0.04228809	-0.004067665	-0.007894474	
0.02403672	-0.07980471	0.08334143	-0.1128765	-0.004839561	-0.009757782	0.05836482	-0.07458274	
0.03842931	-0.04228809	-0.004839561	-0.009757782	0.03779022	-0.05033733	0.07091597	-0.05565921	
-0.004067665	-0.007894474	0.05836482	-0.07458274	0.07091597	-0.05565921	0.05569977	-0.06998659	

1.834e+10	0.09183609	-0.06572152	-0.02706291	-0.07940591	0.04414131	-0.01740553	-0.008615984	-0.004892571	
-0.02706291	-0.07940591	0.07516765	-0.09705587	-0.01030215	-0.005727042	0.0415591	-0.05537567	
0.04414131	-0.01740553	-0.01030215	-0.005727042	0.03981675	-0.03330733	0.02585125	-0.08695462	
-0.008615984	-0.004892571	0.0415591	-0.05537567	0.02585125	-0.08695462	0.04280503	-0.05979605	

1.836e+10	0.1090455	-0.06296761	-0.06822481	-0.04880816	0.06239841	-0.0009731738	-0.01069046	0.001238819	
-0.06822481	-0.04880816	0.07725617	-0.07866862	-0.01235195	0.001591086	0.03835443	-0.03007371	
0.06239841	-0.0009731738	-0.01235195	0.001591086	0.05128276	-0.02105037	-0.02931754	-0.08602126	
-0.01069046	0.001238819	0.03835443	-0.03007371	-0.02931754	-0.08602126	0.03825051	-0.04389684	

1.838e+10	0.1249466	-0.06973589	-0.08342559	-0.0002620901	0.08606532	0.002260464	-0.008022001	0.007820147	
-0.08342559	-0.0002620901	0.09035326	-0.06408027	-0.009088818	0.008934675	0.05023805	-0.007316313	
0.08606532	0.002260464	-0.009088818	0.008934675	0.06728072	-0.01733485	-0.07346827	-0.05314309	
-0.008022001	0.007820147	0.05023805	-0.007316313	-0.07346827	-0.05314309	0.04399795	-0.02788642	

1.84e+10	0.1350357	-0.08398042	-0.06791373	0.04730682	0.1071849	-0.00809295	-0.00155693	0.01104177	
-0.06791373	0.04730682	0.1104872	-0.05994222	-0.001885063	0.01248651	0.07316635	0.0043069	
0.1071849	-0.00809295	-0.001885063	0.01248651	0.08255263	-0.02254204	-0.09024842	-0.001244433	
-0.00155693	0.01104177	0.07316635	0.0043069	-0.09024842	-0.001244433	0.05841475	-0.01788371	

1.842e+10	0.1358735	-0.1017019	-0.02872142	0.07706485	0.118796	-0.02838448	0.005077812	0.009387692	
-0.02872142	0.07706485	0.1294263	-0.06870133	0.005561515	0.01085974	0.09827425	0.0003851007	
0.118796	-0.02838448	0.005561515	0.01085974	0.09286741	-0.03473279	-0.0744367	0.05034061	
0.005077812	0.009387692	0.09827425	0.0003851007	-0.0744367	0.05034061	0.07633982	-0.01792924	

1.844e+10	0.1265368	-0.1168548	0.01990515	0.0796989	0.1168104	-0.05155117	0.008852971	0.004629795	
0.01990515	0.0796989	0.1394555	-0.08643573	0.0102008	0.005678856	0.1159564	-0.01688955	
0.1168104	-0.05155117	0.0102008	0.005678856	0.09533701	-0.05042297	-0.03252565	0.08359636	
0.008852971	0.004629795	0.1159564	-0.01688955	-0.03252565	0.08359636	0.09115284	-0.02807014	

1.846e+10	0.1103117	-0.123416	0.06183353	0.05474995	0.1019301	-0.06907418	0.009413518	-0.0005313078	
0.06183353	0.05474995	0.1377199	-0.1055083	0.01131526	-0.0005156632	0.1203742	-0.04020191	
0.1019301	-0.06907418	0.01131526	-0.0005156632	0.08898475	-0.06485312	0.02075591	0.08747629	
0.009413518	-0.0005313078	0.1203742	-0.04020191	0.02075591	0.08747629	0.09767779	-0.04448346	

1.848e+10	0.09409975	-0.118618	0.08287769	0.009959742	0.08003693	-0.07427345	0.007942389	-0.004911066	
0.08287769	0.009959742	0.1268156	-0.1191086	0.009542455	-0.006238938	0.1113805	-0.06085279	
0.08003693	-0.07427345	0.009542455	-0.006238938	0.07569979	-0.07293666	0.06727777	0.06050068	
0.007942389	-0.004911066	0.1113805	-0.06085279	0.06727777	0.06050068	0.09401241	-0.06111304	

1.85e+10	0.08526035	-0.1051976	0.07454324	-0.03988937	0.06021364	-0.06559434	0.004863958	-0.008597717	
0.07454324	-0.03988937	0.1120491	-0.1241944	0.005184943	-0.01077544	0.09353222	-0.07236817	
0.06021364	-0.06559434	0.005184943	-0.01077544	0.06064197	-0.07141554	0.09061485	0.01123753	
0.004863958	-0.008597717	0.09353222	-0.07236817	0.09061485	0.01123753	0.08215719	-0.07210321	

1.852e+10	0.0871411	-0.09023094	0.03817618	-0.07650937	0.05028803	-0.04772156	-0.0003559573	-0.01087918	
0.03817618	-0.07650937	0.09821397	-0.1212539	-0.001619764	-0.01273238	0.07351506	-0.0723137	
0.05028803	-0.04772156	-0.001619764	-0.01273238	0.05021833	-0.06123697	0.08132507	-0.04337249	
-0.0003559573	-0.01087918	0.07351506	-0.0723137	0.08132507	-0.04337249	0.06707645	-0.07406589	

1.854e+10	0.09720507	-0.08048363	-0.01351223	-0.0850726	0.05282724	-0.02887775	-0.00710152	-0.009706551	
-0.01351223	-0.0850726	0.08826291	-0.1120655	-0.009233769	-0.01020846	0.05740202	-0.06197335	
0.05282724	-0.02887775	-0.009233769	-0.01020846	0.04843354	-0.0474379	0.04149113	-0.08304041	
-0.00710152	-0.009706551	0.05740202	-0.06197335	0.04149113	-0.08304041	0.05434961	-0.06719287	

1.856e+10	0.1100756	-0.07843211	-0.06067013	-0.06145881	0.06485857	-0.0159584	-0.01240268	-0.003898654	
-0.06067013	-0.06145881	0.0847036	-0.09863012	-0.0142331	-0.002937172	0.04962894	-0.04491246	
0.06485857	-0.0159584	-0.0142331	-0.002937172	0.05484646	-0.03582493	-0.01443972	-0.09202097	
-0.01240268	-0.003898654	0.04962894	-0.04491246	-0.01443972	-0.09202097	0.04818691	-0.05444432	

1.858e+10	0.1216451	-0.08306472	-0.08492363	-0.01471465	0.08111668	-0.01214613	-0.01281976	0.004638157	
-0.08492363	-0.01471465	0.08994622	-0.08465735	-0.01358577	0.006395873	0.0527632	-0.02641724	
0.08111668	-0.01214613	-0.01358577	0.006395873	0.06616396	-0.02979219	-0.06512103	-0.06654586	
-0.01281976	0.004638157	0.0527632	-0.02641724	-0.06512103	-0.06654586	0.05068705	-0.04021729	

1.86e+10	0.12954	-0.09274835	-0.07740855	0.0369054	0.0963691	-0.01769399	-0.007500627	0.01164316	
-0.07740855	0.0369054	0.1035557	-0.07620011	-0.007115338	0.01339893	0.06613091	-0.01317225	
0.0963691	-0.01769399	-0.007115338	0.01339893	0.0788344	-0.03033117	-0.09130262	-0.01660896	
-0.007500627	0.01164316	0.06613091	-0.01317225	-0.09130262	-0.01660896	0.06149751	-0.02970522	

1.862e+10	0.1315156	-0.1055449	-0.04193745	0.07427536	0.1059114	-0.03069596	0.0008664414	0.01369161	
-0.04193745	0.07427536	0.1201053	-0.07805393	0.00214139	0.0148989	0.08457108	-0.01056147	
0.1059114	-0.03069596	0.00214139	0.0148989	0.08973848	-0.03714154	-0.08387013	0.03880674	
0.0008664414	0.01369161	0.08457108	-0.01056147	-0.08387013	0.03880674	0.07709536	-0.02741301	

1.864e+10	0.1259427	-0.1176121	0.007963301	0.08470048	0.1063183	-0.04676789	0.008347199	0.01051834	
0.007963301	0.08470048	0.131919	-0.08945698	0.01012768	0.01080036	0.1003439	-0.01923057	
0.1063183	-0.04676789	0.01012768	0.01080036	0.09580368	-0.04871967	-0.04638995	0.07961	
0.008347199	0.01051834	0.1003439	-0.01923057	-0.04638995	0.07961	0.09141668	-0.03480447	

1.866e+10	0.1142884	-0.1238705	0.05495853	0.06516603	0.09726428	-0.0597485	0.01257624	0.00420307	
0.05495853	0.06516603	0.1344917	-0.104552	0.01427728	0.003323478	0.1074421	-0.03458072	
0.09726428	-0.0597485	0.01427728	0.003323478	0.0947814	-0.06180136	0.007400589	0.09184031	
0.01257624	0.00420307	0.1074421	-0.03458072	0.007400589	0.09184031	0.09870053	-0.04905765	

1.868e+10	0.1018847	-0.1211936	0.08286564	0.02216193	0.08275111	-0.06433884	0.01308044	-0.003173917	
0.08286564	0.02216193	0.1288126	-0.1167674	0.01391371	-0.00504466	0.1045964	-0.04978462	
0.08275111	-0.06433884	0.01391371	-0.00504466	0.08675227	-0.07178303	0.05879666	0.07133874	
0.01308044	-0.003173917	0.1045964	-0.04978462	0.05879666	0.07133874	0.09631916	-0.06424661	

1.87e+10	0.09518508	-0.1114829	0.08118209	-0.02977753	0.06952078	-0.0592024	0.009772935	-0.01015949	
0.08118209	-0.02977753	0.1193032	-0.1228966	0.00915529	-0.01222478	0.09489937	-0.05959491	
0.06952078	-0.0592024	0.00915529	-0.01222478	0.07507282	-0.07484779	0.08960096	0.02483844	
0.009772935	-0.01015949	0.09489937	-0.05959491	0.08960096	0.02483844	0.08611919	-0.07426792	

1.872e+10	0.09702894	-0.1008949	0.04934586	-0.07176109	0.06322104	-0.04806743	0.00263103	-0.01479894	
0.04934586	-0.07176109	0.1099075	-0.1235353	0.0007486264	-0.01595745	0.08307995	-0.06236005	
0.06322104	-0.04806743	0.0007486264	-0.01595745	0.06488675	-0.0704971	0.08806746	-0.03158475	
0.00263103	-0.01479894	0.08307995	-0.06236005	0.08806746	-0.03158475	0.07319976	-0.07589064	

1.874e+10	0.1046253	-0.09511833	-0.00145522	-0.0874819	0.06496103	-0.03705011	-0.006810882	-0.01450671	
-0.00145522	-0.0874819	0.1021301	-0.1202531	-0.008973486	-0.01411271	0.07267661	-0.05915963	
0.06496103	-0.03705011	-0.008973486	-0.01411271	0.05996093	-0.06178635	0.05378242	-0.07710963	
-0.006810882	-0.01450671	0.07267661	-0.05915963	0.05378242	-0.07710963	0.06295621	-0.06990033	

1.876e+10	0.1128855	-0.09513927	-0.05213224	-0.07047841	0.07175659	-0.0302728	-0.01484723	-0.008091609	
-0.05213224	-0.07047841	0.09690216	-0.1134619	-0.0161712	-0.006425497	0.06568243	-0.05165357	
0.07175659	-0.0302728	-0.0161712	-0.006425497	0.0607844	-0.05262525	-0.0009769305	-0.09422894	
-0.01484723	-0.008091609	0.06568243	-0.05165357	-0.0009769305	-0.09422894	0.05860022	-0.05956751	

1.878e+10	0.1191358	-0.09860673	-0.08331921	-0.02707205	0.07999998	-0.0284584	-0.01739279	0.00250324	
-0.08331921	-0.02707205	0.09657387	-0.104035	-0.01734901	0.004535249	0.06378774	-0.04164936	
0.07999998	-0.0284584	-0.01734901	0.004535249	0.06597008	-0.04540612	-0.05546925	-0.07612313	
-0.01739279	0.00250324	0.06378774	-0.04164936	-0.05546925	-0.07612313	0.06112979	-0.04861786	

1.88e+10	0.1234469	-0.103882	-0.08333273	0.0261788	0.08755344	-0.03086335	-0.01269834	0.01272496	
-0.08333273	0.0261788	0.1030428	-0.0957466	-0.01146361	0.0142324	0.06815157	-0.03233888	
0.08755344	-0.03086335	-0.01146361	0.0142324	0.07424696	-0.04130496	-0.08907316	-0.02976889	
-0.01269834	0.01272496	0.06815157	-0.03233888	-0.08907316	-0.02976889	0.0700215	-0.0407224	

1.882e+10	0.125468	-0.1109384	-0.05266298	0.06923025	0.09280607	-0.03683824	-0.002658276	0.01794114	
-0.05266298	0.06923025	0.1141228	-0.0936515	-0.0008037622	0.01839445	0.07725982	-0.02782896	
0.09280607	-0.03683824	-0.0008037622	0.01839445	0.08432003	-0.04165524	-0.08949048	0.02708696	
-0.002658276	0.01794114	0.07725982	-0.02782896	-0.08949048	0.02708696	0.08273794	-0.03939487	

1.884e+10	0.1234513	-0.1187003	-0.003202052	0.08662284	0.09383371	-0.04489316	0.008343481	0.01613547	
-0.003202052	0.08662284	0.1239324	-0.09935248	0.01011819	0.01537421	0.0866384	-0.03008424	
0.09383371	-0.04489316	0.01011819	0.01537421	0.09356554	-0.0474952	-0.05728386	0.07337277	
0.008343481	0.01613547	0.0866384	-0.03008424	-0.05728386	0.07337277	0.094429	-0.04621125	

1.886e+10	0.1170053	-0.1237686	0.04709708	0.07265911	0.08977	-0.0518538	0.016158	0.008477743	
0.04709708	0.07265911	0.1276131	-0.1091114	0.017118	0.006726054	0.09178139	-0.03697406	
0.08977	-0.0518538	0.017118	0.006726054	0.09850511	-0.05777874	-0.004697098	0.09269006	
0.016158	0.008477743	0.09178139	-0.03697406	-0.004697098	0.09269006	0.09976428	-0.05889237	

1.888e+10	0.1093213	-0.1230796	0.08044199	0.03236031	0.0826318	-0.05433057	0.01841384	-0.002218505	
0.08044199	0.03236031	0.1252209	-0.1174176	0.01801878	-0.004257798	0.09155305	-0.04407529	
0.0826318	-0.05433057	0.01801878	-0.004257798	0.09700983	-0.06892092	0.04936643	0.07850191	
0.01841384	-0.002218505	0.09155305	-0.04407529	0.04936643	0.07850191	0.09628297	-0.07182203	

1.89e+10	0.1053471	-0.1175391	0.08455098	-0.02003376	0.0765959	-0.05161209	0.01427356	-0.01267801	
0.08455098	-0.02003376	0.1204659	-0.1216024	0.01258657	-0.01398911	0.08831645	-0.04825572	
0.0765959	-0.05161209	0.01258657	-0.01398911	0.09004715	-0.07672289	0.08562013	0.03581743	
0.01427356	-0.01267801	0.08831645	-0.04825572	0.08562013	0.03581743	0.086151	-0.07907572	

1.892e+10	0.1071666	-0.1119282	0.05741504	-0.06535647	0.07483228	-0.04656269	0.004460835	-0.01925606	
0.05741504	-0.06535647	0.1164265	-0.1228982	0.002321278	-0.01910651	0.08515953	-0.04963967	
0.07483228	-0.04656269	0.002321278	-0.01910651	0.08105859	-0.07906034	0.09070808	-0.02018592	
0.004460835	-0.01925606	0.08515953	-0.04963967	0.09070808	-0.02018592	0.07491338	-0.07811349	

1.894e+10	0.1119382	-0.1103706	0.008967832	-0.08649937	0.07678773	-0.04312123	-0.007931434	-0.01882214	
0.008967832	-0.08649937	0.1131544	-0.1232832	-0.009395414	-0.01731861	0.08299236	-0.05011557	
0.07678773	-0.04312123	-0.009395414	-0.01731861	0.07323351	-0.07655153	0.06234616	-0.06897324	
-0.007931434	-0.01882214	0.08299236	-0.05011557	0.06234616	-0.06897324	0.06780578	-0.07079868	

1.896e+10	0.1152966	-0.1123444	-0.04273232	-0.07562148	0.07935925	-0.04265019	-0.01800857	-0.01079072	
-0.04273232	-0.07562148	0.1096814	-0.1223965	-0.01813249	-0.008792937	0.08087173	-0.05042247	
0.07935925	-0.04265019	-0.01813249	-0.008792937	0.06810025	-0.07085568	0.01085218	-0.092269	
-0.01800857	-0.01079072	0.08087173	-0.05042247	0.01085218	-0.092269	0.06702426	-0.06127453	

1.898e+10	0.1161811	-0.1144422	-0.07850432	-0.03684097	0.08048161	-0.0434491	-0.02137003	0.002027589	
-0.07850432	-0.03684097	0.1072427	-0.1189547	-0.02027621	0.003575242	0.07853202	-0.04968234	
0.08048161	-0.0434491	-0.02027621	0.003575242	0.06636412	-0.06304768	-0.04454558	-0.08129678	
-0.02137003	0.002027589	0.07853202	-0.04968234	-0.04454558	-0.08129678	0.07206142	-0.05319041	

1.9e+10	0.1169513	-0.1151566	-0.08511978	0.01540751	0.08079883	-0.04369505	-0.01627655	0.01456826	
-0.08511978	0.01540751	0.1085264	-0.1141553	-0.01454048	0.01513092	0.07728389	-0.04761047	
0.08079883	-0.04369505	-0.01454048	0.01513092	0.06927533	-0.0543774	-0.08310916	-0.04024814	
-0.01627655	0.01456826	0.07728389	-0.04761047	-0.08310916	-0.04024814	0.08129657	-0.04906832	

1.902e+10	0.1191628	-0.1162861	-0.06025189	0.06161319	0.08172087	-0.04367155	-0.004528553	0.02163922	
-0.06025189	0.06161319	0.1137691	-0.1118748	-0.002787333	0.02108658	0.07798976	-0.04579292	
0.08172087	-0.04367155	-0.002787333	0.02108658	0.07767924	-0.04779232	-0.09056395	0.01522021	
-0.004528553	0.02163922	0.07798976	-0.04579292	-0.09056395	0.01522021	0.09224072	-0.05091541	

1.904e+10	0.1211264	-0.1196388	-0.01348467	0.08473676	0.08294595	-0.04460765	0.009181565	0.02031884	
-0.01348467	0.08473676	0.1192667	-0.1144966	0.01030723	0.01877362	0.07925858	-0.0457821	
0.08294595	-0.04460765	0.01030723	0.01877362	0.08977901	-0.04702715	-0.06468723	0.06434941	
0.009181565	0.02031884	0.07925858	-0.0457821	-0.06468723	0.06434941	0.1009362	-0.05936581	

1.906e+10	0.1204238	-0.1238993	0.03774482	0.07669746	0.08312678	-0.04628108	0.01951253	0.01120118	
0.03774482	0.07669746	0.1209805	-0.1199	0.01943004	0.009145984	0.07899523	-0.04674371	
0.08312678	-0.04628108	0.01943004	0.009145984	0.1009328	-0.05372342	-0.0156555	0.08930617	
0.01951253	0.01120118	0.07899523	-0.04674371	-0.0156555	0.08930617	0.1030245	-0.07196452	

1.908e+10	0.117525	-0.1260787	0.07490047	0.04068287	0.08218739	-0.04712442	0.02269528	-0.0023342	
0.07490047	0.04068287	0.1188486	-0.1236833	0.02118488	-0.003950102	0.07726059	-0.04619374	
0.08218739	-0.04712442	0.02118488	-0.003950102	0.1064966	-0.06565814	0.03845231	0.08157115	
0.02269528	-0.0023342	0.07726059	-0.04619374	0.03845231	0.08157115	0.09679505	-0.08323337	

1.91e+10	0.1155113	-0.1254769	0.0843617	-0.01010716	0.08183243	-0.04657045	0.01731939	-0.01549783	
0.0843617	-0.01010716	0.1164649	-0.1239618	0.0149958	-0.01567522	0.07669799	-0.043136	
0.08183243	-0.04657045	0.0149958	-0.01567522	0.104735	-0.07816945	0.07806211	0.04430761	
0.01731939	-0.01549783	0.07669799	-0.043136	0.07806211	0.04430761	0.0851307	-0.0876397	

1.912e+10	0.1161076	-0.1248024	0.06261594	-0.05681651	0.08330738	-0.0463226	0.004833338	-0.02316821	
0.06261594	-0.05681651	0.1166353	-0.1229896	0.002991955	-0.0216674	0.0796442	-0.03981332	
0.08330738	-0.0463226	0.002991955	-0.0216674	0.09723736	-0.08720016	0.08888808	-0.00882411	
0.004833338	-0.02316821	0.0796442	-0.03981332	0.08888808	-0.00882411	0.07410837	-0.08338815	

1.914e+10	0.1172361	-0.1264838	0.01812896	-0.08201832	0.08522739	-0.04844541	-0.01009139	-0.02172018	
0.01812896	-0.08201832	0.118359	-0.1236956	-0.01039257	-0.01940646	0.08511185	-0.03961599	
0.08522739	-0.04844541	-0.01039257	-0.01940646	0.08697591	-0.09087527	0.06709973	-0.05816872	
-0.01009139	-0.02172018	0.08511185	-0.03961599	0.06709973	-0.05816872	0.06896592	-0.07337706	

1.916e+10	0.1158527	-0.1292198	-0.03223788	-0.07691627	0.08473393	-0.05249633	-0.02116051	-0.01139376	
-0.03223788	-0.07691627	0.1190025	-0.1258988	-0.0198887	-0.009576062	0.08968353	-0.04341652	
0.08473393	-0.05249633	-0.0198887	-0.009576062	0.07658461	-0.08892788	0.02106874	-0.08560237	
-0.02116051	-0.01139376	0.08968353	-0.04341652	0.02106874	-0.08560237	0.07129296	-0.06255308	

1.918e+10	0.1121903	-0.1293563	-0.07015753	-0.04407802	0.08069952	-0.05536376	-0.02366691	0.003435757	
-0.07015753	-0.04407802	0.1183632	-0.1273205	-0.0216801	0.00395558	0.09111669	-0.04902846	
0.08069952	-0.05536376	-0.0216801	0.00395558	0.06845765	-0.08162225	-0.03179479	-0.08142343	
-0.02366691	0.003435757	0.09111669	-0.04902846	-0.03179479	-0.08142343	0.07979201	-0.05490106	

1.92e+10	0.1100778	-0.1255197	-0.08230999	0.00419845	0.07535799	-0.05417614	-0.01692384	0.01654992	
-0.08230999	0.00419845	0.118591	-0.1276548	-0.01517869	0.01582267	0.08987113	-0.05431647	
0.07535799	-0.05417614	-0.01517869	0.01582267	0.0653467	-0.06990678	-0.07215911	-0.04801505	
-0.01692384	0.01654992	0.08987113	-0.05431647	-0.07215911	-0.04801505	0.09206033	-0.0530868	

1.922e+10	0.1128852	-0.1206697	-0.06473095	0.05050063	0.07262708	-0.0491482	-0.004127586	0.0230788	
-0.06473095	0.05050063	0.1201515	-0.1292079	-0.003128031	0.02158957	0.08667907	-0.05890483	
0.07262708	-0.0491482	-0.003128031	0.02158957	0.07019963	-0.05682422	-0.08605484	0.001952858	
-0.004127586	0.0230788	0.08667907	-0.05890483	-0.08605484	0.001952858	0.1044215	-0.0589658	

1.924e+10	0.1196613	-0.1196237	-0.02386931	0.07831736	0.07457282	-0.04381112	0.009868239	0.02119534	
-0.02386931	0.07831736	0.1204921	-0.1330755	0.009935484	0.01935146	0.08108898	-0.0622375	
0.07457282	-0.04381112	0.009935484	0.01935146	0.08361739	-0.04814429	-0.06904779	0.05062793	
0.009868239	0.02119534	0.08108898	-0.0622375	-0.06904779	0.05062793	0.1117551	-0.07174001	

1.926e+10	0.1257314	-0.1239274	0.02547296	0.07761796	0.07944605	-0.04151044	0.02035479	0.01175847	
0.02547296	0.07761796	0.1172241	-0.1368596	0.01926978	0.01000216	0.07324192	-0.0622963	
0.07944605	-0.04151044	0.01926978	0.01000216	0.1010692	-0.04938647	-0.02742092	0.08068687	
0.02035479	0.01175847	0.07324192	-0.0622963	-0.02742092	0.08068687	0.1101869	-0.0870922	

1.928e+10	0.1278121	-0.1307181	0.06543792	0.0486499	0.08432928	-0.04259224	0.02371963	-0.002140291	
0.06543792	0.0486499	0.1115708	-0.1367117	0.02147541	-0.002956736	0.06557735	-0.05694325	
0.08432928	-0.04259224	0.02147541	-0.002956736	0.1150324	-0.06107372	0.02369454	0.08148281	
0.02371963	-0.002140291	0.06557735	-0.05694325	0.02369454	0.08148281	0.09941175	-0.09854798	

1.93e+10	0.1264476	-0.1366801	0.08132633	0.001920538	0.08788624	-0.04581699	0.01838206	-0.01582112	
0.08132633	0.001920538	0.1081231	-0.1314955	0.0158764	-0.01479877	0.06249706	-0.04654486	
0.08788624	-0.04581699	0.0158764	-0.01479877	0.1199354	-0.07855229	0.06590932	0.05295269	
0.01838206	-0.01582112	0.06249706	-0.04654486	0.06590932	0.05295269	0.08381782	-0.1005584	

1.932e+10	0.1235126	-0.1411768	0.06719482	-0.04527231	0.08983274	-0.05059336	0.005646524	-0.02404388	
0.06719482	-0.04527231	0.1106633	-0.124937	0.004475068	-0.02133165	0.06740207	-0.03544993	
0.08983274	-0.05059336	0.004475068	-0.02133165	0.1146378	-0.09541435	0.0840785	0.005481616	
0.005646524	-0.02404388	0.06740207	-0.03544993	0.0840785	0.005481616	0.07090495	-0.09194574	

1.934e+10	0.1190543	-0.1446197	0.02854943	-0.07533905	0.08912538	-0.05660215	-0.00986656	-0.0229761	
0.02854943	-0.07533905	0.1180231	-0.1223403	-0.008698176	-0.02013886	0.07911733	-0.02979027	
0.08912538	-0.05660215	-0.008698176	-0.02013886	0.1015275	-0.1064729	0.07169913	-0.04368465	
-0.00986656	-0.0229761	0.07911733	-0.02979027	0.07169913	-0.04368465	0.06692022	-0.07712416	

1.936e+10	0.1124436	-0.1455691	-0.01998526	-0.07755641	0.08439583	-0.06196316	-0.02170521	-0.01265303	
-0.01998526	-0.07755641	0.1253972	-0.1255549	-0.01888999	-0.01151693	0.09211939	-0.03286385	
0.08439583	-0.06196316	-0.01888999	-0.01151693	0.08465762	-0.1086653	0.03339341	-0.07668243	
-0.02170521	-0.01265303	0.09211939	-0.03286385	0.03339341	-0.07668243	0.07328794	-0.06324929	

1.938e+10	0.1056998	-0.1413999	-0.06067036	-0.05165278	0.07638554	-0.06323879	-0.02495794	0.002676047	
-0.06067036	-0.05165278	0.1292561	-0.1320473	-0.02232721	0.001565186	0.100609	-0.04296734	
0.07638554	-0.06323879	-0.02232721	0.001565186	0.06907277	-0.1008178	-0.01677485	-0.08157611	
-0.02495794	0.002676047	0.100609	-0.04296734	-0.01677485	-0.08157611	0.08677522	-0.05593353	

1.94e+10	0.1036336	-0.1323163	-0.07898904	-0.007216368	0.06912024	-0.05836359	-0.01852393	0.01682006	
-0.07898904	-0.007216368	0.1296799	-0.1386857	-0.01746482	0.01449443	0.1020587	-0.0556604	
0.06912024	-0.05836359	-0.01746482	0.01449443	0.06058887	-0.08436804	-0.06038952	-0.05672938	
-0.01852393	0.01682006	0.1020587	-0.0556604	-0.06038952	-0.05672938	0.1022673	-0.05741084	

1.942e+10	0.1096261	-0.1233707	-0.06834582	0.03944357	0.0673185	-0.0494974	-0.005110658	0.02439951	
-0.06834582	0.03944357	0.1280943	-0.1446977	-0.005650501	0.02226519	0.09698226	-0.06702606	
0.0673185	-0.0494974	-0.005650501	0.02226519	0.06410721	-0.0647346	-0.08150791	-0.01149871	
-0.005110658	0.02439951	0.09698226	-0.06702606	-0.08150791	-0.01149871	0.1149736	-0.06713669	

1.944e+10	0.1213366	-0.1209603	-0.03294984	0.07117945	0.07224914	-0.04194035	0.01007254	0.02271819	
-0.03294984	0.07117945	0.1242478	-0.1503821	0.008684023	0.02139152	0.08690513	-0.07456567	
0.07224914	-0.04194035	0.008684023	0.02139152	0.08000919	-0.05038838	-0.07271488	0.03717806	
0.01007254	0.02271819	0.08690513	-0.07456567	-0.07271488	0.03717806	0.1208993	-0.08261421	

1.946e+10	0.1322134	-0.1271607	0.01391434	0.07672551	0.08070214	-0.03976463	0.02138012	0.01260843	
0.01391434	0.07672551	0.1170135	-0.1540479	0.01958858	0.01208022	0.07368484	-0.07610328	
0.08070214	-0.03976463	0.01958858	0.01208022	0.1024021	-0.048484	-0.03791013	0.07156956	
0.02138012	0.01260843	0.07368484	-0.07610328	-0.03791013	0.07156956	0.1173723	-0.09945094	

1.948e+10	0.1369479	-0.1384379	0.0552494	0.05450804	0.08825571	-0.04314438	0.02482035	-0.00214662	
0.0552494	0.05450804	0.1078335	-0.1522875	0.0227649	-0.001682576	0.06073958	-0.06972775	
0.08825571	-0.04314438	0.0227649	-0.001682576	0.1220577	-0.06032201	0.009830056	0.07977162	
0.02482035	-0.00214662	0.06073958	-0.06972775	0.009830056	0.07977162	0.104488	-0.1115451	

1.95e+10	0.1348961	-0.1495494	0.07625075	0.0127113	0.09243622	-0.04980508	0.01910425	-0.01635235	
0.07625075	0.0127113	0.1017455	-0.1438919	0.01743022	-0.01446879	0.0533977	-0.05594784	
0.09243622	-0.04980508	0.01743022	-0.01446879	0.1314346	-0.08105847	0.05333764	0.05945412	
0.01910425	-0.01635235	0.0533977	-0.05594784	0.05333764	0.05945412	0.08668666	-0.1133773	

1.952e+10	0.1283226	-0.1574905	0.06929229	-0.03345543	0.09271565	-0.0575601	0.005906065	-0.024747	
0.06929229	-0.03345543	0.1035701	-0.1327594	0.005875203	-0.02180019	0.05617246	-0.03956221	
0.09271565	-0.0575601	0.005875203	-0.02180019	0.1279074	-0.1029468	0.0773781	0.01814887	
0.005906065	-0.024747	0.05617246	-0.03956221	0.0773781	0.01814887	0.0716834	-0.1035124	

1.954e+10	0.1192595	-0.1614114	0.03708057	-0.06688962	0.08899913	-0.0647994	-0.01001987	-0.02362826	
0.03708057	-0.06688962	0.1131634	-0.1256807	-0.007763145	-0.02124826	0.06895052	-0.02806662	
0.08899913	-0.0647994	-0.007763145	-0.02124826	0.1135437	-0.1188915	0.07351673	-0.02929897	
-0.01001987	-0.02362826	0.06895052	-0.02806662	0.07351673	-0.02929897	0.06648924	-0.08637234	

1.956e+10	0.1090046	-0.1602991	-0.008194968	-0.07550961	0.08130436	-0.06940613	-0.02218612	-0.01301132	
-0.008194968	-0.07550961	0.1251882	-0.1265944	-0.01872639	-0.0129571	0.08615406	-0.02679607	
0.08130436	-0.06940613	-0.01872639	-0.0129571	0.09321635	-0.1243377	0.04323235	-0.06589012	
-0.02218612	-0.01301132	0.08615406	-0.02679607	0.04323235	-0.06589012	0.07321	-0.0697535	

1.958e+10	0.1004738	-0.1527476	-0.04982414	-0.05663383	0.07137715	-0.06848411	-0.02545023	0.002755792	
-0.04982414	-0.05663383	0.1340651	-0.1340557	-0.02301292	0.0003092901	0.1004946	-0.0356482	
0.07137715	-0.06848411	-0.02301292	0.0003092901	0.07323752	-0.1174461	-0.002403713	-0.07840516	
-0.02545023	0.002755792	0.1004946	-0.0356482	-0.002403713	-0.07840516	0.08859711	-0.06042326	

1.96e+10	0.09861719	-0.1400166	-0.07283412	-0.01751282	0.06370485	-0.06073744	-0.01867866	0.01715186	
-0.07283412	-0.01751282	0.1378097	-0.1442247	-0.01870481	0.01390155	0.1073466	-0.05040138	
0.06370485	-0.06073744	-0.01870481	0.01390155	0.06060031	-0.09959166	-0.04675654	-0.06243257	
-0.01867866	0.01715186	0.1073466	-0.05040138	-0.04675654	-0.06243257	0.1067302	-0.06137754	

1.962e+10	0.1067286	-0.1280542	-0.06910737	0.0273755	0.06323132	-0.04917286	-0.004911758	0.02455864	
-0.06910737	0.0273755	0.1370215	-0.1546243	-0.006919651	0.02249268	0.1056596	-0.06613375	
0.06323132	-0.04917286	-0.006919651	0.02249268	0.06133671	-0.0766073	-0.07361149	-0.02410261	
-0.004911758	0.02455864	0.1056596	-0.06613375	-0.07361149	-0.02410261	0.1217618	-0.07200687	

1.964e+10	0.1220615	-0.1242845	-0.04050762	0.06157325	0.07098505	-0.04014178	0.01025704	0.0224696	
-0.04050762	0.06157325	0.1318351	-0.1641927	0.007853472	0.02221571	0.09637364	-0.07897646	
0.07098505	-0.04014178	0.007853472	0.02221571	0.0767461	-0.0579311	-0.07353432	0.02227136	
0.01025704	0.0224696	0.09637364	-0.07897646	-0.07353432	0.02227136	0.1292004	-0.08928587	

1.966e+10	0.1368124	-0.1316115	0.002006651	0.07311947	0.08271609	-0.03853776	0.0211165	0.01218916	
0.002006651	0.07311947	0.1218029	-0.1707236	0.01934272	0.01308518	0.08137056	-0.08556704	
0.08271609	-0.03853776	0.01934272	0.01308518	0.1011625	-0.05216465	-0.04721124	0.05982272	
0.0211165	0.01218916	0.08137056	-0.08556704	-0.04721124	0.05982272	0.1262955	-0.1083286	

1.968e+10	0.1439683	-0.1462477	0.04324975	0.05853411	0.09257293	-0.04449266	0.02410333	-0.002172113	
0.04324975	0.05853411	0.1086167	-0.1703957	0.0229781	-0.000770051	0.06428216	-0.08299762	
0.09257293	-0.04449266	0.0229781	-0.000770051	0.124629	-0.062002	-0.00463628	0.07554286	
0.02410333	-0.002172113	0.06428216	-0.08299762	-0.00463628	0.07554286	0.1130558	-0.1229257	

1.97e+10	0.141681	-0.1614482	0.06880752	0.0231202	0.09695153	-0.05462269	0.01849978	-0.01565236	
0.06880752	0.0231202	0.09778595	-0.1611526	0.01800919	-0.0137233	0.05094146	-0.07048935	
0.09695153	-0.05462269	0.01800919	-0.0137233	0.1381911	-0.0832307	0.03905248	0.06439449	
0.01849978	-0.01565236	0.05094146	-0.07048935	0.03905248	0.06439449	0.09344481	-0.1271074	

1.972e+10	0.1325247	-0.1722485	0.06942441	-0.02064487	0.09529122	-0.06517888	0.006073444	-0.02370431	
0.06942441	-0.02064487	0.09578656	-0.1461711	0.006827656	-0.02137713	0.04752119	-0.05164271	
0.09529122	-0.06517888	0.006827656	-0.02137713	0.1377764	-0.1077551	0.06859142	0.03049298	
0.006073444	-0.02370431	0.04752119	-0.05164271	0.06859142	0.03049298	0.07521051	-0.118248	

1.974e+10	0.1200611	-0.1767973	0.04459751	-0.05671201	0.08847197	-0.07345346	-0.00912136	-0.02302618	
0.04459751	-0.05671201	0.1047396	-0.1332916	-0.006619043	-0.02144892	0.05655125	-0.03420685	
0.08847197	-0.07345346	-0.006619043	-0.02144892	0.1245736	-0.1274371	0.07351062	-0.0141812	
-0.00912136	-0.02302618	0.05655125	-0.03420685	0.07351062	-0.0141812	0.06664098	-0.09974658	

1.976e+10	0.1071204	-0.1744695	0.003609815	-0.07160507	0.07783191	-0.07715026	-0.02119203	-0.01319088	
0.003609815	-0.07160507	0.1200703	-0.129297	-0.01788768	-0.01386011	0.07432168	-0.02589609	
0.07783191	-0.07715026	-0.01788768	-0.01386011	0.1033744	-0.136517	0.05194391	-0.05358886	
-0.02119203	-0.01319088	0.07432168	-0.02589609	0.05194391	-0.05358886	0.07167927	-0.0799131	

1.978e+10	0.09713405	-0.1648746	-0.03807709	-0.06006939	0.06605843	-0.07398882	-0.02486528	0.002114221	
-0.03807709	-0.06006939	0.1343553	-0.1351643	-0.02291636	-0.0009244223	0.09310708	-0.0295836	
0.06605843	-0.07398882	-0.02291636	-0.0009244223	0.08091246	-0.1322754	0.01172134	-0.07338379	
-0.02486528	0.002114221	0.09310708	-0.0295836	0.01172134	-0.07338379	0.08780802	-0.06726309	

1.98e+10	0.09494145	-0.1499391	-0.06511928	-0.02688013	0.05804243	-0.06347551	-0.01850564	0.0164243	
-0.06511928	-0.02688013	0.142902	-0.1472061	-0.01937049	0.01290386	0.1061508	-0.04268094	
0.05804243	-0.06347551	-0.01937049	0.01290386	0.06485527	-0.1155424	-0.03233196	-0.06643744	
-0.01850564	0.0164243	0.1061508	-0.04268094	-0.03233196	-0.06643744	0.1082716	-0.06628396	

1.982e+10	0.1037682	-0.1358657	-0.06797109	0.01530548	0.0587651	-0.04934649	-0.005008547	0.02384977	
-0.06797109	0.01530548	0.144701	-0.1613625	-0.007963452	0.02214359	0.1102231	-0.06015551	
0.0587651	-0.04934649	-0.007963452	0.02214359	0.06200591	-0.09176508	-0.06411521	-0.03562746	
-0.005008547	0.02384977	0.1102231	-0.06015551	-0.06411521	-0.03562746	0.1259194	-0.07668063	

1.984e+10	0.1208995	-0.1306419	-0.04636155	0.05089711	0.06902803	-0.0388239	0.009851779	0.02175748	
-0.04636155	0.05089711	0.1398933	-0.1750094	0.006942523	0.02251388	0.104913	-0.07715648	
0.06902803	-0.0388239	0.006942523	0.02251388	0.07475886	-0.0705034	-0.07236546	0.007401661	
0.009851779	0.02175748	0.104913	-0.07715648	-0.07236546	0.007401661	0.1354582	-0.09485943	

1.986e+10	0.138046	-0.1378245	-0.008958886	0.06752125	0.08378191	-0.03754065	0.0202611	0.01164265	
-0.008958886	0.06752125	0.12852	-0.1851574	0.01885379	0.0136835	0.09145363	-0.08932692	
0.08378191	-0.03754065	0.01885379	0.0136835	0.09839301	-0.06109901	-0.05478446	0.04695596	
0.0202611	0.01164265	0.09145363	-0.08932692	-0.05478446	0.04695596	0.1340627	-0.1154465	

1.988e+10	0.1471518	-0.1538457	0.03085021	0.06018036	0.09584449	-0.04562516	0.02282755	-0.002154543	
0.03085021	0.06018036	0.1124602	-0.1877213	0.02281627	-0.0001826032	0.07293214	-0.09267356	
0.09584449	-0.04562516	0.02281627	-0.0001826032	0.1231575	-0.06751618	-0.01822491	0.06932132	
0.02282755	-0.002154543	0.07293214	-0.09267356	-0.01822491	0.06932132	0.1216805	-0.1322616	

1.99e+10	0.1454	-0.1712497	0.05946091	0.03172517	0.1005932	-0.05878427	0.01730079	-0.01469447	
0.05946091	0.03172517	0.0972017	-0.1797633	0.01799153	-0.01316877	0.05494061	-0.08485704	
0.1005932	-0.05878427	0.01799153	-0.01316877	0.1395939	-0.08668685	0.02431457	0.06708775	
0.01730079	-0.01469447	0.05494061	-0.08485704	0.02431457	0.06708775	0.1017073	-0.1392151	

1.992e+10	0.1352882	-0.1837353	0.06676748	-0.008108132	0.09733133	-0.07178507	0.005728912	-0.02199206	
0.06676748	-0.008108132	0.09018862	-0.1631744	0.007007306	-0.02076662	0.04449036	-0.06738102	
0.09733133	-0.07178507	0.007007306	-0.02076662	0.1425206	-0.1109733	0.05803542	0.04120401	
0.005728912	-0.02199206	0.04449036	-0.06738102	0.05803542	0.04120401	0.08126726	-0.1327617	

1.994e+10	0.1214654	-0.1886004	0.04964665	-0.04495845	0.08790598	-0.08075727	-0.008230738	-0.02140829	
0.04964665	-0.04495845	0.0959399	-0.1454839	-0.006123309	-0.02091298	0.04670897	-0.04670408	
0.08790598	-0.08075727	-0.006123309	-0.02091298	0.1321583	-0.1319601	0.07102879	0.0006749179	
-0.008230738	-0.02140829	0.04670897	-0.04670408	0.07102879	0.0006749179	0.06918912	-0.1147323	

1.996e+10	0.1080889	-0.1857154	0.01435855	-0.06482075	0.07523503	-0.08330517	-0.01950101	-0.01244745	
0.01435855	-0.06482075	0.1119995	-0.1355574	-0.01715979	-0.01359094	0.06102648	-0.03160745	
0.07523503	-0.08330517	-0.01715979	-0.01359094	0.1129525	-0.1432693	0.05844957	-0.03997483	
-0.01950101	-0.01244745	0.06102648	-0.03160745	0.05844957	-0.03997483	0.07131316	-0.09294383	

1.998e+10	0.09883611	-0.1762031	-0.02530743	-0.06038092	0.06314302	-0.07831551	-0.02305303	0.001810265	
-0.02530743	-0.06038092	0.1306463	-0.1375138	-0.02207213	-0.000936674	0.0811379	-0.02806639	
0.06314302	-0.07831551	-0.02207213	-0.000936674	0.09169893	-0.141935	0.02490204	-0.06589786	
-0.02305303	0.001810265	0.0811379	-0.02806639	0.02490204	-0.06589786	0.08666341	-0.0771519	

2e+10	0.09712201	-0.1630336	-0.05437086	-0.034332	0.05622855	-0.0669987	-0.01698493	0.01518628	
-0.05437086	-0.034332	0.1446873	-0.1493891	-0.01833991	0.01250595	0.09915782	-0.03640636	
0.05622855	-0.0669987	-0.01833991	0.01250595	0.07573531	-0.1289897	-0.01708872	-0.06783257	
-0.01698493	0.01518628	0.09915782	-0.03640636	-0.01708872	-0.06783257	0.1083694	-0.07372524	

2.002e+10	0.1040408	-0.1516523	-0.06304261	0.002521032	0.05766629	-0.05392164	-0.004253003	0.02167774	
-0.06304261	0.002521032	0.1504625	-0.1665903	-0.006979442	0.02088358	0.1094626	-0.05281967	
0.05766629	-0.05392164	-0.006979442	0.02088358	0.0707165	-0.1097263	-0.05226441	-0.04572181	
-0.004253003	0.02167774	0.1094626	-0.05281967	-0.05226441	-0.04572181	0.1279627	-0.08319527	

2.004e+10	0.1163032	-0.146854	-0.05003139	0.03691329	0.06639061	-0.04468163	0.009015215	0.01912797	
-0.05003139	0.03691329	0.1467874	-0.184438	0.006873397	0.02032526	0.1095175	-0.07197238	
0.06639061	-0.04468163	0.006873397	0.02032526	0.07776623	-0.09160152	-0.0686067	-0.007986607	
0.009015215	0.01912797	0.1095175	-0.07197238	-0.0686067	-0.007986607	0.1390555	-0.101468	

2.006e+10	0.1290154	-0.1496029	-0.02076676	0.05822336	0.07838108	-0.04209804	0.01755528	0.009966302	
-0.02076676	0.05822336	0.134285	-0.1980104	0.01693184	0.01180874	0.09950292	-0.08828074	
0.07838108	-0.04209804	0.01693184	0.01180874	0.09366741	-0.08064351	-0.06093573	0.03222297	
0.01755528	0.009966302	0.09950292	-0.08828074	-0.06093573	0.03222297	0.1388327	-0.1223932	

2.008e+10	0.1386408	-0.1585411	0.01554466	0.05998147	0.0898667	-0.04633799	0.01942076	-0.001556042	
0.01554466	0.05998147	0.1162178	-0.2027308	0.01982997	-0.0002025783	0.08225323	-0.09686966	
0.0898667	-0.04633799	0.01982997	-0.0002025783	0.113319	-0.08004741	-0.03184311	0.06117004	
0.01942076	-0.001556042	0.08225323	-0.09686966	-0.03184311	0.06117004	0.1278398	-0.1397475	

2.01e+10	0.1424986	-0.1712326	0.04711012	0.04080951	0.09745009	-0.0562515	0.01503275	-0.0118956	
0.04711012	0.04080951	0.09843512	-0.1961683	0.01564343	-0.0111131	0.06282679	-0.09466942	
0.09745009	-0.0562515	0.01564343	-0.0111131	0.1305169	-0.09037085	0.008721076	0.06847688	
0.01503275	-0.0118956	0.06282679	-0.09466942	0.008721076	0.06847688	0.1093493	-0.1483178	

2.012e+10	0.1396245	-0.1837886	0.06226728	0.006503574	0.09856025	-0.06873357	0.005781919	-0.01832341	
0.06226728	0.006503574	0.08809092	-0.1798557	0.0064546	-0.01762849	0.04776849	-0.08166415	
0.09856025	-0.06873357	0.0064546	-0.01762849	0.1393854	-0.108212	0.04632201	0.05120447	
0.005781919	-0.01832341	0.04776849	-0.08166415	0.04632201	0.05120447	0.08917323	-0.1447112	

2.014e+10	0.1317374	-0.1929462	0.0546026	-0.03055014	0.09316043	-0.07986789	-0.005878329	-0.01856456	
0.0546026	-0.03055014	0.09042147	-0.1602956	-0.004669506	-0.01796507	0.04310824	-0.06211481	
0.09316043	-0.07986789	-0.004669506	-0.01796507	0.1376052	-0.1272588	0.06719752	0.01540633	
-0.005878329	-0.01856456	0.04310824	-0.06211481	0.06719752	0.01540633	0.07513794	-0.1294426	

2.016e+10	0.1212497	-0.1975595	0.02686429	-0.05601741	0.08312224	-0.08683972	-0.01589756	-0.01162248	
0.02686429	-0.05601741	0.1048031	-0.1464415	-0.01408482	-0.01191103	0.05092889	-0.04364825	
0.08312224	-0.08683972	-0.01408482	-0.01191103	0.1271481	-0.1417637	0.06364641	-0.02574454	
-0.01589756	-0.01162248	0.05092889	-0.04364825	0.06364641	-0.02574454	0.07372718	-0.108356	

2.018e+10	0.1096209	-0.1971766	-0.00984161	-0.06063652	0.0707212	-0.08827448	-0.01960519	0.0003319416	
-0.00984161	-0.06063652	0.1247871	-0.1442565	-0.01816906	-0.001413984	0.0679151	-0.03343015	
0.0707212	-0.08827448	-0.01816906	-0.001413984	0.1119269	-0.1489047	0.03734379	-0.05711514	
-0.01960519	0.0003319416	0.0679151	-0.03343015	0.03734379	-0.05711514	0.08607652	-0.09065502	

2.02e+10	0.09872257	-0.1904877	-0.04201163	-0.04400877	0.05828357	-0.08303691	-0.0150074	0.01179694	
-0.04201163	-0.04400877	0.1423623	-0.1540391	-0.01520937	0.00924744	0.08742083	-0.03478721	
0.05828357	-0.08303691	-0.01520937	0.00924744	0.09542505	-0.1478496	-0.001671657	-0.06786642	
-0.0150074	0.01179694	0.08742083	-0.03478721	-0.001671657	-0.06786642	0.1070242	-0.08412604	

2.022e+10	0.09302858	-0.1769906	-0.05928112	-0.01262222	0.04978487	-0.07047266	-0.004833955	0.01760957	
-0.05928112	-0.01262222	0.1516224	-0.1717883	-0.006905094	0.01586548	0.1026532	-0.0467082	
0.04978487	-0.07047266	-0.006905094	0.01586548	0.08123287	-0.1378565	-0.03974041	-0.05487906	
-0.004833955	0.01760957	0.1026532	-0.0467082	-0.03974041	-0.05487906	0.1278622	-0.0912436	

2.024e+10	0.0979444	-0.160951	-0.05608145	0.02310365	0.05068059	-0.05346036	0.005956962	0.01632405	
-0.05608145	0.02310365	0.1501801	-0.1914561	0.00330806	0.01658837	0.1088719	-0.06476681	
0.05068059	-0.05346036	0.00330806	0.01658837	0.07497655	-0.1200622	-0.06391695	-0.02268441	
0.005956962	0.01632405	0.1088719	-0.06476681	-0.06391695	-0.02268441	0.1408421	-0.1085844	

2.026e+10	0.1137906	-0.1512193	-0.03313547	0.05094624	0.06318298	-0.03980847	0.01353246	0.009626264	
-0.03313547	0.05094624	0.1390117	-0.2074026	0.01200705	0.01148863	0.1046224	-0.0833099	
0.06318298	-0.03980847	0.01200705	0.01148863	0.08153679	-0.1007111	-0.06560328	0.01773798	
0.01353246	0.009626264	0.1046224	-0.0833099	-0.06560328	0.01773798	0.1423558	-0.1295656	

2.028e+10	0.1332586	-0.1541965	0.001686615	0.06087664	0.08233768	-0.03713883	0.01598988	0.000404635	
0.001686615	0.06087664	0.1211492	-0.2152599	0.01608352	0.00238235	0.0911213	-0.09694953	
0.08233768	-0.03713883	0.01608352	0.00238235	0.09969875	-0.08897829	-0.04388371	0.05205823	
0.01598988	0.000404635	0.0911213	-0.09694953	-0.04388371	0.05205823	0.1328476	-0.1476665	

2.03e+10	0.1469471	-0.1685733	0.03612789	0.04927583	0.09917551	-0.04697962	0.01316431	-0.008269165	
0.03612789	0.04927583	0.1015451	-0.2118839	0.01404981	-0.007086918	0.07197372	-0.101232	
0.09917551	-0.04697962	0.01404981	-0.007086918	0.1217997	-0.09059837	-0.006407687	0.06792544	
0.01316431	-0.008269165	0.07197372	-0.101232	-0.006407687	0.06792544	0.1153984	-0.157672	

2.032e+10	0.1499596	-0.1875488	0.05806783	0.01999209	0.1068788	-0.06459051	0.006335572	-0.01390793	
0.05806783	0.01999209	0.08736229	-0.1971071	0.007276601	-0.01324704	0.05326336	-0.09374523	
0.1068788	-0.06459051	0.007276601	-0.01324704	0.138906	-0.104525	0.0335713	0.05962568	
0.006335572	-0.01390793	0.05326336	-0.09374523	0.0335713	0.05962568	0.09531043	-0.1560333	

2.034e+10	0.1429602	-0.204396	0.05938724	-0.01696173	0.1035362	-0.0831471	-0.002383916	-0.01504126	
0.05938724	-0.01696173	0.08560192	-0.1759852	-0.001181312	-0.01450498	0.04239958	-0.07631801	
0.1035362	-0.0831471	-0.001181312	-0.01450498	0.1455149	-0.1249506	0.06185769	0.02985391	
-0.002383916	-0.01504126	0.04239958	-0.07631801	0.06185769	0.02985391	0.08004033	-0.1423506	

2.036e+10	0.1291592	-0.2151016	0.03898249	-0.04823225	0.09092003	-0.09685048	-0.01046853	-0.01119083	
0.03898249	-0.04823225	0.09833989	-0.1582543	-0.008617155	-0.01131163	0.04446135	-0.05581355	
0.09092003	-0.09685048	-0.008617155	-0.01131163	0.1407161	-0.1450355	0.0680637	-0.011001	
-0.01046853	-0.01119083	0.04446135	-0.05581355	0.0680637	-0.011001	0.07686124	-0.1215825	

2.038e+10	0.1120318	-0.2175139	0.004083691	-0.0619736	0.07281426	-0.1018485	-0.01509001	-0.003221247	
0.004083691	-0.0619736	0.1197645	-0.1528347	-0.01331081	-0.004902702	0.05847519	-0.04121609	
0.07281426	-0.1018485	-0.01331081	-0.004902702	0.1268183	-0.1593182	0.04952098	-0.04822941	
-0.01509001	-0.003221247	0.05847519	-0.04121609	0.04952098	-0.04822941	0.08812327	-0.1032192	

2.04e+10	0.09586624	-0.2102231	-0.03234219	-0.05298502	0.0543556	-0.09604581	-0.01417071	0.006102872	
-0.03234219	-0.05298502	0.1397141	-0.1616891	-0.0140487	0.003184051	0.07771802	-0.03817127	
0.0543556	-0.09604581	-0.0140487	0.003184051	0.1078906	-0.1641354	0.01281056	-0.06798659	
-0.01417071	0.006102872	0.07771802	-0.03817127	0.01281056	-0.06798659	0.1087179	-0.09611106	

2.042e+10	0.08656704	-0.194068	-0.05683552	-0.02466562	0.0419649	-0.08007052	-0.007926855	0.01306305	
-0.05683552	-0.02466562	0.1504812	-0.1797056	-0.0101482	0.01075772	0.09438977	-0.04638211	
0.0419649	-0.08007052	-0.0101482	0.01075772	0.08944548	-0.1576767	-0.02856204	-0.06296467	
-0.007926855	0.01306305	0.09438977	-0.04638211	-0.02856204	-0.06296467	0.1292204	-0.1029229	

2.044e+10	0.08961253	-0.1746069	-0.06046452	0.01249959	0.04160198	-0.05895928	0.00104816	0.01500443	
-0.06046452	0.01249959	0.1500557	-0.1996956	-0.002199989	0.01503995	0.1035466	-0.061709	
0.04160198	-0.05895928	-0.002199989	0.01503995	0.07815619	-0.1413289	-0.059438	-0.03510954	
0.00104816	0.01500443	0.1035466	-0.061709	-0.059438	-0.03510954	0.1416953	-0.1197503	

2.046e+10	0.1051661	-0.1610786	-0.04211653	0.04470861	0.0547413	-0.04164887	0.009284303	0.01148072	
-0.04211653	0.04470861	0.1400795	-0.2161244	0.007185313	0.0137046	0.1034007	-0.07920458	
0.0547413	-0.04164887	0.007185313	0.0137046	0.07931097	-0.1210523	-0.06869187	0.005273492	
0.009284303	0.01148072	0.1034007	-0.07920458	-0.06869187	0.005273492	0.1429574	-0.1397111	

2.048e+10	0.1261725	-0.1604922	-0.008942642	0.0604208	0.07591058	-0.03623188	0.01389649	0.004076259	
-0.008942642	0.0604208	0.1233987	-0.225243	0.0139255	0.006742647	0.09418761	-0.09421392	
0.07591058	-0.03623188	0.0139255	0.006742647	0.09296227	-0.1055749	-0.05320616	0.04354874	
0.01389649	0.004076259	0.09418761	-0.09421392	-0.05320616	0.04354874	0.1339811	-0.156556	

2.05e+10	0.1430537	-0.1725785	0.02696265	0.05455479	0.09568564	-0.04462505	0.01351514	-0.0043989	
0.02696265	0.05455479	0.1041914	-0.2240924	0.01491289	-0.002753712	0.07802506	-0.1022003	
0.09568564	-0.04462505	0.01491289	-0.002753712	0.1132515	-0.101351	-0.01875487	0.06605821	
0.01351514	-0.0043989	0.07802506	-0.1022003	-0.01875487	0.06605821	0.1180256	-0.165839	

2.052e+10	0.1499207	-0.1912147	0.05320898	0.02948451	0.1065136	-0.06232883	0.008615045	-0.01104939	
0.05320898	0.02948451	0.08875103	-0.211699	0.01019424	-0.01052001	0.05964417	-0.09968973	
0.1065136	-0.06232883	0.01019424	-0.01052001	0.13207	-0.1092966	0.02232067	0.06494541	
0.008615045	-0.01104939	0.05964417	-0.09968973	0.02232067	0.06494541	0.09978985	-0.1647791	

2.054e+10	0.1464228	-0.2095645	0.06064252	-0.006183903	0.1058112	-0.08226802	0.000978192	-0.01390163	
0.06064252	-0.006183903	0.08417588	-0.1917035	0.002418727	-0.01391028	0.04601925	-0.08652413	
0.1058112	-0.08226802	0.002418727	-0.01391028	0.1433793	-0.1256119	0.05552887	0.04057256	
0.000978192	-0.01390163	0.04601925	-0.08652413	0.05552887	0.04057256	0.0854997	-0.152921	

2.056e+10	0.1351791	-0.2232424	0.0462504	-0.03991101	0.0950649	-0.09830172	-0.007032121	-0.01208725	
0.0462504	-0.03991101	0.09398131	-0.1728186	-0.005452544	-0.01263031	0.04338967	-0.06767725	
0.0950649	-0.09830172	-0.005452544	-0.01263031	0.1448195	-0.1446275	0.06888818	0.001428928	
-0.007032121	-0.01208725	0.04338967	-0.06767725	0.06888818	0.001428928	0.08176501	-0.1340631	

2.058e+10	0.1191389	-0.2298815	0.01493741	-0.05927999	0.07784721	-0.1064154	-0.01273272	-0.005937364	
0.01493741	-0.05927999	0.1141986	-0.1646902	-0.01133448	-0.007607845	0.05299738	-0.05168007	
0.07784721	-0.1064154	-0.01133448	-0.007607845	0.1370637	-0.1613001	0.05730035	-0.03840995	
-0.01273272	-0.005937364	0.05299738	-0.05168007	0.05730035	-0.03840995	0.0915551	-0.1166261	

2.06e+10	0.1016127	-0.2275095	-0.02180737	-0.05707796	0.05871218	-0.1043463	-0.01379909	0.002490308	
-0.02180737	-0.05707796	0.1349979	-0.1711457	-0.01378641	-0.000209354	0.06977694	-0.04535871	
0.05871218	-0.1043463	-0.01378641	-0.000209354	0.1223861	-0.1717692	0.02483082	-0.06434724	
-0.01379909	0.002490308	0.06977694	-0.04535871	0.02483082	-0.06434724	0.1108975	-0.1093751	

2.062e+10	0.08779908	-0.2152525	-0.05059901	-0.03416802	0.04332396	-0.09178935	-0.009735033	0.009875364	
-0.05059901	-0.03416802	0.1475091	-0.1882132	-0.01185395	0.007627645	0.0861237	-0.05003066	
0.04332396	-0.09178935	-0.01185395	0.007627645	0.1044121	-0.173004	-0.01657554	-0.06687853	
-0.009735033	0.009875364	0.0861237	-0.05003066	-0.01657554	-0.06687853	0.13068	-0.1157623	

2.064e+10	0.08411823	-0.1961869	-0.06097515	0.001096262	0.03780482	-0.07191911	-0.002322914	0.01344684	
-0.06097515	0.001096262	0.1484987	-0.2082952	-0.005609654	0.01336442	0.09650591	-0.06243247	
0.03780482	-0.07191911	-0.005609654	0.01336442	0.08872508	-0.1636905	-0.05185761	-0.04525422	
-0.002322914	0.01344684	0.09650591	-0.06243247	-0.05185761	-0.04525422	0.1426209	-0.1322627	

2.066e+10	0.09391305	-0.1783784	-0.04913529	0.03586949	0.04564552	-0.0521478	0.005591977	0.01222803	
-0.04913529	0.03586949	0.1395264	-0.2251646	0.003251329	0.01449687	0.09865738	-0.07795685	
0.04564552	-0.0521478	0.003251329	0.01449687	0.08178918	-0.1464946	-0.06838147	-0.007356159	
0.005591977	0.01222803	0.09865738	-0.07795685	-0.06838147	-0.007356159	0.1432428	-0.1516976	

2.068e+10	0.1133592	-0.170878	-0.01957871	0.05734799	0.06422222	-0.04131546	0.01137282	0.006909073	
-0.01957871	0.05734799	0.1238248	-0.2350037	0.01130496	0.009921167	0.09248888	-0.09229216	
0.06422222	-0.04131546	0.01130496	0.009921167	0.08718501	-0.1284817	-0.06023767	0.03312963	
0.01137282	0.006909073	0.09248888	-0.09229216	-0.06023767	0.03312963	0.1339089	-0.1674389	

2.07e+10	0.1331504	-0.177037	0.01670265	0.05801968	0.08523966	-0.0440784	0.01320957	-0.0006385685	
0.01670265	0.05801968	0.1052883	-0.2352427	0.01490998	0.001327926	0.07938591	-0.1013502	
0.08523966	-0.0440784	0.01490998	0.001327926	0.1025974	-0.1175681	-0.03039305	0.06165813	
0.01320957	-0.0006385685	0.07938591	-0.1013502	-0.03039305	0.06165813	0.1184802	-0.1754163	

2.072e+10	0.1452327	-0.1929124	0.04676812	0.03802233	0.1000195	-0.05821974	0.0105863	-0.00790488	
0.04676812	0.03802233	0.08950058	-0.2247337	0.01264829	-0.007463203	0.06300498	-0.1015177	
0.1000195	-0.05821974	0.01264829	-0.007463203	0.1213232	-0.1177799	0.01043914	0.06797407	
0.0105863	-0.00790488	0.06300498	-0.1015177	0.01043914	0.06797407	0.1016736	-0.1736664	

2.074e+10	0.1469913	-0.2116425	0.06012879	0.004446815	0.104131	-0.07728937	0.004364614	-0.01254756	
0.06012879	0.004446815	0.08326396	-0.2060959	0.006005973	-0.01302497	0.04947374	-0.09168327	
0.104131	-0.07728937	0.006005973	-0.01302497	0.1365096	-0.1279805	0.04758521	0.04973422	
0.004364614	-0.01254756	0.04947374	-0.09168327	0.04758521	0.04973422	0.08898793	-0.1623514	

2.076e+10	0.1399173	-0.2279312	0.05183646	-0.03086763	0.09780658	-0.09477124	-0.003542873	-0.01295945	
0.05183646	-0.03086763	0.09089285	-0.1870784	-0.002232934	-0.01392511	0.04509963	-0.07547851	
0.09780658	-0.09477124	-0.002232934	-0.01392511	0.1441382	-0.1439371	0.06756814	0.01337395	
-0.003542873	-0.01295945	0.04509963	-0.07547851	0.06756814	0.01337395	0.08605711	-0.1449367	

2.078e+10	0.1265169	-0.2388178	0.02470464	-0.05501139	0.08391803	-0.1062205	-0.01044449	-0.008658873	
0.02470464	-0.05501139	0.1097536	-0.1774983	-0.0095074	-0.01033922	0.05207875	-0.06059418	
0.08391803	-0.1062205	-0.0095074	-0.01033922	0.1432274	-0.1610829	0.06293147	-0.02792024	
-0.01044449	-0.008658873	0.05207875	-0.06059418	0.06293147	-0.02792024	0.09563403	-0.1289217	

2.08e+10	0.1093543	-0.2419227	-0.01132841	-0.05916116	0.06626867	-0.1090657	-0.01354095	-0.001015773	
-0.01132841	-0.05916116	0.1305574	-0.1823876	-0.01374307	-0.003385798	0.06634509	-0.05403265	
0.06626867	-0.1090657	-0.01374307	-0.003385798	0.1344317	-0.1755498	0.03538725	-0.05891291	
-0.01354095	-0.001015773	0.06634509	-0.05403265	0.03538725	-0.05891291	0.1141887	-0.122654	

2.082e+10	0.09262952	-0.2351537	-0.04317682	-0.04197296	0.04948747	-0.1020877	-0.01154408	0.006898045	
-0.04317682	-0.04197296	0.1437121	-0.1985962	-0.01353321	0.004917663	0.08068368	-0.05754261	
0.04948747	-0.1020877	-0.01353321	0.004917663	0.1195356	-0.1837386	-0.004807148	-0.06840229	
-0.01154408	0.006898045	0.08068368	-0.05754261	-0.004807148	-0.06840229	0.1330229	-0.1296169	

2.084e+10	0.08274382	-0.2191602	-0.05949853	-0.009562076	0.03915221	-0.08647901	-0.005528674	0.01206454	
-0.05949853	-0.009562076	0.1452319	-0.2183518	-0.008627706	0.01197582	0.08965182	-0.0680445	
0.03915221	-0.08647901	-0.008627706	0.01197582	0.1023793	-0.1824825	-0.04307602	-0.05323244	
-0.005528674	0.01206454	0.08965182	-0.0680445	-0.04307602	-0.05323244	0.1437851	-0.1463577	

2.086e+10	0.08533596	-0.1998643	-0.05416251	0.02647536	0.04006454	-0.0672863	0.002125493	0.01300951	
-0.05416251	0.02647536	0.1367307	-0.2348231	-0.000226165	0.01519032	0.09137344	-0.08101968	
0.04006454	-0.0672863	-0.000226165	0.01519032	0.08918648	-0.1711797	-0.06580452	-0.01894374	
0.002125493	0.01300951	0.09137344	-0.08101968	-0.06580452	-0.01894374	0.143014	-0.1653797	

2.088e+10	0.1001496	-0.1866374	-0.02890417	0.05279455	0.05265964	-0.05255497	0.009041231	0.009690106	
-0.02890417	0.05279455	0.1219754	-0.2443138	0.008899236	0.01280289	0.08623462	-0.09270212	
0.05265964	-0.05255497	0.008899236	0.01280289	0.08595326	-0.1541109	-0.06481279	0.02227888	
0.009041231	0.009690106	0.08623462	-0.09270212	-0.06481279	0.02227888	0.132582	-0.1798167	

2.09e+10	0.1198648	-0.1859082	0.006790537	0.05958129	0.07135271	-0.04878674	0.01312964	0.003022287	
0.006790537	0.05958129	0.1047941	-0.2449989	0.01497543	0.005170785	0.07567355	-0.1000184	
0.07135271	-0.04878674	0.01497543	0.005170785	0.09416251	-0.1388894	-0.04021576	0.0555559	
0.01312964	0.003022287	0.07567355	-0.1000184	-0.04021576	0.0555559	0.1171522	-0.1858114	

2.092e+10	0.1354773	-0.1967232	0.0396681	0.04461805	0.08784861	-0.05664929	0.01281382	-0.005063523	
0.0396681	0.04461805	0.08990773	-0.2360259	0.0152115	-0.004682866	0.06252595	-0.1002375	
0.08784861	-0.05664929	0.0152115	-0.004682866	0.1097316	-0.131891	-0.0008653191	0.06857054	
0.01281382	-0.005063523	0.06252595	-0.1002375	-0.0008653191	0.06857054	0.1018444	-0.1824609	

2.094e+10	0.1422884	-0.2131993	0.0578571	0.01360862	0.0964398	-0.0715442	0.007763188	-0.01180395	
0.0578571	0.01360862	0.08327364	-0.2193232	0.009569411	-0.01267785	0.05166068	-0.09232992	
0.0964398	-0.0715442	0.009569411	-0.01267785	0.126159	-0.1348589	0.03879905	0.05643186	
0.007763188	-0.01180395	0.05166068	-0.09232992	0.03879905	0.05643186	0.09150105	-0.1709639	

2.096e+10	0.1404451	-0.2298243	0.05485744	-0.02203364	0.09592736	-0.08764899	-0.0006180054	-0.01444979	
0.05485744	-0.02203364	0.08930557	-0.2016055	0.0004184855	-0.01583347	0.04842818	-0.07924477	
0.09592736	-0.08764899	0.0004184855	-0.01583347	0.1383885	-0.145607	0.06405653	0.02359233	
-0.0006180054	-0.01444979	0.04842818	-0.07924477	0.06405653	0.02359233	0.09051609	-0.1551109	

2.098e+10	0.1317017	-0.2434148	0.03202028	-0.04920344	0.0879332	-0.1007678	-0.009211033	-0.01143576	
0.03202028	-0.04920344	0.1062169	-0.1920548	-0.008821297	-0.01312747	0.05466119	-0.06764566	
0.0879332	-0.1007678	-0.008821297	-0.01312747	0.1439775	-0.1606009	0.06557377	-0.01759375	
-0.009211033	-0.01143576	0.05466119	-0.06764566	0.06557377	-0.01759375	0.1005527	-0.1416118	

2.1e+10	0.11765	-0.251613	-0.001871189	-0.05824695	0.07485873	-0.1082954	-0.01423178	-0.003688539	
-0.001871189	-0.05824695	0.1255294	-0.196021	-0.0147705	-0.005593095	0.06649867	-0.06353418	
0.07485873	-0.1082954	-0.0147705	-0.005593095	0.1420688	-0.176559	0.04320336	-0.05174401	
-0.01423178	-0.003688539	0.06649867	-0.06353418	0.04320336	-0.05174401	0.1178802	-0.1376012	

2.102e+10	0.1008434	-0.2516678	-0.03457903	-0.04654373	0.05963162	-0.1083664	-0.01349097	0.005379622	
-0.03457903	-0.04654373	0.1378187	-0.2109142	-0.01528593	0.003941828	0.07729757	-0.06790757	
0.05963162	-0.1083664	-0.01528593	0.003941828	0.1325855	-0.1899791	0.005698219	-0.06667194	
-0.01349097	0.005379622	0.07729757	-0.06790757	0.005698219	-0.06667194	0.1343833	-0.1456859	

2.104e+10	0.08637084	-0.2420093	-0.05487465	-0.01844604	0.04633339	-0.1002287	-0.007732689	0.01202181	
-0.05487465	-0.01844604	0.1389314	-0.22906	-0.01029604	0.01206363	0.08251549	-0.07714373	
0.04633339	-0.1002287	-0.01029604	0.01206363	0.1171395	-0.1967141	-0.03326655	-0.05759614	
-0.007732689	0.01202181	0.08251549	-0.07714373	-0.03326655	-0.05759614	0.1424595	-0.1620156	

2.106e+10	0.08056747	-0.2250533	-0.05552612	0.01637382	0.03971201	-0.08571667	0.0005279684	0.01418218	
-0.05552612	0.01637382	0.1307777	-0.243379	-0.001470868	0.01601962	0.0815796	-0.08656715	
0.03971201	-0.08571667	-0.001470868	0.01601962	0.1003128	-0.1934817	-0.05996043	-0.02808752	
0.0005279684	0.01418218	0.0815796	-0.08656715	-0.05996043	-0.02808752	0.1394874	-0.1789732	

2.108e+10	0.0870043	-0.2078987	-0.03579395	0.04530674	0.04287608	-0.06987156	0.008652277	0.01140929	
-0.03579395	0.04530674	0.1180628	-0.250635	0.008405959	0.01413195	0.07651141	-0.09319625	
0.04287608	-0.06987156	0.008405959	0.01413195	0.08881018	-0.1806612	-0.06493547	0.01129802	
0.008652277	0.01140929	0.07651141	-0.09319625	-0.06493547	0.01129802	0.1285109	-0.1898313	

2.11e+10	0.1030274	-0.1986413	-0.002981378	0.05715529	0.05480692	-0.05904743	0.0139647	0.004201304	
-0.002981378	0.05715529	0.1050329	-0.2507941	0.01553071	0.006300369	0.06979449	-0.09619798	
0.05480692	-0.05904743	0.01553071	0.006300369	0.08786827	-0.1633803	-0.04635588	0.04619435	
0.0139647	0.004201304	0.06979449	-0.09619798	-0.04635588	0.04619435	0.1155634	-0.1920867	

2.112e+10	0.1214209	-0.2009326	0.02994114	0.04775619	0.07062481	-0.05721126	0.01377737	-0.005202739	
0.02994114	0.04775619	0.09458692	-0.2451023	0.01612515	-0.004674414	0.06317895	-0.09594704	
0.07062481	-0.05721126	0.01612515	-0.004674414	0.09801217	-0.1491242	-0.01148848	0.06372266	
0.01377737	-0.005202739	0.06317895	-0.09594704	-0.01148848	0.06372266	0.1057603	-0.1877402	

2.114e+10	0.1353835	-0.2131493	0.05084864	0.0219273	0.08466457	-0.06450879	0.0074859	-0.01244387	
0.05084864	0.0219273	0.08884209	-0.2353498	0.00940347	-0.01337036	0.05760061	-0.09306703	
0.08466457	-0.06450879	0.00940347	-0.01337036	0.1150432	-0.1437413	0.02637426	0.05828769	
0.0074859	-0.01244387	0.05760061	-0.09306703	0.02637426	0.05828769	0.1008135	-0.1805398	

2.116e+10	0.1408809	-0.2309994	0.05364765	-0.01015332	0.09254136	-0.07835869	-0.001750384	-0.01378028	
0.05364765	-0.01015332	0.08932083	-0.223998	-0.0008537382	-0.01537131	0.0538002	-0.0878559	
0.09254136	-0.07835869	-0.0008537382	-0.01537131	0.1324474	-0.1492578	0.05407809	0.03306385	
-0.001750384	-0.01378028	0.0538002	-0.0878559	0.05407809	0.03306385	0.09995563	-0.1728842	

2.118e+10	0.1364513	-0.2493574	0.03876647	-0.03803457	0.09174741	-0.09448441	-0.00907573	-0.009196921	
0.03876647	-0.03803457	0.09660568	-0.2142469	-0.009050901	-0.01077116	0.05313955	-0.08064547	
0.09174741	-0.09448441	-0.009050901	-0.01077116	0.1441203	-0.1635645	0.06314244	-0.002811516	
-0.00907573	-0.009196921	0.05313955	-0.08064547	0.06314244	-0.002811516	0.1027322	-0.1652262	

2.12e+10	0.1231296	-0.2629491	0.01115903	-0.05341992	0.08234769	-0.1078077	-0.01163047	-0.001969234	
0.01115903	-0.05341992	0.109761	-0.2100964	-0.01219483	-0.003400268	0.05762193	-0.0733824	
0.08234769	-0.1078077	-0.01219483	-0.003400268	0.1464961	-0.1818272	0.05101233	-0.03783539	
-0.01163047	-0.001969234	0.05762193	-0.0733824	0.05101233	-0.03783539	0.1104091	-0.1587751	

2.122e+10	0.1044824	-0.2674454	-0.02092147	-0.05113889	0.06719061	-0.1140261	-0.009758877	0.004400152	
-0.02092147	-0.05113889	0.1245078	-0.2153586	-0.01109943	0.003176422	0.06714775	-0.07049238	
0.06719061	-0.1140261	-0.01109943	0.003176422	0.1391827	-0.1984711	0.02106748	-0.06060994	
-0.009758877	0.004400152	0.06714775	-0.07049238	0.02106748	-0.06060994	0.1230614	-0.1576702	

2.124e+10	0.086376	-0.2605665	-0.04692557	-0.03082434	0.05100578	-0.1109251	-0.005435841	0.008132238	
-0.04692557	-0.03082434	0.1337464	-0.2295136	-0.007650523	0.007847999	0.0770394	-0.07526102	
0.05100578	-0.1109251	-0.007650523	0.007847999	0.1243919	-0.2086197	-0.01724787	-0.062618	
-0.005435841	0.008132238	0.0770394	-0.07526102	-0.01724787	-0.062618	0.1356846	-0.1657447	

2.126e+10	0.07606017	-0.2439162	-0.05705638	0.001533935	0.03937894	-0.09907064	-0.000583341	0.009084691	
-0.05705638	0.001533935	0.1330516	-0.2465159	-0.002743775	0.01053351	0.08162212	-0.08567274	
0.03937894	-0.09907064	-0.002743775	0.01053351	0.1066823	-0.2087269	-0.05049951	-0.04211942	
-0.000583341	0.009084691	0.08162212	-0.08567274	-0.05049951	-0.04211942	0.141169	-0.1808702	

2.128e+10	0.07898341	-0.2243105	-0.04641554	0.03462229	0.03714038	-0.08256401	0.003710071	0.007971524	
-0.04641554	0.03462229	0.1236548	-0.2599478	0.003110623	0.0107271	0.07899325	-0.09673458	
0.03714038	-0.08256401	0.003110623	0.0107271	0.09275112	-0.1982456	-0.06633961	-0.005628998	
0.003710071	0.007971524	0.07899325	-0.09673458	-0.06633961	-0.005628998	0.1367785	-0.1961987	

2.13e+10	0.09425152	-0.2115433	-0.01798405	0.05567969	0.04554737	-0.06840915	0.007182862	0.005299727	
-0.01798405	0.05567969	0.1093734	-0.2664018	0.00870782	0.00770159	0.07065661	-0.1043005	
0.04554737	-0.06840915	0.00870782	0.00770159	0.08895305	-0.1816159	-0.05814128	0.03400225	
0.007182862	0.005299727	0.07065661	-0.1043005	-0.05814128	0.03400225	0.1252603	-0.2057499	

2.132e+10	0.1138903	-0.2118804	0.01773925	0.05614212	0.06046038	-0.06285836	0.009353558	0.001016221	
0.01773925	0.05614212	0.09409358	-0.26464	0.01196252	0.001644299	0.05946528	-0.1060222	
0.06046038	-0.06285836	0.01196252	0.001644299	0.0968458	-0.1670006	-0.02798762	0.06195687	
0.009353558	0.001016221	0.05946528	-0.1060222	-0.02798762	0.06195687	0.1116062	-0.2072839	

2.134e+10	0.1285439	-0.2237434	0.04715119	0.03559294	0.07480695	-0.06729268	0.009022552	-0.004426744	
0.04715119	0.03559294	0.08225412	-0.2544662	0.01111339	-0.005549653	0.04901725	-0.1008709	
0.07480695	-0.06729268	0.01111339	-0.005549653	0.1117814	-0.1610241	0.01323449	0.06710948	
0.009022552	-0.004426744	0.04901725	-0.1008709	0.01323449	0.06710948	0.1001585	-0.2013884	

2.136e+10	0.1337118	-0.2406476	0.05914185	0.001725019	0.0834177	-0.07830157	0.005299837	-0.009281437	
0.05914185	0.001725019	0.07915216	-0.2385935	0.006128785	-0.01110961	0.04375699	-0.08997404	
0.0834177	-0.07830157	0.006128785	-0.01110961	0.1267033	-0.1649679	0.04988344	0.04707686	
0.005299837	-0.009281437	0.04375699	-0.08997404	0.04988344	0.04707686	0.09438702	-0.1900748	

2.138e+10	0.1299598	-0.2567977	0.04921109	-0.0327887	0.08491386	-0.09134941	-0.001117612	-0.01113606	
0.04921109	-0.0327887	0.08769578	-0.2240379	-0.001314846	-0.01284186	0.04704312	-0.07789818	
0.08491386	-0.09134941	-0.001314846	-0.01284186	0.1366878	-0.1757413	0.06791309	0.009417921	
-0.001117612	-0.01113606	0.04704312	-0.07789818	0.06791309	0.009417921	0.09703198	-0.1771004	

2.14e+10	0.1194696	-0.2688506	0.02124005	-0.05503345	0.0800081	-0.1030715	-0.007650174	-0.008523265	
0.02124005	-0.05503345	0.1043751	-0.2188662	-0.008529381	-0.00989534	0.05782199	-0.07111697	
0.0800081	-0.1030715	-0.008529381	-0.00989534	0.1401065	-0.1894883	0.06066764	-0.03150222	
-0.007650174	-0.008523265	0.05782199	-0.07111697	0.06066764	-0.03150222	0.1081872	-0.1682603	

2.142e+10	0.1045075	-0.2742955	-0.01414006	-0.05713734	0.06998212	-0.1109536	-0.01116084	-0.002390638	
-0.01414006	-0.05713734	0.1204576	-0.2259006	-0.0127016	-0.003258854	0.07027795	-0.07333127	
0.06998212	-0.1109536	-0.0127016	-0.003258854	0.136805	-0.2030663	0.03136211	-0.06043391	
-0.01116084	-0.002390638	0.07027795	-0.07333127	0.03136211	-0.06043391	0.1233922	-0.1685632	

2.144e+10	0.08872727	-0.270805	-0.04432852	-0.03879303	0.05703891	-0.1125856	-0.01028724	0.004326469	
-0.04432852	-0.03879303	0.1285899	-0.2408073	-0.01230715	0.004479438	0.07815306	-0.08277467	
0.05703891	-0.1125856	-0.01230715	0.004479438	0.1272403	-0.2133714	-0.008895106	-0.06731988	
-0.01028724	0.004326469	0.07815306	-0.08277467	-0.008895106	-0.06731988	0.1356451	-0.1784729	

2.146e+10	0.0780187	-0.2583778	-0.05882652	-0.006421772	0.0451235	-0.1066249	-0.006085541	0.009035786	
-0.05882652	-0.006421772	0.1271202	-0.256464	-0.007760199	0.01059133	0.07872457	-0.09444123	
0.0451235	-0.1066249	-0.007760199	0.01059133	0.1135823	-0.2168663	-0.04580065	-0.05019329	
-0.006085541	0.009035786	0.07872457	-0.09444123	-0.04580065	-0.05019329	0.1397402	-0.193484	

2.148e+10	0.07802066	-0.241773	-0.05211971	0.02880724	0.03909635	-0.09468595	-0.0003888586	0.01085304	
-0.05211971	0.02880724	0.1189073	-0.268039	-0.0006249996	0.01331234	0.07308572	-0.1038016	
0.03909635	-0.09468595	-0.0006249996	0.01331234	0.1007919	-0.211457	-0.06656658	-0.01500143	
-0.0003888586	0.01085304	0.07308572	-0.1038016	-0.06656658	-0.01500143	0.1350587	-0.2073061	

2.15e+10	0.08944613	-0.2295595	-0.0259532	0.05392676	0.04188217	-0.08188018	0.005547466	0.009696229	
-0.0259532	0.05392676	0.1074715	-0.2741363	0.007094258	0.01169558	0.06402774	-0.1086238	
0.04188217	-0.08188018	0.007094258	0.01169558	0.09496641	-0.1993339	-0.06347656	0.02616315	
0.005547466	0.009696229	0.06402774	-0.1086238	-0.06347656	0.02616315	0.1249138	-0.2155049	

2.152e+10	0.106041	-0.2283935	0.01014728	0.05910933	0.05175077	-0.07426307	0.01043287	0.00539011	
0.01014728	0.05910933	0.0950152	-0.2745115	0.0128474	0.005766034	0.05411347	-0.1083595	
0.05175077	-0.07426307	0.0128474	0.005766034	0.09902516	-0.1870102	-0.03688097	0.05836247	
0.01043287	0.00539011	0.05411347	-0.1083595	-0.03688097	0.05836247	0.1137029	-0.2170966	

2.154e+10	0.1190343	-0.2379134	0.0425277	0.04229084	0.06329317	-0.07454566	0.01231291	-0.001492206	
0.0425277	0.04229084	0.0838859	-0.2685011	0.01417521	-0.002720992	0.04560998	-0.1029927	
0.06329317	-0.07454566	0.01417521	-0.002720992	0.1100412	-0.1810286	0.003786537	0.06915641	
0.01231291	-0.001492206	0.04560998	-0.1029927	0.003786537	0.06915641	0.1044659	-0.2133357	

2.156e+10	0.1236582	-0.2522728	0.05910954	0.009852309	0.07170574	-0.08097452	0.009652707	-0.008751005	
0.05910954	0.009852309	0.07818782	-0.2566859	0.01021844	-0.0106037	0.04142516	-0.09336239	
0.07170574	-0.08097452	0.01021844	-0.0106037	0.1218495	-0.1834261	0.04323773	0.0541494	
0.009652707	-0.008751005	0.04142516	-0.09336239	0.04323773	0.0541494	0.09899224	-0.205755	

2.158e+10	0.120432	-0.2657992	0.05380343	-0.02613018	0.07519621	-0.09017005	0.002766085	-0.01324627	
0.05380343	-0.02613018	0.08172287	-0.2434811	0.002258262	-0.01481487	0.04426437	-0.08267393	
0.07519621	-0.09017005	0.002258262	-0.01481487	0.129704	-0.1916441	0.06649534	0.01902705	
0.002766085	-0.01324627	0.04426437	-0.08267393	0.06649534	0.01902705	0.09902754	-0.1962284	

2.16e+10	0.1118004	-0.2756072	0.02869469	-0.05225593	0.0738482	-0.09963636	-0.005760077	-0.0125811	
0.02869469	-0.05225593	0.09367323	-0.2359777	-0.006840146	-0.0135706	0.05378597	-0.0762154	
0.0738482	-0.09963636	-0.006840146	-0.0135706	0.1322373	-0.2020183	0.06500611	-0.02286166	
-0.005760077	-0.0125811	0.05378597	-0.0762154	0.06500611	-0.02286166	0.1055608	-0.1883226	

2.162e+10	0.09979848	-0.280081	-0.006645085	-0.05901909	0.06797694	-0.1074417	-0.01213804	-0.006775383	
-0.006645085	-0.05901909	0.1076731	-0.2383917	-0.01354252	-0.007158296	0.06535616	-0.07773677	
0.06797694	-0.1074417	-0.01354252	-0.007158296	0.1298762	-0.2119885	0.03976928	-0.05590706	
-0.01213804	-0.006775383	0.06535616	-0.07773677	0.03976928	-0.05590706	0.11654	-0.1862786	

2.164e+10	0.08714254	-0.2774781	-0.0392768	-0.04439435	0.05853202	-0.1111616	-0.01371526	0.001499643	
-0.0392768	-0.04439435	0.116775	-0.2486437	-0.01525243	0.001929535	0.07306423	-0.08618792	
0.05853202	-0.1111616	-0.01525243	0.001929535	0.1232027	-0.2195087	0.0004224808	-0.06837869	
-0.01371526	0.001499643	0.07306423	-0.08618792	0.0004224808	-0.06837869	0.1269791	-0.1917355	

2.166e+10	0.07856934	-0.2675418	-0.05770889	-0.01372691	0.04844368	-0.1087041	-0.01041359	0.008909776	
-0.05770889	-0.01372691	0.1185087	-0.2610934	-0.0115201	0.01031464	0.07401863	-0.09698063	
0.04844368	-0.1087041	-0.0115201	0.01031464	0.1137074	-0.2222516	-0.03885623	-0.05619931	
-0.01041359	0.008909776	0.07401863	-0.09698063	-0.03885623	-0.05619931	0.1322496	-0.2022373	

2.168e+10	0.07907837	-0.2541726	-0.05513667	0.0221648	0.04219297	-0.1005893	-0.003779288	0.01328489	
-0.05513667	0.0221648	0.1147254	-0.2715931	-0.003710727	0.01523357	0.06924718	-0.1057201	
0.04219297	-0.1005893	-0.003710727	0.01523357	0.1049271	-0.2185688	-0.06420342	-0.02371136	
-0.003779288	0.01328489	0.06924718	-0.1057201	-0.06420342	-0.02371136	0.1310348	-0.2130608	

2.17e+10	0.08932971	-0.2449922	-0.03211467	0.05000454	0.04293592	-0.09092199	0.004334314	0.01349819	
-0.03211467	0.05000454	0.1078848	-0.2791691	0.005758173	0.01493973	0.0615443	-0.1104508	
0.04293592	-0.09092199	0.005758173	0.01493973	0.1015683	-0.2101415	-0.06630503	0.01770438	
0.004334314	0.01349819	0.0615443	-0.1104508	-0.06630503	0.01770438	0.1255016	-0.2206447	

2.172e+10	0.1034502	-0.2460142	0.002786363	0.05921648	0.04956288	-0.08506191	0.01160551	0.009014166	
0.002786363	0.05921648	0.09877336	-0.2837182	0.01359485	0.009075894	0.05311205	-0.1111969	
0.04956288	-0.08506191	0.01359485	0.009075894	0.1058034	-0.2023144	-0.04389299	0.05290693	
0.01160551	0.009014166	0.05311205	-0.1111969	-0.04389299	0.05290693	0.1187425	-0.2243319	

2.174e+10	0.1130421	-0.2563855	0.03636116	0.04658037	0.05741024	-0.08538394	0.01521849	0.0007507253	
0.03636116	0.04658037	0.0879798	-0.2836384	0.01660129	-0.0004718935	0.04524464	-0.1080495	
0.05741024	-0.08538394	0.01660129	-0.0004718935	0.1146869	-0.2003924	-0.005103649	0.06853223	
0.01521849	0.0007507253	0.04524464	-0.1080495	-0.005103649	0.06853223	0.1122791	-0.2251576	

2.176e+10	0.1139212	-0.2697943	0.05647997	0.01703833	0.06241467	-0.09006767	0.0132796	-0.008479604	
0.05647997	0.01703833	0.07859093	-0.2772357	0.01347255	-0.0100916	0.03982939	-0.1009681	
0.06241467	-0.09006767	0.01347255	-0.0100916	0.1224525	-0.2053752	0.03548333	0.05869856	
0.0132796	-0.008479604	0.03982939	-0.1009681	0.03548333	0.05869856	0.1063838	-0.2234698	

2.178e+10	0.1076724	-0.2802476	0.05592484	-0.01874584	0.06362725	-0.09592645	0.006034704	-0.01510083	
0.05592484	-0.01874584	0.07541329	-0.2660794	0.005313687	-0.01626397	0.03956844	-0.09153369	
0.06362725	-0.09592645	0.005313687	-0.01626397	0.1251884	-0.2138057	0.0627439	0.02724537	
0.006034704	-0.01510083	0.03956844	-0.09153369	0.0627439	0.02724537	0.1022155	-0.2188129	

2.18e+10	0.09817353	-0.2853755	0.03466604	-0.04766996	0.06198068	-0.1011156	-0.004104728	-0.01622173	
0.03466604	-0.04766996	0.08074013	-0.2557792	-0.00514389	-0.01669973	0.04563535	-0.08379857	
0.06198068	-0.1011156	-0.00514389	-0.01669973	0.1229308	-0.2214813	0.06671792	-0.01405846	
-0.004104728	-0.01622173	0.04563535	-0.08379857	0.06671792	-0.01405846	0.1020749	-0.2122286	

2.182e+10	0.08829531	-0.285289	0.0005098942	-0.05878079	0.0581833	-0.1049395	-0.01319263	-0.01089839	
0.0005098942	-0.05878079	0.09146494	-0.2520367	-0.01420834	-0.01083954	0.05540215	-0.08197031	
0.0581833	-0.1049395	-0.01420834	-0.01083954	0.1178769	-0.2261984	0.0461054	-0.0498713	
-0.01319263	-0.01089839	0.05540215	-0.08197031	0.0461054	-0.0498713	0.1069005	-0.2070184	

2.184e+10	0.08016945	-0.2800822	-0.03357726	-0.04791769	0.05270588	-0.106301	-0.01735412	-0.001018867	
-0.03357726	-0.04791769	0.1015987	-0.255813	-0.01823267	-0.0004806236	0.06378227	-0.0868068	
0.05270588	-0.106301	-0.01823267	-0.0004806236	0.1120025	-0.227549	0.00873087	-0.06705902	
-0.01735412	-0.001018867	0.06378227	-0.0868068	0.00873087	-0.06705902	0.1144436	-0.2063258	

2.186e+10	0.07700136	-0.2705663	-0.05483207	-0.01935246	0.04742793	-0.1039077	-0.01482062	0.009503712	
-0.05483207	-0.01935246	0.1075556	-0.263807	-0.01530631	0.01052367	0.06727885	-0.09513394	
0.04742793	-0.1039077	-0.01530631	0.01052367	0.1068938	-0.2254528	-0.03151142	-0.0594896	
-0.01482062	0.009503712	0.06727885	-0.09513394	-0.03151142	-0.0594896	0.1209727	-0.2103441	

2.188e+10	0.08190057	-0.2608026	-0.05537355	0.01598275	0.04555044	-0.0985305	-0.006496725	0.01662037	
-0.05537355	0.01598275	0.1094988	-0.2729234	-0.006208824	0.0178193	0.06597784	-0.1031905	
0.04555044	-0.0985305	-0.006208824	0.0178193	0.1047713	-0.22035	-0.05981352	-0.03014849	
-0.006496725	0.01662037	0.06597784	-0.1031905	-0.05981352	-0.03014849	0.1243742	-0.2167396	

2.19e+10	0.09371781	-0.2574316	-0.03541674	0.04455686	0.04868353	-0.09389999	0.004621147	0.01747428	
-0.03541674	0.04455686	0.1082002	-0.2824014	0.005688739	0.01818392	0.06172559	-0.1092597	
0.04868353	-0.09389999	0.005688739	0.01818392	0.1078649	-0.2148202	-0.06579529	0.009974096	
0.004621147	0.01747428	0.06172559	-0.1092597	-0.06579529	0.009974096	0.1250548	-0.2233197	

2.192e+10	0.1056175	-0.2642766	-0.003290356	0.05601044	0.05433826	-0.09387808	0.01417209	0.01142849	
-0.003290356	0.05601044	0.1027992	-0.2916216	0.01539777	0.01118426	0.055566	-0.1131193	
0.05433826	-0.09387808	0.01539777	0.01118426	0.1156512	-0.2133049	-0.04754478	0.04576935	
0.01417209	0.01142849	0.055566	-0.1131193	-0.04754478	0.04576935	0.1239809	-0.2296618	

2.194e+10	0.1100177	-0.2781849	0.02891498	0.04731647	0.05783509	-0.09851842	0.01818359	0.0008826772	
0.02891498	0.04731647	0.09266657	-0.2977744	0.01880186	-7.162005e-05	0.04785661	-0.1140135	
0.05783509	-0.09851842	0.01880186	-7.162005e-05	0.1237661	-0.2186401	-0.01242212	0.06420536	
0.01818359	0.0008826772	0.04785661	-0.1140135	-0.01242212	0.06420536	0.1208469	-0.2359422	

2.196e+10	0.1045814	-0.2916353	0.05041695	0.0223554	0.05668652	-0.1043124	0.0152629	-0.009847581	
0.05041695	0.0223554	0.0802249	-0.2972648	0.01504697	-0.01078688	0.04018241	-0.1106285	
0.05668652	-0.1043124	0.01504697	-0.01078688	0.1268719	-0.2291753	0.02644577	0.05924227	
0.0152629	-0.009847581	0.04018241	-0.1106285	0.02644577	0.05924227	0.1147845	-0.2408238	

2.198e+10	0.09287229	-0.2985272	0.05419423	-0.01043126	0.05207004	-0.1076258	0.006824232	-0.01689481	
0.05419423	-0.01043126	0.07071662	-0.289323	0.006191021	-0.01728895	0.03566447	-0.1030743	
0.05207004	-0.1076258	0.006191021	-0.01728895	0.122587	-0.2396799	0.05531159	0.03323193	
0.006824232	-0.01689481	0.03566447	-0.1030743	0.05531159	0.03323193	0.1066167	-0.2417323	

2.2e+10	0.08076759	-0.2973562	0.03840553	-0.03986327	0.04692903	-0.1072632	-0.004198307	-0.0179701	
0.03840553	-0.03986327	0.06874142	-0.2776881	-0.004698551	-0.01787168	0.03688383	-0.09427139	
0.04692903	-0.1072632	-0.004698551	-0.01787168	0.1131113	-0.2451098	0.0641773	-0.004487489	
-0.004198307	-0.0179701	0.03688383	-0.09427139	0.0641773	-0.004487489	0.09968832	-0.2374856	

2.202e+10	0.07267826	-0.2903521	0.008113905	-0.05478844	0.04353417	-0.1042557	-0.01413729	-0.01241991	
0.008113905	-0.05478844	0.07457108	-0.2684034	-0.01434023	-0.01221744	0.043401	-0.08849861	
0.04353417	-0.1042557	-0.01434023	-0.01221744	0.1033063	-0.2436109	0.04978706	-0.04052148	
-0.01413729	-0.01241991	0.043401	-0.08849861	0.04978706	-0.04052148	0.09750328	-0.2300829	

2.204e+10	0.07042853	-0.2808025	-0.02525114	-0.04900711	0.04266507	-0.1002595	-0.01912665	-0.001744028	
-0.02525114	-0.04900711	0.08424551	-0.26519	-0.01923645	-0.001625473	0.05167705	-0.08826484	
0.04266507	-0.1002595	-0.01923645	-0.001625473	0.09745044	-0.2370076	0.01719285	-0.06163186	
-0.01912665	-0.001744028	0.05167705	-0.08826484	0.01719285	-0.06163186	0.1008368	-0.2234951	

2.206e+10	0.07453549	-0.2717848	-0.04857221	-0.02481288	0.04440187	-0.09648336	-0.01666414	0.01015587	
-0.04857221	-0.02481288	0.0936377	-0.2677168	-0.01680971	0.01030504	0.05800635	-0.09264955	
0.04440187	-0.09648336	-0.01680971	0.01030504	0.09733926	-0.2287728	-0.02149153	-0.05989172	
-0.01666414	0.01015587	0.05800635	-0.09264955	-0.02149153	-0.05989172	0.1075252	-0.2205667	

2.208e+10	0.08450354	-0.2669546	-0.05306562	0.007883374	0.04875564	-0.09436936	-0.0072873	0.0182843	
-0.05306562	0.007883374	0.1010493	-0.2743631	-0.007344821	0.0185509	0.06105273	-0.09915058	
0.04875564	-0.09436936	-0.007344821	0.0185509	0.1027317	-0.2221789	-0.05173047	-0.03614139	
-0.0072873	0.0182843	0.06105273	-0.09915058	-0.05173047	-0.03614139	0.1149233	-0.2217379	

2.21e+10	0.09695247	-0.2701388	-0.03805885	0.03624296	0.05454149	-0.09595188	0.00519946	0.01894236	
-0.03805885	0.03624296	0.1053968	-0.2845583	0.005333506	0.01918648	0.06108364	-0.1062878	
0.05454149	-0.09595188	0.005333506	0.01918648	0.1121098	-0.2200469	-0.06242231	0.0002941604	
0.00519946	0.01894236	0.06108364	-0.1062878	-0.06242231	0.0002941604	0.1214915	-0.2263909	

2.212e+10	0.1056331	-0.2818984	-0.01051334	0.05041241	0.05859759	-0.1020073	0.01530711	0.01184519	
-0.01051334	0.05041241	0.104454	-0.2972091	0.01552006	0.01192274	0.05794634	-0.1132907	
0.05859759	-0.1020073	0.01552006	0.01192274	0.122435	-0.2243567	-0.05034527	0.03562006	
0.01530711	0.01184519	0.05794634	-0.1132907	-0.05034527	0.03562006	0.1261088	-0.234229	

2.214e+10	0.1052837	-0.2976588	0.01935496	0.04694239	0.05776778	-0.1102979	0.01885317	0.0004686966	
0.01935496	0.04694239	0.09647085	-0.3088018	0.018981	0.0004358103	0.05129909	-0.1185793	
0.05776778	-0.1102979	0.018981	0.0004358103	0.1294051	-0.2350759	-0.02080945	0.05732909	
0.01885317	0.0004686966	0.05129909	-0.1185793	-0.02080945	0.05732909	0.1269506	-0.2446199	

2.216e+10	0.09546205	-0.3103813	0.04215058	0.02795285	0.05160825	-0.1167852	0.01518785	-0.01021774	
0.04215058	0.02795285	0.08281183	-0.3145414	0.01524655	-0.01020205	0.04220612	-0.1198241	
0.05160825	-0.1167852	0.01524655	-0.01020205	0.129228	-0.2490825	0.01531249	0.05854255	
0.01518785	-0.01021774	0.04220612	-0.1198241	0.01531249	0.05854255	0.1222094	-0.2552193	

2.218e+10	0.08052114	-0.3147949	0.05086786	-0.0006488835	0.04266915	-0.1183108	0.006622262	-0.01662243	
0.05086786	-0.0006488835	0.06830085	-0.3114795	0.006778432	-0.01654315	0.03359294	-0.1157332	
0.04266915	-0.1183108	0.006778432	-0.01654315	0.1209007	-0.2610307	0.04567639	0.03941289	
0.006622262	-0.01662243	0.03359294	-0.1157332	0.04567639	0.03941289	0.11202	-0.2620947	

2.22e+10	0.06687401	-0.3099068	0.04184186	-0.02990836	0.03478339	-0.114378	-0.003709736	-0.01740811	
0.04184186	-0.02990836	0.05886522	-0.300733	-0.003391253	-0.01746276	0.02888522	-0.1074036	
0.03478339	-0.114378	-0.003391253	-0.01746276	0.1073369	-0.2659353	0.06008514	0.006409158	
-0.003709736	-0.01740811	0.02888522	-0.1074036	0.06008514	0.006409158	0.09966706	-0.2619071	

2.222e+10	0.05962983	-0.2989612	0.01692345	-0.0490908	0.03097599	-0.1069964	-0.0129998	-0.01256693	
0.01692345	-0.0490908	0.05822721	-0.2872479	-0.01271153	-0.01293987	0.03005628	-0.09811975	
0.03097599	-0.1069964	-0.01271153	-0.01293987	0.09424859	-0.261972	0.05311189	-0.02931087	
-0.0129998	-0.01256693	0.03005628	-0.09811975	0.05311189	-0.02931087	0.09034998	-0.2544769	

2.224e+10	0.06032324	-0.286999	-0.01507106	-0.04982347	0.03210229	-0.09933134	-0.01838733	-0.002984685	
-0.01507106	-0.04982347	0.06569219	-0.2769043	-0.01845968	-0.003571483	0.03632084	-0.09166117	
0.03210229	-0.09933134	-0.01845968	-0.003571483	0.08695837	-0.2515751	0.02648666	-0.05475858	
-0.01838733	-0.002984685	0.03632084	-0.09166117	0.02648666	-0.05475858	0.08806986	-0.2433965	

2.226e+10	0.06771313	-0.2780024	-0.04115113	-0.0312354	0.03716791	-0.09383715	-0.01717919	0.008647749	
-0.04115113	-0.0312354	0.07756999	-0.2730349	-0.01771117	0.008232525	0.04486656	-0.09006318	
0.03716791	-0.09383715	-0.01771117	0.008232525	0.08772092	-0.239618	-0.01022569	-0.05987306	
-0.01717919	0.008647749	0.04486656	-0.09006318	-0.01022569	-0.05987306	0.09323113	-0.2337212	

2.228e+10	0.07965755	-0.2747557	-0.05075919	-0.001267121	0.04470793	-0.09195795	-0.008747821	0.01763783	
-0.05075919	-0.001267121	0.09014035	-0.2763399	-0.009446761	0.01771453	0.05297049	-0.09327904	
0.04470793	-0.09195795	-0.009446761	0.01771453	0.09558463	-0.2306592	-0.04281788	-0.04247548	
-0.008747821	0.01763783	0.05297049	-0.09327904	-0.04281788	-0.04247548	0.1032895	-0.2290806	

2.23e+10	0.09272073	-0.2795757	-0.04115702	0.02760427	0.05281239	-0.09492802	0.003813045	0.01946402	
-0.04115702	0.02760427	0.100026	-0.2865751	0.003361101	0.0199823	0.05864937	-0.1005677	
0.05281239	-0.09492802	0.003361101	0.0199823	0.1078829	-0.2278059	-0.05878984	-0.009732594	
0.003813045	0.01946402	0.05864937	-0.1005677	-0.05878984	-0.009732594	0.1148838	-0.230865	

2.232e+10	0.1015276	-0.2925007	-0.01777577	0.04494231	0.05834216	-0.1029475	0.01470192	0.01297107	
-0.01777577	0.04494231	0.1034565	-0.3019481	0.01468674	0.01361103	0.05993188	-0.1106293	
0.05834216	-0.1029475	0.01468674	0.01361103	0.1208193	-0.2327161	-0.05291208	0.02545349	
0.01470192	0.01297107	0.05993188	-0.1106293	-0.05291208	0.02545349	0.1247382	-0.2390187	

2.234e+10	0.1013521	-0.3093923	0.01018044	0.04635731	0.05818065	-0.1136314	0.01899161	0.001490403	
0.01018044	0.04635731	0.09780402	-0.3179367	0.0193191	0.001967234	0.05534315	-0.1207296	
0.05818065	-0.1136314	0.0193191	0.001967234	0.1298866	-0.2449203	-0.02855717	0.05035153	
0.01899161	0.001490403	0.05534315	-0.1207296	-0.02855717	0.05035153	0.1296365	-0.2521804	

2.236e+10	0.09139439	-0.3237572	0.03398664	0.03273122	0.05164789	-0.1227575	0.01564219	-0.009549909	
0.03398664	0.03273122	0.08389937	-0.3287428	0.01611665	-0.009333105	0.04548354	-0.1271285	
0.05164789	-0.1227575	0.01611665	-0.009333105	0.1311671	-0.2612397	0.004927027	0.05706168	
0.01564219	-0.009549909	0.04548354	-0.1271285	0.004927027	0.05706168	0.1270057	-0.2671243	

2.238e+10	0.07522994	-0.3300857	0.04678627	0.008278311	0.04100309	-0.126774	0.007176086	-0.01613518	
0.04678627	0.008278311	0.06629745	-0.3300472	0.007675292	-0.01615103	0.03338057	-0.1271307	
0.04100309	-0.126774	0.007675292	-0.01615103	0.1231981	-0.2763309	0.03611045	0.0440948	
0.007176086	-0.01613518	0.03338057	-0.1271307	0.03611045	0.0440948	0.1164188	-0.2790055	

2.24e+10	0.05895482	-0.3263172	0.04393291	-0.01995382	0.03000794	-0.1243608	-0.002867586	-0.01703736	
0.04393291	-0.01995382	0.05158178	-0.3211743	-0.00238944	-0.01727957	0.02324004	-0.120367	
0.03000794	-0.1243608	-0.00238944	-0.01727957	0.1081315	-0.2846432	0.05479279	0.01593537	
-0.002867586	-0.01703736	0.02324004	-0.120367	0.05479279	0.01593537	0.1007931	-0.28306	

2.242e+10	0.04852855	-0.3145283	0.02478018	-0.04233831	0.02232041	-0.1165215	-0.01176664	-0.01273799	
0.02478018	-0.04233831	0.04551309	-0.305923	-0.01141113	-0.0132573	0.01883227	-0.1091067	
0.02232041	-0.1165215	-0.01141113	-0.0132573	0.09143265	-0.2829121	0.05439132	-0.01825188	
-0.01176664	-0.01273799	0.01883227	-0.1091067	0.05439132	-0.01825188	0.08606745	-0.2772166	

2.244e+10	0.04722516	-0.2997932	-0.004795242	-0.04930436	0.02030742	-0.1060329	-0.01736016	-0.004135773	
-0.004795242	-0.04930436	0.05001737	-0.2909927	-0.01735788	-0.004895429	0.02182939	-0.09761905	
0.02030742	-0.1060329	-0.01735788	-0.004895429	0.07960226	-0.2720951	0.03414321	-0.04650757	
-0.01736016	-0.004135773	0.02182939	-0.09761905	0.03414321	-0.04650757	0.07851207	-0.2640029	

2.246e+10	0.05475865	-0.2875729	-0.03291851	-0.03684323	0.02446214	-0.09630581	-0.01723734	0.006929367	
-0.03291851	-0.03684323	0.06233067	-0.2823212	-0.01778956	0.006233301	0.0308763	-0.09023882	
0.02446214	-0.09630581	-0.01778956	0.006233301	0.07702222	-0.2570381	0.0007974801	-0.0577615	
-0.01723734	0.006929367	0.0308763	-0.09023882	0.0007974801	-0.0577615	0.08109898	-0.2496266	

2.248e+10	0.06844222	-0.2820445	-0.04751803	-0.01022169	0.03364281	-0.09052564	-0.0099927	0.01642865	
-0.04751803	-0.01022169	0.0774647	-0.2825432	-0.01096186	0.01625162	0.04253041	-0.08948417	
0.03364281	-0.09052564	-0.01096186	0.01625162	0.08415283	-0.2438582	-0.03278488	-0.0471537	
-0.0099927	0.01642865	0.04253041	-0.08948417	-0.03278488	-0.0471537	0.09199718	-0.2403125	

2.25e+10	0.08386701	-0.2859134	-0.0434389	0.01877069	0.04514071	-0.09121101	0.002196289	0.01941819	
-0.0434389	0.01877069	0.09049852	-0.2915786	0.001328132	0.01995385	0.05288155	-0.09563295	
0.04514071	-0.09121101	0.001328132	0.01995385	0.09804389	-0.237531	-0.05337263	-0.01917325	
0.002196289	0.01941819	0.05288155	-0.09563295	-0.05337263	-0.01917325	0.1064608	-0.2393734	

2.252e+10	0.09502983	-0.2990648	-0.02432409	0.03897207	0.05462179	-0.09912705	0.01359759	0.01383991	
-0.02432409	0.03897207	0.09692534	-0.3072022	0.01329935	0.01479118	0.05830045	-0.1070773	
0.05462179	-0.09912705	0.01329935	0.01479118	0.1137662	-0.2405656	-0.0538178	0.01473298	
0.01359759	0.01383991	0.05830045	-0.1070773	-0.0538178	0.01473298	0.1194484	-0.246904	

2.254e+10	0.09683806	-0.3172182	0.001475254	0.04487276	0.05780401	-0.1117108	0.01866176	0.002578114	
0.001475254	0.04487276	0.09382904	-0.324653	0.0190043	0.003456065	0.05639229	-0.1201989	
0.05780401	-0.1117108	0.0190043	0.003456065	0.1258633	-0.2523985	-0.0353207	0.04204884	
0.01866176	0.002578114	0.05639229	-0.1201989	-0.0353207	0.04204884	0.1269232	-0.2607276	

2.256e+10	0.08814381	-0.3337052	0.02570562	0.03628654	0.05315892	-0.1241367	0.01577385	-0.008679275	
0.02570562	0.03628654	0.08163847	-0.3380725	0.0164997	-0.008204525	0.04736426	-0.1304367	
0.05315892	-0.1241367	0.0164997	-0.008204525	0.1300277	-0.2696354	-0.005366822	0.0539879	
0.01577385	-0.008679275	0.04736426	-0.1304367	-0.005366822	0.0539879	0.1263135	-0.2771312	

2.258e+10	0.07205346	-0.3427482	0.04168752	0.0161486	0.04250519	-0.132016	0.007441924	-0.01538682	
0.04168752	0.0161486	0.06423081	-0.3427841	0.008249205	-0.01536795	0.03410383	-0.1342252	
0.04250519	-0.132016	0.008249205	-0.01536795	0.1243951	-0.2870339	0.02573425	0.04739857	
0.007441924	-0.01538682	0.03410383	-0.1342252	0.02573425	0.04739857	0.1171016	-0.291358	

2.26e+10	0.05427606	-0.341605	0.04432122	-0.01011591	0.02949407	-0.1330501	-0.002304444	-0.01616355	
0.04432122	-0.01011591	0.04761206	-0.3371548	-0.001601904	-0.01652755	0.020934	-0.1302586	
0.02949407	-0.1330501	-0.001601904	-0.01652755	0.1103077	-0.2988736	0.04798531	0.02476494	
-0.002304444	-0.01616355	0.020934	-0.1302586	0.04798531	0.02476494	0.1015407	-0.2985128	

2.262e+10	0.04095963	-0.3312472	0.03127043	-0.03433685	0.018105	-0.1272283	-0.0104316	-0.01203408	
0.03127043	-0.03433685	0.03790368	-0.3234869	-0.009952302	-0.0127292	0.0122278	-0.1197775	
0.018105	-0.1272283	-0.009952302	-0.0127292	0.09239366	-0.3010406	0.05397435	-0.006775865	
-0.0104316	-0.01203408	0.0122278	-0.1197775	0.05397435	-0.006775865	0.08492465	-0.2956027	

2.264e+10	0.03640749	-0.3161103	0.005534456	-0.04694288	0.01170369	-0.1164333	-0.01536809	-0.004537652	
0.005534456	-0.04694288	0.03859898	-0.3076581	-0.01530721	-0.005507917	0.01109518	-0.1064031	
0.01170369	-0.1164333	-0.01530721	-0.005507917	0.07714707	-0.2928798	0.04080662	-0.03679664	
-0.01536809	-0.004537652	0.01109518	-0.1064031	0.04080662	-0.03679664	0.07393113	-0.2836433	

2.266e+10	0.04144363	-0.3019188	-0.0233848	-0.04145057	0.01225511	-0.1040407	-0.01581282	0.004897911	
-0.0233848	-0.04145057	0.04856292	-0.2962967	-0.01641664	0.003932196	0.01791571	-0.0951256	
0.01225511	-0.1040407	-0.01641664	0.003932196	0.07019392	-0.2780362	0.01209767	-0.05403327	
-0.01581282	0.004897911	0.01791571	-0.0951256	0.01209767	-0.05403327	0.0731496	-0.2681621	

2.268e+10	0.05385003	-0.2935212	-0.04304674	-0.01944539	0.01976575	-0.0940392	-0.0104838	0.01369737	
-0.04304674	-0.01944539	0.06311256	-0.2934192	-0.01170984	0.01329156	0.0299451	-0.09012332	
0.01976575	-0.0940392	-0.01170984	0.01329156	0.07366639	-0.2627277	-0.02164542	-0.05101816	
-0.0104838	0.01369737	0.0299451	-0.09012332	-0.02164542	-0.05101816	0.08223054	-0.2563333	

2.27e+10	0.069529	-0.2940825	-0.04533241	0.009272431	0.0320901	-0.09017425	-0.0001632625	0.01778325	
-0.04533241	0.009272431	0.07694516	-0.2996382	-0.001443418	0.01833628	0.04272762	-0.09311473	
0.0320901	-0.09017425	-0.001443418	0.01833628	0.08563939	-0.2528508	-0.04695406	-0.02868338	
-0.0001632625	0.01778325	0.04272762	-0.09311473	-0.04695406	-0.02868338	0.09647951	-0.252827	

2.272e+10	0.08280858	-0.3043663	-0.03090846	0.03273052	0.04483258	-0.09460463	0.01085143	0.01428225	
-0.03090846	0.03273052	0.08540504	-0.3131113	0.01025885	0.01557373	0.05171194	-0.1031539	
0.04483258	-0.09460463	0.01025885	0.01557373	0.1014767	-0.2519737	-0.05418053	0.003674658	
0.01085143	0.01428225	0.05171194	-0.1031539	-0.05418053	0.003674658	0.1102245	-0.2583054	

2.274e+10	0.08811945	-0.3212951	-0.006966506	0.04335283	0.05268927	-0.1061418	0.01704896	0.004555181	
-0.006966506	0.04335283	0.08524164	-0.3297712	0.01743282	0.005877632	0.05350317	-0.1169527	
0.05268927	-0.1061418	0.01743282	0.005877632	0.1155664	-0.2604957	-0.04170862	0.03351063	
0.01704896	0.004555181	0.05350317	-0.1169527	-0.04170862	0.03351063	0.1190937	-0.2705586	

2.276e+10	0.08305734	-0.3387359	0.01795236	0.03940198	0.05244984	-0.1202818	0.01573023	-0.006433486	
0.01795236	0.03940198	0.07602711	-0.3441012	0.01678513	-0.005688962	0.04722152	-0.1297119	
0.05244984	-0.1202818	0.01678513	-0.005688962	0.1231552	-0.2758463	-0.01518241	0.05060559	
0.01573023	-0.006433486	0.04722152	-0.1297119	-0.01518241	0.05060559	0.1205689	-0.286081	

2.278e+10	0.06954145	-0.3505998	0.03673857	0.02296751	0.04451706	-0.1318685	0.008475074	-0.01373464	
0.03673857	0.02296751	0.06065619	-0.3512715	0.009671023	-0.01374823	0.03493091	-0.1370794	
0.04451706	-0.1318685	0.009671023	-0.01374823	0.1216056	-0.2933213	0.01582903	0.05000235	
0.008475074	-0.01373464	0.03493091	-0.1370794	0.01582903	0.05000235	0.1138711	-0.3006052	

2.28e+10	0.05245221	-0.3533279	0.04389481	-0.001395938	0.03193026	-0.1374294	-0.0007829248	-0.01525492	
0.04389481	-0.001395938	0.04436969	-0.3489202	0.000154851	-0.01587124	0.02067981	-0.1366744	
0.03193026	-0.1374294	0.000154851	-0.01587124	0.1111841	-0.3075283	0.04117956	0.03243771	
-0.0007829248	-0.01525492	0.02067981	-0.1366744	0.04117956	0.03243771	0.1004754	-0.309636	

2.282e+10	0.03759257	-0.3467783	0.0361218	-0.0265778	0.01859881	-0.1357922	-0.008606093	-0.01182356	
0.0361218	-0.0265778	0.03304159	-0.3381998	-0.008110261	-0.01280936	0.009083227	-0.1286698	
0.01859881	-0.1357922	-0.008110261	-0.01280936	0.09519759	-0.313923	0.05263119	0.003553336	
-0.008606093	-0.01182356	0.009083227	-0.1286698	0.05263119	0.003553336	0.08452449	-0.309734	

2.284e+10	0.02961372	-0.3341202	0.01440403	-0.04345705	0.00826424	-0.1276928	-0.01336463	-0.005342765	
0.01440403	-0.04345705	0.03081031	-0.3238276	-0.01342301	-0.006509182	0.004110746	-0.115747	
0.00826424	-0.1276928	-0.01342301	-0.006509182	0.0791721	-0.3106498	0.04576005	-0.0273608	
-0.01336463	-0.005342765	0.004110746	-0.115747	0.04576005	-0.0273608	0.07217606	-0.300658	

2.286e+10	0.03026817	-0.3203231	-0.01404676	-0.04420068	0.003841445	-0.1156162	-0.01439914	0.002710335	
-0.01404676	-0.04420068	0.0377159	-0.3121699	-0.01516422	0.001633974	0.007545655	-0.1027032	
0.003841445	-0.1156162	-0.01516422	0.001633974	0.06875483	-0.2996226	0.02183863	-0.04924918	
-0.01439914	0.002710335	0.007545655	-0.1027032	0.02183863	-0.04924918	0.06871298	-0.2866288	

2.288e+10	0.03846428	-0.3099122	-0.03748346	-0.02733341	0.006691156	-0.1031632	-0.01086027	0.01070594	
-0.03748346	-0.02733341	0.04983599	-0.3077307	-0.01231045	0.01024212	0.0177894	-0.09450933	
0.006691156	-0.1031632	-0.01231045	0.01024212	0.06710201	-0.2856648	-0.01094371	-0.05303159	
-0.01086027	0.01070594	0.0177894	-0.09450933	-0.01094371	-0.05303159	0.07507001	-0.2745415	

2.29e+10	0.05147249	-0.3061431	-0.045778	-5.606188e-18	0.01624016	-0.09441344	-0.002670063	0.01566001	
-0.045778	-5.606188e-18	0.06215704	-0.3113767	-0.00423565	0.01631928	0.03070381	-0.09399955	
0.01624016	-0.09441344	-0.00423565	0.01631928	0.07388589	-0.2741376	-0.03971121	-0.03656753	
-0.002670063	0.01566001	0.03070381	-0.09399955	-0.03971121	-0.03656753	0.08730817	-0.2697317	

2.292e+10	0.06513	-0.3110545	-0.03639887	0.02600142	0.0295085	-0.09294941	0.007492468	0.01445567	
-0.03639887	0.02600142	0.07065224	-0.3216928	0.006746697	0.01608432	0.04158112	-0.101179	
0.0295085	-0.09294941	0.006746697	0.01608432	0.0861716	-0.2689736	-0.05301071	-0.006640419	
0.007492468	0.01445567	0.04158112	-0.101179	-0.05301071	-0.006640419	0.0998073	-0.2733274	

2.294e+10	0.07399858	-0.323874	-0.01472938	0.04104726	0.04133697	-0.09994919	0.01477037	0.006874987	
-0.01472938	0.04104726	0.07233835	-0.3356842	0.01532642	0.008570561	0.04650291	-0.1136004	
0.04133697	-0.09994919	0.01532642	0.008570561	0.09963562	-0.2718995	-0.0465075	0.02472848	
0.01477037	0.006874987	0.04650291	-0.1136004	-0.0465075	0.02472848	0.108311	-0.283312	

2.296e+10	0.07407445	-0.3401068	0.01053947	0.0414841	0.04683618	-0.1127274	0.01553768	-0.003440352	
0.01053947	0.0414841	0.06611477	-0.3489011	0.01699643	-0.002592411	0.04350517	-0.1269525	
0.04683618	-0.1127274	0.01699643	-0.002592411	0.1097711	-0.2821594	-0.0238144	0.04617909	
0.01553768	-0.003440352	0.04350517	-0.1269525	-0.0238144	0.04617909	0.110592	-0.2964856	

2.298e+10	0.06533079	-0.3537682	0.03156016	0.0285268	0.04421951	-0.1263347	0.009981981	-0.0115292	
0.03156016	0.0285268	0.05378397	-0.3568092	0.01149024	-0.01178025	0.03352351	-0.1365553	
0.04421951	-0.1263347	0.01149024	-0.01178025	0.1132139	-0.2967576	0.006382937	0.05106361	
0.009981981	-0.0115292	0.03352351	-0.1365553	0.006382937	0.05106361	0.1059771	-0.3093401	

2.3e+10	0.05123434	-0.3604874	0.04240058	0.006238036	0.03492169	-0.1362973	0.001395069	-0.01439355	
0.04240058	0.006238036	0.03956238	-0.3567531	0.002335716	-0.01535537	0.01995262	-0.139167	
0.03492169	-0.1362973	0.002335716	-0.01535537	0.1086709	-0.3113078	0.03390526	0.03848369	
0.001395069	-0.01439355	0.01995262	-0.139167	0.03390526	0.03848369	0.09540237	-0.3181541	

2.302e+10	0.03683072	-0.3589152	0.03922291	-0.01903547	0.02211329	-0.1400449	-0.006506945	-0.01210495	
0.03922291	-0.01903547	0.02864368	-0.3489965	-0.006239554	-0.01325372	0.007348736	-0.1339586	
0.02211329	-0.1400449	-0.006239554	-0.01325372	0.09749191	-0.3213676	0.04987831	0.01272124	
-0.006506945	-0.01210495	0.007348736	-0.1339586	0.04987831	0.01272124	0.08196295	-0.3198038	

2.304e+10	0.02660783	-0.3508425	0.0216676	-0.03886513	0.009425227	-0.136916	-0.01160724	-0.00651368	
0.0216676	-0.03886513	0.02517824	-0.3372214	-0.0118474	-0.00759714	7.717636e-05	-0.12283	
0.009425227	-0.136916	-0.0118474	-0.00759714	0.08347313	-0.3239794	0.04873086	-0.01801159	
-0.01160724	-0.00651368	7.717636e-05	-0.12283	0.04873086	-0.01801159	0.0707526	-0.3134438	

2.306e+10	0.02285177	-0.3399227	-0.005132854	-0.04494586	0.0002791434	-0.1279497	-0.01329533	0.0006246664	
-0.005132854	-0.04494586	0.02990528	-0.3270857	-0.01402593	-0.0003378875	0.0007548429	-0.1100474	
0.0002791434	-0.1279497	-0.01402593	-0.0003378875	0.07138974	-0.3190916	0.02989882	-0.04320193	
-0.01329533	0.0006246664	0.0007548429	-0.1100474	0.02989882	-0.04320193	0.06672531	-0.3022013	

2.308e+10	0.02543736	-0.3297603	-0.0308495	-0.03352508	-0.002766719	-0.1156869	-0.01116247	0.007973878	
-0.0308495	-0.03352508	0.03945741	-0.3230795	-0.01251689	0.007420173	0.008679519	-0.1007669	
-0.002766719	-0.1156869	-0.01251689	0.007420173	0.06487491	-0.3094324	-0.0007118846	-0.05296822	
-0.01116247	0.007973878	0.008679519	-0.1007669	-0.0007118846	-0.05296822	0.07133343	-0.2921782	

2.31e+10	0.03315076	-0.322943	-0.04447902	-0.008799017	0.001412364	-0.1037404	-0.004892348	0.01345623	
-0.04447902	-0.008799017	0.04907394	-0.3259869	-0.006595599	0.01392164	0.02008322	-0.09836064	
0.001412364	-0.1037404	-0.006595599	0.01392164	0.06510744	-0.2988603	-0.03153599	-0.04266514	
-0.004892348	0.01345623	0.02008322	-0.09836064	-0.03153599	-0.04266514	0.08107573	-0.2884941	

2.312e+10	0.04407171	-0.3218567	-0.0405471	0.01865816	0.01193964	-0.09629563	0.004109848	0.01427724	
-0.0405471	0.01865816	0.05540548	-0.3340261	0.003004911	0.01597179	0.03044839	-0.103129	
0.01193964	-0.09629563	0.003004911	0.01597179	0.07130734	-0.2908154	-0.05020128	-0.01618555	
0.004109848	0.01427724	0.03044839	-0.103129	-0.05020128	-0.01618555	0.09056317	-0.2919669	

2.314e+10	0.05445884	-0.3280707	-0.0217981	0.03781637	0.02510385	-0.09674192	0.0121173	0.009098591	
-0.0217981	0.03781637	0.05658149	-0.3447679	0.01249801	0.01123273	0.03616727	-0.1131293	
0.02510385	-0.09674192	0.01249801	0.01123273	0.08132052	-0.2879368	-0.04972286	0.01574437	
0.0121173	0.009098591	0.03616727	-0.1131293	-0.04972286	0.01574437	0.09624123	-0.3001162	

2.316e+10	0.05961721	-0.3400841	0.003488784	0.04256225	0.03541742	-0.1051557	0.01512952	-0.000120472	
0.003488784	0.04256225	0.05176504	-0.3550968	0.0168878	0.001194683	0.03514423	-0.124879	
0.03541742	-0.1051557	0.0168878	0.001194683	0.0918078	-0.2915675	-0.03119966	0.04092577	
0.01512952	-0.000120472	0.03514423	-0.124879	-0.03119966	0.04092577	0.0970708	-0.3099239	

2.318e+10	0.05709634	-0.3532657	0.02637245	0.03279954	0.03883393	-0.117899	0.01174627	-0.009024965	
0.02637245	0.03279954	0.04201943	-0.3613954	0.01386481	-0.009211756	0.02754666	-0.1341612	
0.03883393	-0.117899	0.01386481	-0.009211756	0.09905912	-0.3008829	-0.002236452	0.05077577	
0.01174627	-0.009024965	0.02754666	-0.1341612	-0.002236452	0.05077577	0.09323223	-0.3189947	

2.32e+10	0.04821851	-0.36283	0.04003552	0.01242753	0.03479315	-0.1301496	0.003974384	-0.01374077	
0.04003552	0.01242753	0.03078337	-0.3612207	0.005390114	-0.01515393	0.01610128	-0.1375609	
0.03479315	-0.1301496	0.005390114	-0.01515393	0.1005472	-0.3130175	0.02673837	0.04266595	
0.003974384	-0.01374077	0.01610128	-0.1375609	0.02673837	0.04266595	0.08560147	-0.325068	

2.322e+10	0.03670323	-0.3662957	0.04031372	-0.01226439	0.02535863	-0.1383451	-0.004520272	-0.01298045	
0.04031372	-0.01226439	0.02259656	-0.3549114	-0.004270189	-0.01481382	0.005120122	-0.1340122	
0.02535863	-0.1383451	-0.004270189	-0.01481382	0.09589549	-0.324278	0.04596177	0.01991039	
-0.004520272	-0.01298045	0.005120122	-0.1340122	0.04596177	0.01991039	0.07633473	-0.3261973	

2.324e+10	0.0263734	-0.3640961	0.0264858	-0.03330556	0.01344115	-0.1408803	-0.01068989	-0.007872633	
0.0264858	-0.03330556	0.02086476	-0.3459915	-0.01144967	-0.009428318	-0.001371814	-0.1253525	
0.01344115	-0.1408803	-0.01144967	-0.009428318	0.08688912	-0.331626	0.04907363	-0.009658109	
-0.01068989	-0.007872633	-0.001371814	-0.1253525	0.04907363	-0.009658109	0.06897395	-0.3220364	

2.326e+10	0.01934526	-0.3583582	0.002591743	-0.04286572	0.001944927	-0.1375663	-0.01296533	-0.0005502091	
0.002591743	-0.04286572	0.02543026	-0.3395591	-0.01440757	-0.001476172	-0.001430195	-0.1155712	
0.001944927	-0.1375663	-0.01440757	-0.001476172	0.07640986	-0.3338371	0.03485601	-0.03590209	
-0.01296533	-0.0005502091	-0.001430195	-0.1155712	0.03485601	-0.03590209	0.06671474	-0.3151663	

2.328e+10	0.01609326	-0.3510213	-0.02277812	-0.03665159	-0.006548149	-0.129084	-0.01093	0.006718924	
-0.02277812	-0.03665159	0.03248815	-0.3387657	-0.01278409	0.006686203	0.00371068	-0.1085966	
-0.006548149	-0.129084	-0.01278409	0.006686203	0.06698744	-0.3312955	0.00810395	-0.04939057	
-0.01093	0.006718924	0.00371068	-0.1085966	0.00810395	-0.04939057	0.06978192	-0.3097981	

2.33e+10	0.01689349	-0.3433246	-0.03977481	-0.01666264	-0.009514081	-0.1171744	-0.005201342	0.0116441	
-0.03977481	-0.01666264	0.03789193	-0.342782	-0.006943908	0.01285321	0.01114672	-0.1061966	
-0.009514081	-0.1171744	-0.006943908	0.01285321	0.06042129	-0.324991	-0.02157237	-0.0451058	
-0.005201342	0.0116441	0.01114672	-0.1061966	-0.02157237	-0.0451058	0.07538418	-0.3086062	

2.332e+10	0.0223031	-0.3372132	-0.04183528	0.009343627	-0.005128663	-0.1053152	0.002328104	0.01245936	
-0.04183528	0.009343627	0.04017224	-0.349066	0.001710755	0.0147924	0.01840396	-0.1083278	
-0.005128663	-0.1053152	0.001710755	0.0147924	0.05840629	-0.3163027	-0.04340166	-0.02464556	
0.002328104	0.01245936	0.01840396	-0.1083278	-0.04340166	-0.02464556	0.08043862	-0.3113469	

2.334e+10	0.03122632	-0.3357812	-0.02860907	0.03136389	0.00576872	-0.0983159	0.008944028	0.008816623	
-0.02860907	0.03136389	0.03931634	-0.3560659	0.01022158	0.01112796	0.02349192	-0.1144336	
0.00576872	-0.0983159	0.01022158	0.01112796	0.06227595	-0.3079665	-0.04962612	0.004525064	
0.008944028	0.008816623	0.02349192	-0.1144336	-0.04962612	0.004525064	0.08347569	-0.3165691	

2.336e+10	0.0399369	-0.3407879	-0.005632665	0.04167104	0.01879425	-0.09955146	0.01220518	0.002102783	
-0.005632665	0.04167104	0.03504911	-0.3625397	0.01484388	0.002834038	0.02428508	-0.123077	
0.01879425	-0.09955146	0.01484388	0.002834038	0.0712099	-0.3037958	-0.03814157	0.03199324	
0.01220518	0.002102783	0.02428508	-0.123077	-0.03814157	0.03199324	0.08396536	-0.3230876	

2.338e+10	0.04434704	-0.3507476	0.01878703	0.03739612	0.02839639	-0.1084024	0.01103679	-0.00510439	
0.01878703	0.03739612	0.0276352	-0.3663391	0.01334799	-0.006473665	0.0195999	-0.1312243	
0.02839639	-0.1084024	0.01334799	-0.006473665	0.08169506	-0.306344	-0.01308242	0.04801878	
0.01103679	-0.00510439	0.0195999	-0.1312243	-0.01308242	0.04801878	0.08145438	-0.3297588	

2.34e+10	0.04250548	-0.3618319	0.0366762	0.02034669	0.03107393	-0.1210864	0.006130559	-0.01020982	
0.0366762	0.02034669	0.01927675	-0.3653819	0.006716956	-0.01264127	0.01064295	-0.1353221	
0.03107393	-0.1210864	0.006716956	-0.01264127	0.08923757	-0.3151909	0.01662146	0.04694536	
0.006130559	-0.01020982	0.01064295	-0.1353221	0.01662146	0.04694536	0.07577062	-0.3348851	

2.342e+10	0.03547249	-0.3702245	0.04209531	-0.004042788	0.02648015	-0.1329791	-0.0005435301	-0.01166835	
0.04209531	-0.004042788	0.01362346	-0.3597021	-0.001697995	-0.01355708	0.0009332084	-0.1333367	
0.02648015	-0.1329791	-0.001697995	-0.01355708	0.09080201	-0.3271111	0.04050634	0.02917435	
-0.0005435301	-0.01166835	0.0009332084	-0.1333367	0.04050634	0.02917435	0.06803523	-0.3362358	

2.344e+10	0.02615868	-0.3740865	0.03260115	-0.02767225	0.01667372	-0.1406652	-0.006756965	-0.009372211	
0.03260115	-0.02767225	0.01371193	-0.3522832	-0.008538394	-0.009846569	-0.005302733	-0.1260986	
0.01667372	-0.1406652	-0.008538394	-0.009846569	0.08620539	-0.338	0.05014865	0.0008587568	
-0.006756965	-0.009372211	-0.005302733	-0.1260986	0.05014865	0.0008587568	0.06136869	-0.3326059	

2.346e+10	0.01706708	-0.3738306	0.0108233	-0.04183253	0.0046307	-0.1425948	-0.01079378	-0.004199641	
0.0108233	-0.04183253	0.01940794	-0.3478991	-0.01207383	-0.003585603	-0.005448616	-0.1172335	
0.0046307	-0.1425948	-0.01207383	-0.003585603	0.07763201	-0.3450138	0.04187959	-0.02819819	
-0.01079378	-0.004199641	-0.005448616	-0.1172335	0.04187959	-0.02819819	0.05955389	-0.3257001	

2.348e+10	0.009303734	-0.3703632	-0.01551603	-0.04067508	-0.006770182	-0.1386248	-0.01149379	0.002445176	
-0.01551603	-0.04067508	0.02676958	-0.3498172	-0.01202881	0.003295224	-0.0001532961	-0.1111799	
-0.006770182	-0.1386248	-0.01202881	0.003295224	0.06774684	-0.3474264	0.01813891	-0.04748121	
-0.01149379	0.002445176	-0.0001532961	-0.1111799	0.01813891	-0.04748121	0.06399151	-0.3201881	

2.35e+10	0.00379725	-0.3638102	-0.03639842	-0.0242197	-0.01485209	-0.129491	-0.008359707	0.008596475	
-0.03639842	-0.0242197	0.03080061	-0.3570038	-0.008588076	0.009332922	0.007124446	-0.1104705	
-0.01485209	-0.129491	-0.008588076	0.009332922	0.0584622	-0.3455393	-0.01270233	-0.04947232	
-0.008359707	0.008596475	0.007124446	-0.1104705	-0.01270233	-0.04947232	0.07174696	-0.3204258	

2.352e+10	0.002749643	-0.3548193	-0.04376467	0.001459471	-0.0170071	-0.117152	-0.002123437	0.01206354	
-0.04376467	0.001459471	0.02940089	-0.3653389	-0.002200575	0.01297065	0.01263359	-0.1145253	
-0.0170071	-0.117152	-0.002200575	0.01297065	0.05137431	-0.3396567	-0.03909448	-0.03304909	
-0.002123437	0.01206354	0.01263359	-0.1145253	-0.03909448	-0.03304909	0.07751562	-0.3268438	

2.354e+10	0.008170998	-0.3467237	-0.0346939	0.02660233	-0.01151278	-0.1055138	0.005196117	0.01138972	
-0.0346939	0.02660233	0.02396058	-0.371428	0.005744319	0.01250802	0.01448203	-0.1210367	
-0.01151278	-0.1055138	0.005744319	0.01250802	0.04883271	-0.3307344	-0.05100349	-0.004282883	
0.005196117	0.01138972	0.01448203	-0.1210367	-0.05100349	-0.004282883	0.07797486	-0.3358469	

2.356e+10	0.01855229	-0.3444507	-0.01271115	0.04157631	0.0001911951	-0.09958782	0.01101189	0.006517346	
-0.01271115	0.04157631	0.01680222	-0.374193	0.01245084	0.007108172	0.01227058	-0.1276918	
0.0001911951	-0.09958782	0.01245084	0.007108172	0.05277305	-0.3219839	-0.04395379	0.0259942	
0.01101189	0.006517346	0.01227058	-0.1276918	-0.04395379	0.0259942	0.07352604	-0.343407	

2.358e+10	0.02837995	-0.3502822	0.01353413	0.0409378	0.01301995	-0.1023452	0.01300149	-0.001039704	
0.01353413	0.0409378	0.009410426	-0.3735715	0.01460813	-0.00173664	0.006431503	-0.1323538	
0.01301995	-0.1023452	0.01460813	-0.00173664	0.06212527	-0.3179474	-0.02074134	0.04643305	
0.01300149	-0.001039704	0.006431503	-0.1323538	-0.02074134	0.04643305	0.06648729	-0.347517	

2.36e+10	0.03243737	-0.3613169	0.03432912	0.02553226	0.02129479	-0.1122377	0.01014994	-0.008489079	
0.03432912	0.02553226	0.003358423	-0.3693247	0.0107372	-0.01019171	-0.001482938	-0.1329617	
0.02129479	-0.1122377	0.0107372	-0.01019171	0.07248186	-0.321183	0.009812845	0.04963123	
0.01014994	-0.008489079	-0.001482938	-0.1329617	0.009812845	0.04963123	0.05893755	-0.3478321	

2.362e+10	0.02970233	-0.3724174	0.04254857	0.001252406	0.02230366	-0.1246198	0.00341595	-0.01294074	
0.04254857	0.001252406	0.001188455	-0.3621981	0.00259118	-0.01443731	-0.008377758	-0.1285072	
0.02230366	-0.1246198	0.00259118	-0.01443731	0.07911789	-0.3302861	0.03640915	0.03474596	
0.00341595	-0.01294074	-0.008377758	-0.1285072	0.03640915	0.03474596	0.05267216	-0.3443347	

2.364e+10	0.02255176	-0.3802619	0.03547013	-0.02331015	0.01684587	-0.1352852	-0.004751955	-0.01268942	
0.03547013	-0.02331015	0.004925222	-0.3553859	-0.006193954	-0.01303856	-0.01068603	-0.1207581	
0.01684587	-0.1352852	-0.006193954	-0.01303856	0.0799263	-0.3414913	0.04953963	0.007445387	
-0.004751955	-0.01268942	-0.01068603	-0.1207581	0.04953963	0.007445387	0.05007456	-0.3377987	

2.366e+10	0.01355475	-0.384311	0.01559198	-0.03933871	0.007170861	-0.1418489	-0.01139026	-0.007653936	
0.01559198	-0.03933871	0.01337332	-0.3535872	-0.01236591	-0.007039093	-0.007082657	-0.1139401	
0.007170861	-0.1418489	-0.01236591	-0.007039093	0.07563603	-0.3514636	0.04459965	-0.0223134	
-0.01139026	-0.007653936	-0.007082657	-0.1139401	0.04459965	-0.0223134	0.05324432	-0.3311569	

2.368e+10	0.003921582	-0.38473	-0.00977533	-0.0410008	-0.004453665	-0.1432308	-0.01382149	0.0004850724	
-0.00977533	-0.0410008	0.02147664	-0.3592686	-0.01405943	0.001205318	-2.542334e-05	-0.11205	
-0.004453665	-0.1432308	-0.01405943	0.001205318	0.06794493	-0.3585592	0.02350695	-0.0436827	
-0.01382149	0.0004850724	-2.542334e-05	-0.11205	0.02350695	-0.0436827	0.06134298	-0.3289899	

2.37e+10	-0.005292439	-0.3809232	-0.03140374	-0.02792077	-0.01565311	-0.1388505	-0.01087811	0.008486689	
-0.03140374	-0.02792077	0.02387112	-0.3699406	-0.01089646	0.0089123	0.005935453	-0.1157679	
-0.01565311	-0.1388505	-0.01089646	0.0089123	0.05813871	-0.3620011	-0.005813746	-0.04895903	
-0.01087811	0.008486689	0.005935453	-0.1157679	-0.005813746	-0.04895903	0.06971402	-0.3340225	

2.372e+10	-0.01143961	-0.3725044	-0.04172734	-0.004916604	-0.02333552	-0.1290471	-0.003889084	0.01308738	
-0.04172734	-0.004916604	0.01911173	-0.3801599	-0.004000824	0.0135674	0.007757436	-0.1224145	
-0.02333552	-0.1290471	-0.004000824	0.0135674	0.04758353	-0.3606545	-0.03263647	-0.03657892	
-0.003889084	0.01308738	0.007757436	-0.1224145	-0.03263647	-0.03657892	0.0730927	-0.3443173	

2.374e+10	-0.01110779	-0.3616995	-0.03704635	0.02001418	-0.02433267	-0.1162712	0.004229945	0.012836	
-0.03704635	0.02001418	0.009914189	-0.3858126	0.004425537	0.01364633	0.005223068	-0.1287541	
-0.02433267	-0.1162712	0.004425537	0.01364633	0.03918697	-0.3537059	-0.04750761	-0.01126535	
0.004229945	0.012836	0.005223068	-0.1287541	-0.04750761	-0.01126535	0.06953074	-0.3548929	

2.376e+10	-0.003260064	-0.353755	-0.01867196	0.03779644	-0.01739911	-0.105282	0.01072292	0.008211642	
-0.01867196	0.03779644	6.064688e-05	-0.38609	0.01170099	0.008856775	-0.0002897026	-0.1327897	
-0.01739911	-0.105282	0.01170099	0.008856775	0.03688284	-0.3429122	-0.04527131	0.01796075	
0.01072292	0.008211642	-0.0002897026	-0.1327897	-0.04527131	0.01796075	0.06114764	-0.3613731	

2.378e+10	0.00831957	-0.3535521	0.006711253	0.04150997	-0.005222832	-0.1010752	0.01364958	0.0007284117	
0.006711253	0.04150997	-0.007977725	-0.3821267	0.01502347	0.0003688449	-0.007247404	-0.1336036	
-0.005222832	-0.1010752	0.01502347	0.0003688449	0.04257155	-0.3332922	-0.02662625	0.04062725	
0.01364958	0.0007284117	-0.007247404	-0.1336036	-0.02662625	0.04062725	0.05176106	-0.3624224	

2.38e+10	0.01726875	-0.3613576	0.02933797	0.02973803	0.006612163	-0.1053026	0.0118513	-0.007356713	
0.02933797	0.02973803	-0.01277217	-0.3751326	0.01251177	-0.008757257	-0.01394623	-0.1306276	
0.006612163	-0.1053026	0.01251177	-0.008757257	0.05359807	-0.3301577	0.001637666	0.04832326	
0.0118513	-0.007356713	-0.01394623	-0.1306276	0.001637666	0.04832326	0.04430894	-0.3591571	

2.382e+10	0.01971744	-0.372869	0.0407596	0.007247914	0.01330533	-0.1154357	0.005492159	-0.01316427	
0.0407596	0.007247914	-0.01267992	-0.3665908	0.004821499	-0.01455415	-0.01799251	-0.1241227	
0.01330533	-0.1154357	0.004821499	-0.01455415	0.06435355	-0.3350966	0.02894844	0.03829198	
0.005492159	-0.01316427	-0.01799251	-0.1241227	0.02894844	0.03829198	0.04024386	-0.3533255	

2.384e+10	0.01603673	-0.3835849	0.03709179	-0.01737586	0.01332687	-0.1272239	-0.003394529	-0.01413923	
0.03709179	-0.01737586	-0.006582765	-0.3598498	-0.004771085	-0.01445181	-0.01699168	-0.1163458	
0.01332687	-0.1272239	-0.004771085	-0.01445181	0.07027899	-0.3455558	0.04527296	0.01460357	
-0.003394529	-0.01413923	-0.01699168	-0.1163458	0.04527296	0.01460357	0.04039602	-0.3466945	

2.386e+10	0.008320648	-0.3913516	0.02018394	-0.03507402	0.007438465	-0.1372586	-0.01129761	-0.009412813	
0.02018394	-0.03507402	0.0035304	-0.3592727	-0.01220921	-0.008683053	-0.01095737	-0.1112919	
0.007438465	-0.1372586	-0.01220921	-0.008683053	0.0700004	-0.3575216	0.04504624	-0.01378062	
-0.01129761	-0.009412813	-0.01095737	-0.1112919	0.04504624	-0.01378062	0.04509189	-0.3416774	

2.388e+10	-0.001883593	-0.3953155	-0.003339405	-0.03985133	-0.002704803	-0.1433445	-0.01465735	-0.0007194286	
-0.003339405	-0.03985133	0.01225729	-0.3665951	-0.01465342	0.0001304362	-0.003132526	-0.1119362	
-0.002704803	-0.1433445	-0.01465342	0.0001304362	0.06437481	-0.367941	0.02891674	-0.03663465	
-0.01465735	-0.0007194286	-0.003132526	-0.1119362	0.02891674	-0.03663465	0.05284354	-0.3411516	

2.39e+10	-0.013125	-0.3944017	-0.02509153	-0.03072144	-0.01489276	-0.1437707	-0.01194577	0.008069667	
-0.02509153	-0.03072144	0.01442491	-0.3787654	-0.01156172	0.008369293	0.002172698	-0.11776	
-0.01489276	-0.1437707	-0.01156172	0.008369293	0.05479327	-0.3749071	0.003023061	-0.04623427	
-0.01194577	0.008069667	0.002172698	-0.11776	0.003023061	-0.04623427	0.0600987	-0.3464561	

2.392e+10	-0.02265178	-0.387789	-0.03800521	-0.01117113	-0.02598793	-0.1378009	-0.004726372	0.01315682	
-0.03800521	-0.01117113	0.008867351	-0.3901492	-0.00461744	0.01312656	0.002623897	-0.1256826	
-0.02598793	-0.1378009	-0.00461744	0.01312656	0.04292235	-0.3767831	-0.0235695	-0.03967979	
-0.004726372	0.01315682	0.002623897	-0.1256826	-0.0235695	-0.03967979	0.06314639	-0.3560132	

2.394e+10	-0.02663354	-0.3767197	-0.03781052	0.01243878	-0.03228016	-0.1265478	0.00359222	0.01299981	
-0.03781052	0.01243878	-0.001584449	-0.3964268	0.003475127	0.01323228	-0.001459417	-0.132512	
-0.03228016	-0.1265478	0.003475127	0.01323228	0.03163889	-0.3722579	-0.0418974	-0.01938595	
0.00359222	0.01299981	-0.001459417	-0.132512	-0.0418974	-0.01938595	0.06034036	-0.3661919	

2.396e+10	-0.02247424	-0.36567	-0.02402806	0.03208394	-0.0309521	-0.1136091	0.009968895	0.008488096	
-0.02402806	0.03208394	-0.01276079	-0.3965747	0.01024117	0.009019919	-0.008493795	-0.1362956	
-0.0309521	-0.1136091	0.01024117	0.009019919	0.02517146	-0.3619658	-0.04566951	0.007872078	
0.009968895	0.008488096	-0.008493795	-0.1362956	-0.04566951	0.007872078	0.05281035	-0.3733535	

2.398e+10	-0.01172627	-0.3605093	-0.001058125	0.04024709	-0.02212491	-0.1042685	0.01283147	0.001552119	
-0.001058125	0.04024709	-0.02164539	-0.3919428	0.01369065	0.001685415	-0.01660776	-0.1362818	
-0.02212491	-0.1042685	0.01369065	0.001685415	0.02705291	-0.3500662	-0.03315189	0.03272646	
0.01283147	0.001552119	-0.01660776	-0.1362818	-0.03315189	0.03272646	0.04347268	-0.3757234	

2.4e+10	-0.000209816	-0.3642899	0.02247328	0.03335566	-0.009732728	-0.1025793	0.01161911	-0.005850667	
0.02247328	0.03335566	-0.02683091	-0.3843747	0.0123429	-0.0066049	-0.02393335	-0.1322214	
-0.009732728	-0.1025793	0.0123429	-0.0066049	0.03670953	-0.3428202	-0.008360076	0.04600253	
0.01161911	-0.005850667	-0.02393335	-0.1322214	-0.008360076	0.04600253	0.0351698	-0.3736585	

2.402e+10	0.006205772	-0.3746386	0.03741784	0.01406221	0.0006584361	-0.108718	0.006419161	-0.01161296	
0.03741784	0.01406221	-0.02724726	-0.3754326	0.006192006	-0.01269212	-0.02826597	-0.1246145	
0.0006584361	-0.108718	0.006192006	-0.01269212	0.04890584	-0.3442333	0.01968358	0.04243179	
0.006419161	-0.01161296	-0.02826597	-0.1246145	0.01968358	0.04243179	0.02954987	-0.368477	

2.404e+10	0.005607073	-0.3865693	0.03828559	-0.01003547	0.005308809	-0.119392	-0.001505434	-0.01350636	
0.03828559	-0.01003547	-0.0219098	-0.367808	-0.002475269	-0.01388205	-0.02736508	-0.1154923	
0.005308809	-0.119392	-0.002475269	-0.01388205	0.05748018	-0.3532135	0.04042145	0.02329597	
-0.001505434	-0.01350636	-0.02736508	-0.1154923	0.04042145	0.02329597	0.02771334	-0.3615695	

2.406e+10	-0.0005811819	-0.3964196	0.02524973	-0.02983041	0.003499662	-0.1306831	-0.009376511	-0.01019331	
0.02524973	-0.02983041	-0.01195326	-0.3655246	-0.01006398	-0.009664502	-0.02061956	-0.1088136	
0.003499662	-0.1306831	-0.01006398	-0.009664502	0.05943666	-0.3653164	0.04625963	-0.004122947	
-0.009376511	-0.01019331	-0.02061956	-0.1088136	0.04625963	-0.004122947	0.03066604	-0.3549377	

2.408e+10	-0.01032057	-0.4024477	0.003711412	-0.03838298	-0.003809927	-0.139628	-0.01369688	-0.002521262	
0.003711412	-0.03838298	-0.002021333	-0.3711945	-0.01357625	-0.001903185	-0.01092283	-0.1083609	
-0.003809927	-0.139628	-0.01357625	-0.001903185	0.05528603	-0.3764419	0.03538093	-0.02970286	
-0.01369688	-0.002521262	-0.01092283	-0.1083609	0.03538093	-0.02970286	0.03801188	-0.3517923	

2.41e+10	-0.02183482	-0.4035597	-0.01840605	-0.03343899	-0.01491872	-0.1438987	-0.01225915	0.006187172	
-0.01840605	-0.03343899	0.002245606	-0.3829234	-0.01187345	0.006194101	-0.003288078	-0.1145628	
-0.01491872	-0.1438987	-0.01187345	0.006194101	0.04689266	-0.38435	0.01205227	-0.04435056	
-0.01225915	0.006187172	-0.003288078	-0.1145628	0.01205227	-0.04435056	0.04670846	-0.3547382	

2.412e+10	-0.0325334	-0.3988654	-0.03390424	-0.01728253	-0.02704808	-0.1419256	-0.005902081	0.01187405	
-0.03390424	-0.01728253	-0.001469396	-0.3952573	-0.005998138	0.0115617	-0.001277472	-0.1242634	
-0.02704808	-0.1419256	-0.005998138	0.0115617	0.03602509	-0.3877501	-0.01523759	-0.04319728	
-0.005902081	0.01187405	-0.001277472	-0.1242634	-0.01523759	-0.04319728	0.0523134	-0.3634343	

2.414e+10	-0.03885638	-0.3890846	-0.03794632	0.004834112	-0.0365156	-0.1336618	0.002037223	0.01244739	
-0.03794632	0.004834112	-0.01110958	-0.403277	0.00152831	0.01259058	-0.005238437	-0.1333271	
-0.0365156	-0.1336618	0.00152831	0.01259058	0.02485002	-0.38553	-0.03704924	-0.02693761	
0.002037223	0.01244739	-0.005238437	-0.1333271	-0.03704924	-0.02693761	0.05189314	-0.3745018	

2.416e+10	-0.03769844	-0.3776229	-0.02876239	0.02581608	-0.03974063	-0.121443	0.008233312	0.008672159	
-0.02876239	0.02581608	-0.02250054	-0.4051156	0.008124306	0.009449714	-0.01338209	-0.1388767	
-0.03974063	-0.121443	0.008124306	0.009449714	0.0168321	-0.3775049	-0.04598446	-0.001115806	
0.008233312	0.008672159	-0.01338209	-0.1388767	-0.04598446	-0.001115806	0.04563391	-0.3836656	

2.418e+10	-0.02910288	-0.3701176	-0.008789404	0.0380408	-0.03509243	-0.1098929	0.01116897	0.002730963	
-0.008789404	0.0380408	-0.03220036	-0.4017918	0.01196239	0.00335144	-0.02313668	-0.1396666	
-0.03509243	-0.1098929	0.01196239	0.00335144	0.01582985	-0.3663782	-0.0386593	0.02552016	
0.01116897	0.002730963	-0.02313668	-0.1396666	-0.0386593	0.02552016	0.03623425	-0.3881625	

2.42e+10	-0.01759514	-0.3709029	0.01494651	0.03631871	-0.02464217	-0.1040005	0.01078771	-0.003572918	
0.01494651	0.03631871	-0.03860619	-0.3952993	0.01187357	-0.003970996	-0.03213535	-0.1356249	
-0.02464217	-0.1040005	0.01187357	-0.003970996	0.02289578	-0.3578383	-0.01707382	0.04341106	
0.01078771	-0.003572918	-0.03213535	-0.1356249	-0.01707382	0.04341106	0.02693023	-0.3877459	

2.422e+10	-0.009603591	-0.3793985	0.03326418	0.02092244	-0.01339609	-0.1059666	0.007294007	-0.008956733	
0.03326418	0.02092244	-0.04101876	-0.3870827	0.007549493	-0.01013654	-0.0380439	-0.1274532	
-0.01339609	-0.1059666	0.007549493	-0.01013654	0.03412826	-0.3569823	0.01119013	0.04548267	
0.007294007	-0.008956733	-0.0380439	-0.1274532	0.01119013	0.04548267	0.01984528	-0.3836671	

2.424e+10	-0.008516193	-0.3909172	0.03909128	-0.002215383	-0.006073763	-0.1140284	0.001136186	-0.01187577	
0.03909128	-0.002215383	-0.03841914	-0.3788871	0.0003132174	-0.01268013	-0.03854865	-0.1171086	
-0.006073763	-0.1140284	0.0003132174	-0.01268013	0.04310331	-0.3641781	0.03544869	0.03063954	
0.001136186	-0.01187577	-0.03854865	-0.1171086	0.03544869	0.03063954	0.01604483	-0.377309	

2.426e+10	-0.01352943	-0.4008718	0.03042303	-0.02421258	-0.004709518	-0.1244609	-0.006096333	-0.01073585	
0.03042303	-0.02421258	-0.03065441	-0.3739757	-0.007064791	-0.01048977	-0.03263727	-0.1082364	
-0.004709518	-0.1244609	-0.007064791	-0.01048977	0.04578162	-0.3752979	0.04651655	0.004544349	
-0.006096333	-0.01073585	-0.03263727	-0.1082364	0.04651655	0.004544349	0.0165711	-0.3701993	

2.428e+10	-0.02223703	-0.4071732	0.01090215	-0.03694709	-0.008979436	-0.1340596	-0.01153375	-0.005181054	
0.01090215	-0.03694709	-0.0206603	-0.3758926	-0.01173592	-0.004432294	-0.02219747	-0.1051526	
-0.008979436	-0.1340596	-0.01173592	-0.004432294	0.04227401	-0.3856902	0.04048408	-0.02297293	
-0.01153375	-0.005181054	-0.02219747	-0.1051526	0.04048408	-0.02297293	0.02187828	-0.3650249	

2.43e+10	-0.03264389	-0.4090294	-0.01197526	-0.0362523	-0.0177175	-0.1403864	-0.01238539	0.002791167	
-0.01197526	-0.0362523	-0.01386897	-0.3848302	-0.011978	0.003113339	-0.01217949	-0.109706	
-0.0177175	-0.1403864	-0.011978	0.003113339	0.03484736	-0.3928575	0.01988988	-0.04185216	
-0.01238539	0.002791167	-0.01217949	-0.109706	0.01988988	-0.04185216	0.03010287	-0.3649004	

2.432e+10	-0.04270451	-0.4058293	-0.03025282	-0.02301311	-0.02888151	-0.1414516	-0.008085628	0.009467054	
-0.03025282	-0.02301311	-0.01415622	-0.3966475	-0.007879778	0.009232559	-0.007385188	-0.1195822	
-0.02888151	-0.1414516	-0.007879778	0.009232559	0.02553426	-0.3960377	-0.00757763	-0.04554088	
-0.008085628	0.009467054	-0.007385188	-0.1195822	-0.00757763	-0.04554088	0.03717928	-0.370851	

2.434e+10	-0.04945709	-0.3978578	-0.03806352	-0.001881595	-0.03922643	-0.1363496	-0.0009506593	0.01193018	
-0.03806352	-0.001881595	-0.02103988	-0.4060753	-0.001257246	0.01180725	-0.00941176	-0.1302805	
-0.03922643	-0.1363496	-0.001257246	0.01180725	0.01599185	-0.3947262	-0.0321601	-0.03303633	
-0.0009506593	0.01193018	-0.00941176	-0.1302805	-0.0321601	-0.03303633	0.03945108	-0.3805908	

2.436e+10	-0.04989746	-0.3876317	-0.03264468	0.02027213	-0.04501472	-0.1262765	0.005690488	0.009890868	
-0.03264468	0.02027213	-0.03097739	-0.4102622	0.005420999	0.01034126	-0.01688686	-0.1379704	
-0.04501472	-0.1262765	0.005420999	0.01034126	0.008717952	-0.3886522	-0.04535216	-0.008815566	
0.005690488	0.009890868	-0.01688686	-0.1379704	-0.04535216	-0.008815566	0.03601192	-0.3901214	

2.438e+10	-0.04329586	-0.3800619	-0.01521567	0.03568989	-0.04370533	-0.1149946	0.009768709	0.005017633	
-0.01521567	0.03568989	-0.04043805	-0.4095485	0.0101802	0.005619075	-0.02700479	-0.140763	
-0.04370533	-0.1149946	0.0101802	0.005619075	0.006982641	-0.3795358	-0.04243859	0.01882392	
0.009768709	0.005017633	-0.02700479	-0.140763	-0.04243859	0.01882392	0.02872223	-0.3963306	

2.44e+10	-0.03313239	-0.3796972	0.008298801	0.03816413	-0.03597572	-0.1074578	0.01080184	-0.0009087646	
0.008298801	0.03816413	-0.04773795	-0.4056406	0.0116832	-0.000989157	-0.037081	-0.1383882	
-0.03597572	-0.1074578	0.0116832	-0.000989157	0.01234069	-0.3720054	-0.02397941	0.04003495	
0.01080184	-0.0009087646	-0.037081	-0.1383882	-0.02397941	0.04003495	0.0204617	-0.3984149	

2.442e+10	-0.0255363	-0.3869182	0.02896067	0.02633648	-0.02595396	-0.1067914	0.008790581	-0.006624178	
0.02896067	0.02633648	-0.05246165	-0.3996716	0.009196135	-0.007500452	-0.04481864	-0.1314283	
-0.02595396	-0.1067914	0.009196135	-0.007500452	0.02191525	-0.3710634	0.003600069	0.04665932	
0.008790581	-0.006624178	-0.04481864	-0.1314283	0.003600069	0.04665932	0.01311579	-0.3972535	

2.444e+10	-0.02447478	-0.3974271	0.03883243	0.004676479	-0.01841506	-0.1122698	0.003858692	-0.01070796	
0.03883243	0.004676479	-0.05367367	-0.3922347	0.003304523	-0.01149546	-0.04797672	-0.121361	
-0.01841506	-0.1122698	0.003304523	-0.01149546	0.02968468	-0.3776852	0.02992232	0.03595342	
0.003858692	-0.01070796	-0.04797672	-0.121361	0.02992232	0.03595342	0.007400584	-0.3936604	

2.446e+10	-0.02941391	-0.4063669	0.03427498	-0.01861134	-0.01578022	-0.1206928	-0.00297625	-0.01145879	
0.03427498	-0.01861134	-0.04998528	-0.385392	-0.003858292	-0.01135965	-0.04487852	-0.1110224	
-0.01578022	-0.1206928	-0.003858292	-0.01135965	0.03135173	-0.3880556	0.04507625	0.01204189	
-0.00297625	-0.01145879	-0.04487852	-0.1110224	0.04507625	0.01204189	0.004307159	-0.3880061	

2.448e+10	-0.03753375	-0.4114717	0.01712545	-0.03482499	-0.01808974	-0.1290584	-0.009404072	-0.007865814	
0.01712545	-0.03482499	-0.04203808	-0.382859	-0.009656204	-0.007153042	-0.03599085	-0.1046437	
-0.01808974	-0.1290584	-0.009656204	-0.007153042	0.02694653	-0.397207	0.04363555	-0.01607984	
-0.009404072	-0.007865814	-0.03599085	-0.1046437	0.04363555	-0.01607984	0.005390022	-0.3817119	

2.45e+10	-0.04656658	-0.4125502	-0.005997164	-0.03807965	-0.02448017	-0.1352423	-0.01249924	-0.0007710556	
-0.005997164	-0.03807965	-0.03394304	-0.3871148	-0.01203093	-0.0003822909	-0.02505247	-0.1054859	
-0.02448017	-0.1352423	-0.01203093	-0.0003822909	0.0192354	-0.4025106	0.02633792	-0.03813483	
-0.01249924	-0.0007710556	-0.02505247	-0.1054859	0.02633792	-0.03813483	0.01081443	-0.3779453	

2.452e+10	-0.05493958	-0.4095717	-0.02655811	-0.02763655	-0.03354133	-0.1374878	-0.01050367	0.006844647	
-0.02655811	-0.02763655	-0.03056268	-0.3962932	-0.01010909	0.006532355	-0.01731588	-0.113173	
-0.03354133	-0.1374878	-0.01010909	0.006532355	0.01088917	-0.4037232	-0.0003435134	-0.04620072	
-0.01050367	0.006844647	-0.01731588	-0.113173	-0.0003435134	-0.04620072	0.01790901	-0.3793375	

2.454e+10	-0.06047695	-0.4027851	-0.03751635	-0.007516936	-0.04278174	-0.1344579	-0.00436475	0.01151449	
-0.03751635	-0.007516936	-0.03345302	-0.4056831	-0.004624655	0.01109364	-0.01602354	-0.1237973	
-0.04278174	-0.1344579	-0.004624655	0.01109364	0.003467458	-0.401345	-0.02673341	-0.037562	
-0.00436475	0.01151449	-0.01602354	-0.1237973	-0.02673341	-0.037562	0.02275349	-0.3855993	

2.456e+10	-0.06061401	-0.3942274	-0.03515054	0.01533498	-0.04871896	-0.1266529	0.00296794	0.01161067	
-0.03515054	0.01533498	-0.04032108	-0.4116701	0.00242364	0.0117966	-0.0208774	-0.132971	
-0.04871896	-0.1266529	0.00242364	0.0117966	-0.001409018	-0.3957375	-0.043429	-0.01541314	
0.00296794	0.01161067	-0.0208774	-0.132971	-0.043429	-0.01541314	0.02311909	-0.3937819	

2.458e+10	-0.05466306	-0.3882104	-0.0199838	0.0328805	-0.04866099	-0.1171887	0.008748226	0.007791647	
-0.0199838	0.0328805	-0.0480033	-0.413805	0.008725323	0.008469612	-0.02949017	-0.1381474	
-0.04866099	-0.1171887	0.008725323	0.008469612	-0.001511876	-0.3884471	-0.04442778	0.01237103	
0.008748226	0.007791647	-0.02949017	-0.1381474	-0.04442778	0.01237103	0.01955396	-0.4008133	

2.46e+10	-0.0458521	-0.388856	0.002700402	0.0384152	-0.0429176	-0.1106482	0.01150489	0.00168757	
0.002700402	0.0384152	-0.05496071	-0.413342	0.01217421	0.00203425	-0.0392758	-0.138613	
-0.0429176	-0.1106482	0.01217421	0.00203425	0.004094749	-0.3833381	-0.02914548	0.03574863	
0.01150489	0.00168757	-0.0392758	-0.138613	-0.02914548	0.03574863	0.01403739	-0.4054271	

2.462e+10	-0.0399811	-0.3963586	0.02434734	0.02973076	-0.03516915	-0.1098684	0.01062006	-0.00496418	
0.02434734	0.02973076	-0.06119227	-0.4109187	0.0112534	-0.005409365	-0.04813068	-0.1345718	
-0.03516915	-0.1098684	0.0112534	-0.005409365	0.01256084	-0.3845149	-0.003133269	0.04591321	
0.01062006	-0.00496418	-0.04813068	-0.1345718	-0.003133269	0.04591321	0.007868733	-0.4079541	

2.464e+10	-0.04075279	-0.4062812	0.03693602	0.01024674	-0.02965169	-0.1140794	0.006175079	-0.0102192	
0.03693602	0.01024674	-0.06601677	-0.4060281	0.006079752	-0.01094473	-0.0541147	-0.1266863	
-0.02965169	-0.1140794	0.006079752	-0.01094473	0.01833408	-0.3924119	0.0238207	0.039132	
0.006175079	-0.0102192	-0.0541147	-0.1266863	0.0238207	0.039132	0.001211953	-0.4084682	

2.466e+10	-0.04715537	-0.4136207	0.036062	-0.01287373	-0.0281662	-0.120276	-0.000664209	-0.01221295	
0.036062	-0.01287373	-0.06736502	-0.3991756	-0.001270399	-0.01241417	-0.05508845	-0.1166459	
-0.0281662	-0.120276	-0.001270399	-0.01241417	0.01752928	-0.4029389	0.04178745	0.01825041	
-0.000664209	-0.01221295	-0.05508845	-0.1166459	0.04178745	0.01825041	-0.005273421	-0.4060858	

2.468e+10	-0.0556712	-0.416294	0.0220018	-0.03132049	-0.03029617	-0.1259989	-0.007732177	-0.009918126	
0.0220018	-0.03132049	-0.0637605	-0.3932344	-0.008058181	-0.009515339	-0.05004853	-0.1078203	
-0.03029617	-0.1259989	-0.008058181	-0.009515339	0.01069679	-0.4109608	0.04456144	-0.008998922	
-0.007732177	-0.009918126	-0.05004853	-0.1078203	0.04456144	-0.008998922	-0.009369312	-0.4005404	

2.47e+10	-0.06348361	-0.4150126	-0.0001793365	-0.03819758	-0.03506912	-0.1299719	-0.01237708	-0.003678009	
-0.0001793365	-0.03819758	-0.0568767	-0.3919346	-0.01209972	-0.003357824	-0.04069509	-0.104109	
-0.03506912	-0.1299719	-0.01209972	-0.003357824	0.00137221	-0.4137977	0.03127979	-0.03291597	
-0.01237708	-0.003678009	-0.04069509	-0.104109	0.03127979	-0.03291597	-0.008770053	-0.3940424	

2.472e+10	-0.0693883	-0.4109024	-0.02214528	-0.0309208	-0.04148681	-0.1312597	-0.01238778	0.004394044	
-0.02214528	-0.0309208	-0.05105661	-0.3962543	-0.01205835	0.004123795	-0.0313748	-0.107224	
-0.04148681	-0.1312597	-0.01205835	0.004123795	-0.006908148	-0.4118321	0.006632037	-0.0448958	
-0.01238778	0.004394044	-0.0313748	-0.107224	0.006632037	-0.0448958	-0.003780515	-0.3902717	

2.474e+10	-0.07231396	-0.4047407	-0.03574931	-0.01237931	-0.04801009	-0.1288886	-0.007436342	0.01092173	
-0.03574931	-0.01237931	-0.04951849	-0.4034122	-0.00770372	0.01045289	-0.0263144	-0.1152644	
-0.04801009	-0.1288886	-0.00770372	0.01045289	-0.01227267	-0.4068049	-0.0204476	-0.04046181	
-0.007436342	0.01092173	-0.0263144	-0.1152644	-0.0204476	-0.04046181	0.002465991	-0.3913822	

2.476e+10	-0.07078808	-0.398207	-0.0361402	0.01046551	-0.05205718	-0.1231167	0.0003806783	0.01315149	
-0.0361402	0.01046551	-0.05195225	-0.409921	-0.0002985203	0.01325664	-0.02692548	-0.1244301	
-0.05205718	-0.1231167	-0.0002985203	0.01325664	-0.01385565	-0.4003803	-0.0399826	-0.02116076	
0.0003806783	0.01315149	-0.02692548	-0.1244301	-0.0399826	-0.02116076	0.006657621	-0.3964841	

2.478e+10	-0.06470311	-0.3947727	-0.02329347	0.02921059	-0.05150539	-0.1164479	0.007885465	0.01041323	
-0.02329347	0.02921059	-0.05633076	-0.4145604	0.007629406	0.01118345	-0.03211928	-0.1316587	
-0.05150539	-0.1164479	0.007629406	0.01118345	-0.01091655	-0.394519	-0.04468463	0.005827314	
0.007885465	0.01041323	-0.03211928	-0.1316587	-0.04468463	0.005827314	0.007584867	-0.4030886	

2.48e+10	-0.05733282	-0.3975673	-0.002182496	0.03693157	-0.04697845	-0.1125815	0.01236688	0.003932273	
-0.002182496	0.03693157	-0.0616865	-0.4178411	0.01294875	0.004598368	-0.04002728	-0.1355642	
-0.04697845	-0.1125815	0.01294875	0.004598368	-0.003868747	-0.3923109	-0.03287709	0.03039127	
0.01236688	0.003932273	-0.04002728	-0.1355642	-0.03287709	0.03039127	0.005861872	-0.4095581	

2.482e+10	-0.05382915	-0.4059164	0.01913941	0.03118746	-0.04185743	-0.1133377	0.01230156	-0.003866868	
0.01913941	0.03118746	-0.06836667	-0.4195563	0.01317539	-0.004002739	-0.04903865	-0.1355417	
-0.04185743	-0.1133377	0.01317539	-0.004002739	0.003993006	-0.3964899	-0.00925367	0.04338613	
0.01230156	-0.003866868	-0.04903865	-0.1355417	-0.00925367	0.04338613	0.001987045	-0.4155052	

2.484e+10	-0.05694045	-0.4152442	0.03321879	0.01466786	-0.03936386	-0.117238	0.007819894	-0.01012725	
0.03321879	0.01466786	-0.07593225	-0.4182431	0.008168278	-0.01087003	-0.05730196	-0.131159	
-0.03936386	-0.117238	0.008168278	-0.01087003	0.007702746	-0.406337	0.01711576	0.04043793	
0.007819894	-0.01012725	-0.05730196	-0.131159	0.01711576	0.04043793	-0.004386307	-0.4202471	

2.486e+10	-0.06500698	-0.42094	0.03562558	-0.006758574	-0.04018789	-0.121517	0.0007130992	-0.012703	
0.03562558	-0.006758574	-0.08194211	-0.4130811	0.0003581685	-0.01330518	-0.06240316	-0.1229502	
-0.04018789	-0.121517	0.0003581685	-0.01330518	0.004320551	-0.4174376	0.03680441	0.02329106	
0.0007130992	-0.012703	-0.06240316	-0.1229502	0.03680441	0.02329106	-0.012971	-0.4218907	

2.488e+10	-0.07413962	-0.4213267	0.02550568	-0.02597381	-0.04321303	-0.1244405	-0.006564614	-0.01093832	
0.02550568	-0.02597381	-0.08355761	-0.4056231	-0.007089487	-0.01096707	-0.06215337	-0.1132906	
-0.04321303	-0.1244405	-0.007089487	-0.01096707	-0.005026682	-0.4247703	0.04336336	-0.001758406	
-0.006564614	-0.01093832	-0.06215337	-0.1132906	0.04336336	-0.001758406	-0.02142659	-0.4187722	

2.49e+10	-0.0811835	-0.4176529	0.005936239	-0.03610424	-0.04721443	-0.1255454	-0.01175061	-0.005407162	
0.005936239	-0.03610424	-0.08006317	-0.399588	-0.0119197	-0.005145771	-0.05638166	-0.1057711	
-0.04721443	-0.1255454	-0.0119197	-0.005145771	-0.01628519	-0.4256586	0.03467036	-0.0261725	
-0.01175061	-0.005407162	-0.05638166	-0.1057711	0.03467036	-0.0261725	-0.0261606	-0.4115694	

2.492e+10	-0.08496722	-0.4121019	-0.01612726	-0.03293438	-0.05140093	-0.1248317	-0.01299868	0.00233649	
-0.01612726	-0.03293438	-0.07373406	-0.3982213	-0.01291797	0.002377883	-0.04757426	-0.1035767	
-0.05140093	-0.1248317	-0.01291797	0.002377883	-0.02517191	-0.4208379	0.01343968	-0.04145169	
-0.01299868	0.00233649	-0.04757426	-0.1035767	0.01343968	-0.04145169	-0.02502693	-0.4038653	

2.494e+10	-0.08544533	-0.4061698	-0.03218528	-0.01737349	-0.05493051	-0.1221689	-0.009390986	0.009646852	
-0.03218528	-0.01737349	-0.06860753	-0.4015816	-0.009546802	0.009487005	-0.03973383	-0.1072994	
-0.05493051	-0.1221689	-0.009546802	0.009487005	-0.02924013	-0.4130764	-0.01295725	-0.04170346	
-0.009390986	0.009646852	-0.03973383	-0.1072994	-0.01295725	-0.04170346	-0.01933845	-0.3996924	

2.496e+10	-0.08230957	-0.4013366	-0.03601535	0.004537025	-0.05646929	-0.1178605	-0.00194558	0.01348639	
-0.03601535	0.004537025	-0.06651846	-0.4072736	-0.00238524	0.01364712	-0.03596472	-0.1146934	
-0.05646929	-0.1178605	-0.00238524	0.01364712	-0.02811276	-0.4053864	-0.03467085	-0.02646954	
-0.00194558	0.01348639	-0.03596472	-0.1146934	-0.03467085	-0.02646954	-0.01264568	-0.4006105	

2.498e+10	-0.07609223	-0.4000273	-0.02640822	0.0242496	-0.054791	-0.1137965	0.006420024	0.01207431	
-0.02640822	0.0242496	-0.06718993	-0.4134257	0.006284724	0.01273239	-0.03686392	-0.122796	
-0.054791	-0.1137965	0.006284724	0.01273239	-0.02247945	-0.4003193	-0.04335614	-0.001468573	
0.006420024	0.01207431	-0.03686392	-0.122796	-0.04335614	-0.001468573	-0.007806176	-0.4054449	

2.5e+10	-0.06979657	-0.4042894	-0.007563834	0.03445964	-0.05093162	-0.1124868	0.01224679	0.005907152	
-0.007563834	0.03445964	-0.07025756	-0.4195277	0.0128171	0.006490959	-0.04180357	-0.1294264	
-0.05093162	-0.1124868	0.0128171	0.006490959	-0.01414491	-0.4002501	-0.03588574	0.02362636	
0.01224679	0.005907152	-0.04180357	-0.1294264	-0.03588574	0.02362636	-0.00576534	-0.4123697	

2.502e+10	-0.06775948	-0.4130592	0.01311996	0.03215109	-0.04769546	-0.1148068	0.01316369	-0.002390587	
0.01311996	0.03215109	-0.07625145	-0.4246382	0.01404015	-0.002534065	-0.04963782	-0.1331164	
-0.04769546	-0.1148068	0.01404015	-0.002534065	-0.00664073	-0.4064658	-0.01562431	0.0394625	
0.01316369	-0.002390587	-0.04963782	-0.1331164	-0.01562431	0.0394625	-0.006815464	-0.4203047	

2.504e+10	-0.07206485	-0.4221734	0.02863087	0.01905473	-0.04742542	-0.1189331	0.009097204	-0.009346697	
0.02863087	0.01905473	-0.08488965	-0.4267691	0.009502641	-0.01014445	-0.05874553	-0.1325668	
-0.04742542	-0.1189331	0.009502641	-0.01014445	-0.004080124	-0.4174401	0.0095205	0.04084409	
0.009097204	-0.009346697	-0.05874553	-0.1325668	0.0095205	0.04084409	-0.01155344	-0.4280741	

2.506e+10	-0.08113236	-0.4273364	0.03441011	-0.0002481717	-0.05011761	-0.122321	0.002125471	-0.01249755	
0.03441011	-0.0002481717	-0.09381873	-0.42424	0.001750487	-0.01325693	-0.06662936	-0.1273419	
-0.05011761	-0.122321	0.001750487	-0.01325693	-0.008663617	-0.4289725	0.03069697	0.02807738	
0.002125471	-0.01249755	-0.06662936	-0.1273419	0.03069697	0.02807738	-0.02015342	-0.4334617	

2.508e+10	-0.09116709	-0.4267097	0.02856888	-0.01980269	-0.05433974	-0.1236135	-0.005040954	-0.01134881	
0.02856888	-0.01980269	-0.09974604	-0.4173972	-0.005780903	-0.01148406	-0.07062975	-0.1187651	
-0.05433974	-0.1236135	-0.005780903	-0.01148406	-0.01918828	-0.4363383	0.04112125	0.005876366	
-0.005040954	-0.01134881	-0.07062975	-0.1187651	0.04112125	0.005876366	-0.03084935	-0.4338747	

2.51e+10	-0.0983844	-0.4214487	0.01229496	-0.03306723	-0.05854079	-0.1226782	-0.01039013	-0.006742273	
0.01229496	-0.03306723	-0.1001895	-0.4091312	-0.01083139	-0.006319216	-0.06924586	-0.1096208	
-0.05854079	-0.1226782	-0.01083139	-0.006319216	-0.03168988	-0.4367518	0.03743684	-0.01851707	
-0.01039013	-0.006742273	-0.06924586	-0.1096208	0.03743684	-0.01851707	-0.03987703	-0.428398	

2.512e+10	-0.1011727	-0.4143984	-0.009278757	-0.03450831	-0.06173375	-0.1200693	-0.0126158	7.046067e-05	
-0.009278757	-0.03450831	-0.09567182	-0.4034619	-0.01254115	0.0004971277	-0.06307864	-0.1033394	
-0.06173375	-0.1200693	-0.01254115	0.0004971277	-0.04146781	-0.4307385	0.02036503	-0.03693232	
-0.0126158	7.046067e-05	-0.06307864	-0.1033394	0.02036503	-0.03693232	-0.043443	-0.4193156	

2.514e+10	-0.09994923	-0.4081502	-0.02789111	-0.02266649	-0.06336215	-0.1165045	-0.01072451	0.007384537	
-0.02789111	-0.02266649	-0.08928783	-0.4027514	-0.01051644	0.007457084	-0.05486209	-0.1022745	
-0.06336215	-0.1165045	-0.01051644	0.007457084	-0.04550464	-0.4214807	-0.004725962	-0.04231289	
-0.01072451	0.007384537	-0.05486209	-0.1022745	-0.004725962	-0.04231289	-0.04050492	-0.4111798	

2.516e+10	-0.09556266	-0.4042585	-0.03576788	-0.001968425	-0.06299259	-0.1126658	-0.004628836	0.0126284	
-0.03576788	-0.001968425	-0.08427014	-0.406211	-0.004652176	0.01258997	-0.04815155	-0.1062481	
-0.06299259	-0.1126658	-0.004652176	0.01258997	-0.043466	-0.4128582	-0.02860387	-0.03181246	
-0.004628836	0.0126284	-0.04815155	-0.1062481	-0.02860387	-0.03181246	-0.03357305	-0.4076599	

2.518e+10	-0.08929575	-0.4041221	-0.02981864	0.01907715	-0.06032067	-0.1098591	0.00380786	0.01323511	
-0.02981864	0.01907715	-0.08187384	-0.4119833	0.00372761	0.0134386	-0.04509316	-0.1131991	
-0.06032067	-0.1098591	0.00372761	0.0134386	-0.03692266	-0.4077617	-0.04170834	-0.009139653	
0.00380786	0.01323511	-0.04509316	-0.1131991	-0.04170834	-0.009139653	-0.02633404	-0.409444	

2.52e+10	-0.08359711	-0.4090654	-0.01304645	0.0322263	-0.05627994	-0.109886	0.01106406	0.008423978	
-0.01304645	0.0322263	-0.08243205	-0.4189983	0.01130601	0.008724735	-0.04628167	-0.1208831	
-0.05627994	-0.109886	0.01130601	0.008724735	-0.02823705	-0.4080041	-0.03890669	0.01669151	
0.01106406	0.008423978	-0.04628167	-0.1208831	-0.03890669	0.01669151	-0.02117221	-0.4152206	

2.522e+10	-0.0821757	-0.4180805	0.007486693	0.03328337	-0.0534448	-0.1133192	0.01380728	0.0001414183	
0.007486693	0.03328337	-0.08660085	-0.4260374	0.0143047	9.222472e-05	-0.05159273	-0.1272487	
-0.0534448	-0.1133192	0.0143047	9.222472e-05	-0.02064612	-0.4142859	-0.02183004	0.03563735	
0.01380728	0.0001414183	-0.05159273	-0.1272487	-0.02183004	0.03563735	-0.01926257	-0.4235422	

2.524e+10	-0.08700298	-0.4272516	0.02458316	0.02303512	-0.0540506	-0.1182748	0.01097207	-0.007863632	
0.02458316	0.02303512	-0.09447703	-0.4307815	0.01124776	-0.008349366	-0.05996524	-0.1301942	
-0.0540506	-0.1182748	0.01124776	-0.008349366	-0.01780576	-0.4251873	0.00244563	0.04114037	
0.01097207	-0.007863632	-0.05996524	-0.1301942	0.00244563	0.04114037	-0.02161973	-0.4329105	

2.526e+10	-0.09676214	-0.4321803	0.03321747	0.005377915	-0.05805111	-0.1219257	0.004278694	-0.01235404	
0.03321747	0.005377915	-0.1041163	-0.4310233	0.004043646	-0.01287494	-0.06900747	-0.1283217	
-0.05805111	-0.1219257	0.004043646	-0.01287494	-0.02192038	-0.4369405	0.02506339	0.03215364	
0.004278694	-0.01235404	-0.06900747	-0.1283217	0.02506339	0.03215364	-0.02881568	-0.4409394	

2.528e+10	-0.107343	-0.4308494	0.03081963	-0.0143603	-0.06354599	-0.122645	-0.003275929	-0.01225159	
0.03081963	-0.0143603	-0.1123004	-0.4262446	-0.003808904	-0.01236568	-0.07577186	-0.1220172	
-0.06354599	-0.122645	-0.003808904	-0.01236568	-0.03219932	-0.4449565	0.03865269	0.01238696	
-0.003275929	-0.01225159	-0.07577186	-0.1220172	0.03865269	0.01238696	-0.03968573	-0.4445822	

2.53e+10	-0.114549	-0.4245376	0.01744268	-0.0298747	-0.06845792	-0.1204099	-0.009283962	-0.008344659	
0.01744268	-0.0298747	-0.1159726	-0.4184671	-0.009641768	-0.008013282	-0.07804777	-0.1133482	
-0.06845792	-0.1204099	-0.009641768	-0.008013282	-0.04501676	-0.4461245	0.03903764	-0.01162576	
-0.009283962	-0.008344659	-0.07804777	-0.1133482	0.03903764	-0.01162576	-0.05084327	-0.4419249	

2.532e+10	-0.1164343	-0.4167401	-0.003156583	-0.03504412	-0.07138721	-0.1163565	-0.01242155	-0.002002954	
-0.003156583	-0.03504412	-0.1143128	-0.4113622	-0.0123507	-0.00160846	-0.07529206	-0.1053998	
-0.07138721	-0.1163565	-0.0123507	-0.00160846	-0.05554944	-0.440461	0.0257497	-0.0320697	
-0.01242155	-0.002002954	-0.07529206	-0.1053998	0.0257497	-0.0320697	-0.05797494	-0.4339242	

2.534e+10	-0.1139264	-0.4108053	-0.02336633	-0.02679476	-0.07190724	-0.1119211	-0.01181456	0.005329514	
-0.02336633	-0.02679476	-0.1094572	-0.4079302	-0.01153305	0.005419668	-0.06900738	-0.1009716	
-0.07190724	-0.1119211	-0.01153305	0.005419668	-0.06028922	-0.4310543	0.002638642	-0.04151222	
-0.01181456	0.005329514	-0.06900738	-0.1009716	0.002638642	-0.04151222	-0.05857176	-0.4244982	

2.536e+10	-0.1091503	-0.4082092	-0.03469	-0.007849546	-0.07033979	-0.1082311	-0.006950731	0.01154513	
-0.03469	-0.007849546	-0.104366	-0.4085503	-0.006855901	0.01139211	-0.0620049	-0.1011828	
-0.07033979	-0.1082311	-0.006855901	0.01139211	-0.05863319	-0.4221678	-0.02215729	-0.03558333	
-0.006950731	0.01154513	-0.0620049	-0.1011828	-0.02215729	-0.03558333	-0.0535977	-0.4180481	

2.538e+10	-0.1037806	-0.4092358	-0.03235503	0.01393428	-0.06712	-0.1061733	0.001171598	0.01390272	
-0.03235503	0.01393428	-0.1007307	-0.4119638	0.001043697	0.01386778	-0.05676908	-0.1052116	
-0.06712	-0.1061733	0.001043697	0.01386778	-0.05246275	-0.4169827	-0.03880236	-0.01592983	
0.001171598	0.01390272	-0.05676908	-0.1052116	-0.03880236	-0.01592983	-0.04636469	-0.4166985	

2.54e+10	-0.09957829	-0.4141365	-0.01784667	0.02966665	-0.06322796	-0.106785	0.009439954	0.01066805	
-0.01784667	0.02966665	-0.09899432	-0.4174734	0.009410056	0.01085905	-0.05469698	-0.1115519	
-0.06322796	-0.106785	0.009410056	0.01085905	-0.04451286	-0.4169306	-0.04052727	0.009640008	
0.009439954	0.01066805	-0.05469698	-0.1115519	-0.04052727	0.009640008	-0.03989773	-0.4200394	

2.542e+10	-0.09913971	-0.4220216	0.002380453	0.03383837	-0.06067688	-0.1104165	0.01399135	0.002851659	
0.002380453	0.03383837	-0.1003896	-0.4243469	0.0142291	0.002985835	-0.05653041	-0.1185185	
-0.06067688	-0.1104165	0.0142291	0.002985835	-0.0376086	-0.4222284	-0.02708965	0.03096606	
0.01399135	0.002851659	-0.05653041	-0.1185185	-0.02708965	0.03096606	-0.03588978	-0.4268639	

2.544e+10	-0.1040572	-0.4297927	0.02076159	0.02613645	-0.06151029	-0.1153438	0.01271296	-0.005972509	
0.02076159	0.02613645	-0.1058218	-0.4305048	0.01299897	-0.006137371	-0.06236204	-0.1237778	
-0.06151029	-0.1153438	0.01299897	-0.006137371	-0.03466234	-0.4316605	-0.004340995	0.04031999	
0.01271296	-0.005972509	-0.06236204	-0.1237778	-0.004340995	0.04031999	-0.0357024	-0.4358401	

2.546e+10	-0.1130431	-0.4336688	0.03165831	0.009956319	-0.06568092	-0.1188827	0.006611423	-0.011918	
0.03165831	0.009956319	-0.1141602	-0.4333037	0.006636097	-0.0122773	-0.07053796	-0.1251847	
-0.06568092	-0.1188827	0.006636097	-0.0122773	-0.03765674	-0.4422397	0.01910618	0.03520678	
0.006611423	-0.011918	-0.07053796	-0.1251847	0.01910618	0.03520678	-0.0403404	-0.4448145	

2.548e+10	-0.12245	-0.431866	0.03197336	-0.009619237	-0.07124736	-0.1192818	-0.001285947	-0.01311511	
0.03197336	-0.009619237	-0.122575	-0.4314459	-0.001566307	-0.01335144	-0.07832372	-0.1219549	
-0.07124736	-0.1192818	-0.001566307	-0.01335144	-0.04628342	-0.4500262	0.03540898	0.01815948	
-0.001285947	-0.01311511	-0.07832372	-0.1219549	0.03540898	0.01815948	-0.04944981	-0.4507959	

2.55e+10	-0.1283752	-0.4257361	0.02112429	-0.02646762	-0.07594832	-0.116727	-0.008105074	-0.009994658	
0.02112429	-0.02646762	-0.1281154	-0.4259501	-0.008449766	-0.009910905	-0.08305109	-0.1153652	
-0.07594832	-0.116727	-0.008449766	-0.009910905	-0.05765751	-0.4520276	0.03952482	-0.004977448	
-0.008105074	-0.009994658	-0.08305109	-0.1153652	0.03952482	-0.004977448	-0.06048147	-0.4512448	

2.552e+10	-0.1291002	-0.4188661	0.001971894	-0.03433442	-0.0783634	-0.1125824	-0.01219778	-0.003993919	
0.001971894	-0.03433442	-0.129289	-0.4197392	-0.01231726	-0.003700043	-0.08350031	-0.1078422	
-0.0783634	-0.1125824	-0.01231726	-0.003700043	-0.06749789	-0.447842	0.0299682	-0.02672697	
-0.01219778	-0.003993919	-0.08350031	-0.1078422	0.0299682	-0.02672697	-0.06942697	-0.445948	

2.554e+10	-0.1260714	-0.4146897	-0.01869216	-0.02929565	-0.07836234	-0.1086121	-0.01266061	0.003387663	
-0.01869216	-0.02929565	-0.1272186	-0.4155944	-0.01251157	0.003606547	-0.08016255	-0.1020882	
-0.07836234	-0.1086121	-0.01251157	0.003606547	-0.07239749	-0.4400341	0.00933887	-0.03951236	
-0.01266061	0.003387663	-0.08016255	-0.1020882	0.00933887	-0.03951236	-0.07307991	-0.4375997	

2.556e+10	-0.1222099	-0.4141657	-0.0324238	-0.01269369	-0.07680755	-0.1059108	-0.008881424	0.01026385	
-0.0324238	-0.01269369	-0.1242691	-0.4142103	-0.008693997	0.01024798	-0.07491259	-0.09966547	
-0.07680755	-0.1059108	-0.008693997	0.01024798	-0.07167393	-0.4325723	-0.01542053	-0.03795719	
-0.008881424	0.01026385	-0.07491259	-0.09966547	-0.01542053	-0.03795719	-0.07106939	-0.4303208	

2.558e+10	-0.1193675	-0.416284	-0.0334718	0.008743709	-0.07454061	-0.1046952	-0.001361657	0.01399793	
-0.0334718	0.008743709	-0.121541	-0.4148315	-0.001335294	0.01389298	-0.06980841	-0.1005534	
-0.07454061	-0.1046952	-0.001335294	0.01389298	-0.06731885	-0.4283727	-0.03477851	-0.02191815	
-0.001361657	0.01399793	-0.06980841	-0.1005534	-0.03477851	-0.02191815	-0.06581096	-0.4268869	

2.56e+10	-0.118109	-0.4201861	-0.02174788	0.02631671	-0.07210106	-0.1051434	0.007355449	0.01241809	
-0.02174788	0.02631671	-0.1191759	-0.4172645	0.007291368	0.01243032	-0.06615203	-0.1041585	
-0.07210106	-0.1051434	0.007291368	0.01243032	-0.06187458	-0.4281623	-0.04089545	0.002486945	
0.007355449	0.01241809	-0.06615203	-0.1041585	-0.04089545	0.002486945	-0.06006737	-0.4276723	

2.562e+10	-0.1191639	-0.4253636	-0.002464083	0.03347443	-0.07053937	-0.1074677	0.01345053	0.005642209	
-0.002464083	0.03347443	-0.1182448	-0.4217994	0.01350024	0.005745533	-0.06516314	-0.10966	
-0.07053937	-0.1074677	0.01350024	0.005745533	-0.05723661	-0.4316114	-0.0315824	0.02553843	
0.01345053	0.005642209	-0.06516314	-0.10966	-0.0315824	0.02553843	-0.05563947	-0.4319412	

2.564e+10	-0.1236618	-0.4301264	0.01685159	0.02842876	-0.07120682	-0.1108734	0.01408058	-0.003449665	
0.01685159	0.02842876	-0.1204423	-0.4273415	0.01426329	-0.003455925	-0.06789866	-0.1153151	
-0.07120682	-0.1108734	0.01426329	-0.003455925	-0.05496284	-0.4379647	-0.01096202	0.03863599	
0.01408058	-0.003449665	-0.06789866	-0.1153151	-0.01096202	0.03863599	-0.05379176	-0.4387951	

2.566e+10	-0.1305851	-0.4319736	0.02974179	0.01375145	-0.07444967	-0.1133819	0.009206273	-0.01083495	
0.02974179	0.01375145	-0.1258221	-0.4313956	0.009329831	-0.01103958	-0.07387568	-0.1186862	
-0.07444967	-0.1133819	0.009329831	-0.01103958	-0.0565654	-0.4456344	0.01295741	0.03757777	
0.009206273	-0.01083495	-0.07387568	-0.1186862	0.01295741	0.03757777	-0.05581692	-0.4467264	

2.568e+10	-0.1373347	-0.4295499	0.03231278	-0.005550319	-0.07883267	-0.1134253	0.001327245	-0.01382443	
0.03231278	-0.005550319	-0.1325174	-0.432096	0.001214496	-0.01408273	-0.08091259	-0.1181256	
-0.07883267	-0.1134253	0.001214496	-0.01408273	-0.06241722	-0.4519603	0.03181862	0.02341074	
0.001327245	-0.01382443	-0.08091259	-0.1181256	0.03181862	0.02341074	-0.06206998	-0.4532396	

2.57e+10	-0.1407123	-0.4242326	0.02348061	-0.02320601	-0.08231334	-0.1110373	-0.006505785	-0.01202718	
0.02348061	-0.02320601	-0.1378792	-0.429701	-0.006805791	-0.01209807	-0.08633052	-0.1140253	
-0.08231334	-0.1110373	-0.006805791	-0.01209807	-0.07084378	-0.4543703	0.03947421	0.001218114	
-0.006505785	-0.01202718	-0.08633052	-0.1140253	0.03947421	0.001218114	-0.07098145	-0.4557759	

2.572e+10	-0.1395737	-0.419574	0.005732821	-0.03275307	-0.08360707	-0.1077468	-0.01207901	-0.006468567	
0.005732821	-0.03275307	-0.1405761	-0.4263104	-0.01232453	-0.00626612	-0.08850295	-0.1083994	
-0.08360707	-0.1077468	-0.01232453	-0.00626612	-0.07856448	-0.4520639	0.03331211	-0.02159431	
-0.01207901	-0.006468567	-0.08850295	-0.1083994	0.03331211	-0.02159431	-0.07930413	-0.4534576	

2.574e+10	-0.1362361	-0.4185458	-0.01453025	-0.02999045	-0.08305126	-0.1053122	-0.01391745	0.001352357	
-0.01453025	-0.02999045	-0.1414949	-0.4238668	-0.01390263	0.001665172	-0.08767125	-0.1035248	
-0.08305126	-0.1053122	-0.01390263	0.001665172	-0.08267369	-0.4469379	0.01497244	-0.03709536	
-0.01391745	0.001352357	-0.08767125	-0.1035248	0.01497244	-0.03709536	-0.08409067	-0.4480369	

2.576e+10	-0.1341409	-0.42108	-0.02921072	-0.01572835	-0.08208234	-0.1044205	-0.01102108	0.009277322	
-0.02921072	-0.01572835	-0.1422179	-0.4223482	-0.01078992	0.009439206	-0.08534482	-0.1005284	
-0.08208234	-0.1044205	-0.01078992	0.009439206	-0.08269907	-0.4423255	-0.009328317	-0.03915617	
-0.01102108	0.009277322	-0.08534482	-0.1005284	-0.009328317	-0.03915617	-0.08469583	-0.4427315	

2.578e+10	-0.1350204	-0.4246095	-0.03258732	0.00425549	-0.0817217	-0.1044111	-0.003726417	0.01435729	
-0.03258732	0.00425549	-0.1427802	-0.4206169	-0.003503013	0.01429402	-0.08270029	-0.09922475	
-0.0817217	-0.1044111	-0.003503013	0.01429402	-0.08058245	-0.4403577	-0.03043735	-0.02646811	
-0.003726417	0.01435729	-0.08270029	-0.09922475	-0.03043735	-0.02646811	-0.08290452	-0.4396008	

2.58e+10	-0.1376987	-0.4273431	-0.02371916	0.02214946	-0.08184473	-0.1045307	0.005534625	0.01413722	
-0.02371916	0.02214946	-0.1418835	-0.4189358	0.005608233	0.01398759	-0.08000077	-0.09925234	
-0.08184473	-0.1045307	0.005608233	0.01398759	-0.07860792	-0.4408567	-0.04005809	-0.003779551	
0.005534625	0.01413722	-0.08000077	-0.09925234	-0.04005809	-0.003779551	-0.08043317	-0.4386771	

2.582e+10	-0.1412813	-0.4289525	-0.006406797	0.03132248	-0.08218939	-0.1048577	0.01301274	0.008248898	
-0.006406797	0.03132248	-0.1395238	-0.4191796	0.01299781	0.00815446	-0.07759211	-0.1010835	
-0.08218939	-0.1048577	0.01299781	0.00815446	-0.07746844	-0.4427335	-0.03458781	0.02006598	
0.01301274	0.008248898	-0.07759211	-0.1010835	-0.03458781	0.02006598	-0.07788096	-0.4394421	

2.584e+10	-0.1455651	-0.4293132	0.01259658	0.02883244	-0.08314397	-0.1053919	0.0154475	-0.001077079	
0.01259658	0.02883244	-0.1379133	-0.4221956	0.01545302	-0.001139762	-0.07686157	-0.1045961	
-0.08314397	-0.1053919	0.01545302	-0.001139762	-0.07728681	-0.4454956	-0.01643214	0.03607373	
0.0154475	-0.001077079	-0.07686157	-0.1045961	-0.01643214	0.03607373	-0.07561449	-0.4421307	

2.586e+10	-0.1497858	-0.4277212	0.02645458	0.01620821	-0.08492166	-0.1054327	0.01178884	-0.009939795	
0.02645458	0.01620821	-0.1389756	-0.4264563	0.01178746	-0.01007278	-0.07887671	-0.1083257	
-0.08492166	-0.1054327	0.01178746	-0.01007278	-0.07841593	-0.4489329	0.007279172	0.03857929	
0.01178884	-0.009939795	-0.07887671	-0.1083257	0.007279172	0.03857929	-0.07477242	-0.4469182	

2.588e+10	-0.1523393	-0.4240673	0.03065642	-0.001779073	-0.08669314	-0.1041632	0.00374186	-0.01481269	
0.03065642	-0.001779073	-0.1425194	-0.4296807	0.003584839	-0.01498723	-0.08305047	-0.1102117	
-0.08669314	-0.1041632	0.003584839	-0.01498723	-0.08143519	-0.4521449	0.02784764	0.02718676	
0.00374186	-0.01481269	-0.08305047	-0.1102117	0.02784764	0.02718676	-0.07688121	-0.4526271	

2.59e+10	-0.1515614	-0.4202874	0.02393671	-0.0188519	-0.08713172	-0.1021986	-0.005442738	-0.01414928	
0.02393671	-0.0188519	-0.1468812	-0.4309676	-0.005786508	-0.01414411	-0.08744838	-0.1096231	
-0.08713172	-0.1021986	-0.005786508	-0.01414411	-0.08573156	-0.4537215	0.03814567	0.006334197	
-0.005442738	-0.01414928	-0.08744838	-0.1096231	0.03814567	0.006334197	-0.08197234	-0.4569558	

2.592e+10	-0.148108	-0.4194069	0.008719608	-0.02892634	-0.0860768	-0.1011399	-0.01254196	-0.008450108	
0.008719608	-0.02892634	-0.1507334	-0.4311506	-0.01282405	-0.008094502	-0.09070034	-0.1073674	
-0.0860768	-0.1011399	-0.01282405	-0.008094502	-0.08965135	-0.4531875	0.0347953	-0.01654138	
-0.01254196	-0.008450108	-0.09070034	-0.1073674	0.0347953	-0.01654138	-0.0884146	-0.4582689	

2.594e+10	-0.1451731	-0.4228115	-0.0093168	-0.02840403	-0.08501297	-0.1020357	-0.01515521	0.0002909948	
-0.0093168	-0.02840403	-0.154504	-0.430802	-0.01502098	0.0008319139	-0.09265256	-0.1046878	
-0.08501297	-0.1020357	-0.01502098	0.0008319139	-0.091735	-0.4516989	0.01902641	-0.03342866	
-0.01515521	0.0002909948	-0.09265256	-0.1046878	0.01902641	-0.03342866	-0.09377872	-0.4568543	

2.596e+10	-0.1460489	-0.4285256	-0.02358942	-0.01784701	-0.08573337	-0.1041139	-0.01225261	0.009007022	
-0.02358942	-0.01784701	-0.1584455	-0.4294852	-0.01165549	0.009264552	-0.09380746	-0.1019077	
-0.08573337	-0.1041139	-0.01165549	0.009264552	-0.09234213	-0.4510547	-0.003591487	-0.03826482	
-0.01225261	0.009007022	-0.09380746	-0.1019077	-0.003591487	-0.03826482	-0.09721974	-0.4542632	

2.598e+10	-0.1510384	-0.4329931	-0.02934314	-0.001301674	-0.08853026	-0.1054689	-0.004809229	0.01445707	
-0.02934314	-0.001301674	-0.1617233	-0.426412	-0.00417815	0.0141052	-0.09409513	-0.09884416	
-0.08853026	-0.1054689	-0.00417815	0.0141052	-0.09294116	-0.451973	-0.02491275	-0.02923102	
-0.004809229	0.01445707	-0.09409513	-0.09884416	-0.02491275	-0.02923102	-0.09900399	-0.4517997	

2.6e+10	-0.1578623	-0.4339588	-0.02483154	0.01555265	-0.09204891	-0.1047402	0.004419328	0.01460711	
-0.02483154	0.01555265	-0.1626847	-0.4222654	0.004533356	0.01384363	-0.09283328	-0.09589694	
-0.09204891	-0.1047402	0.004533356	0.01384363	-0.09479966	-0.453385	-0.03716825	-0.009563932	
0.004419328	0.01460711	-0.09283328	-0.09589694	-0.03716825	-0.009563932	-0.09991451	-0.4495711	

2.602e+10	-0.163695	-0.4316107	-0.01153076	0.02694222	-0.09459264	-0.1022581	0.01206544	0.009408253	
-0.01153076	0.02694222	-0.1607645	-0.4192431	0.01151971	0.008832358	-0.0900337	-0.09441263	
-0.09459264	-0.1022581	0.01151971	0.008832358	-0.09737366	-0.4538211	-0.03585726	0.01359226	
0.01206544	0.009408253	-0.0900337	-0.09441263	-0.03585726	0.01359226	-0.09939598	-0.4476068	

2.604e+10	-0.1672656	-0.4274702	0.005993227	0.02870298	-0.09549184	-0.09926538	0.01533641	0.0007136429	
0.005993227	0.02870298	-0.1575864	-0.4192517	0.01455322	0.0007779847	-0.08715358	-0.09544535	
-0.09549184	-0.09926538	0.01455322	0.0007779847	-0.09946828	-0.4531619	-0.0213993	0.03174966	
0.01533641	0.0007136429	-0.08715358	-0.09544535	-0.0213993	0.03174966	-0.09749678	-0.4467859	

2.606e+10	-0.1682719	-0.4230634	0.02139733	0.02003658	-0.09511211	-0.09671923	0.01295155	-0.008315065	
0.02139733	0.02003658	-0.1557536	-0.4219619	0.01251832	-0.007704035	-0.08609589	-0.09841583	
-0.09511211	-0.09671923	0.01251832	-0.007704035	-0.1003522	-0.4526596	0.0008773438	0.03816192	
0.01295155	-0.008315065	-0.08609589	-0.09841583	0.0008773438	0.03816192	-0.09507193	-0.4484327	

2.608e+10	-0.1669658	-0.4193534	0.02899354	0.004035256	-0.09396446	-0.09488737	0.005759344	-0.01429221	
0.02899354	0.004035256	-0.1562975	-0.4254914	0.005911511	-0.01361829	-0.08754801	-0.1013538	
-0.09396446	-0.09488737	0.005911511	-0.01361829	-0.1008754	-0.4531478	0.02264652	0.03050579	
0.005759344	-0.01429221	-0.08754801	-0.1013538	0.02264652	0.03050579	-0.09404831	-0.4525508	

2.61e+10	-0.1635561	-0.4175605	0.02589993	-0.01340862	-0.09208751	-0.09397103	-0.003561616	-0.01500818	
0.02589993	-0.01340862	-0.1582628	-0.4285293	-0.003032095	-0.01468014	-0.09042127	-0.1028158	
-0.09208751	-0.09397103	-0.003032095	-0.01468014	-0.1020699	-0.4540283	0.03589235	0.01181191	
-0.003561616	-0.01500818	-0.09042127	-0.1028158	0.03589235	0.01181191	-0.09587827	-0.4573481	

2.612e+10	-0.159269	-0.4192787	0.01329176	-0.02571156	-0.08987708	-0.0946445	-0.01160216	-0.01020711	
0.01329176	-0.02571156	-0.1609572	-0.4311877	-0.01105188	-0.01030965	-0.09335585	-0.1028489	
-0.08987708	-0.0946445	-0.01105188	-0.01030965	-0.1034995	-0.4544532	0.0359672	-0.0109359	
-0.01160216	-0.01020711	-0.09335585	-0.1028489	0.0359672	-0.0109359	-0.09996347	-0.4607917	

2.614e+10	-0.1569047	-0.4248521	-0.003860963	-0.02836241	-0.08862262	-0.09732671	-0.01539191	-0.00160146	
-0.003860963	-0.02836241	-0.1648453	-0.4337303	-0.01506297	-0.001991102	-0.09595835	-0.1022568	
-0.08862262	-0.09732671	-0.01506297	-0.001991102	-0.1041506	-0.4547456	0.02303135	-0.02949894	
-0.01539191	-0.00160146	-0.09595835	-0.1022568	0.02303135	-0.02949894	-0.1047521	-0.4621879	

2.616e+10	-0.1592015	-0.4319989	-0.01912637	-0.02088008	-0.08992385	-0.1009993	-0.01344654	0.007610783	
-0.01912637	-0.02088008	-0.170634	-0.435183	-0.01342313	0.00712519	-0.09871731	-0.1011947	
-0.08992385	-0.1009993	-0.01342313	0.00712519	-0.1042928	-0.456098	0.001868208	-0.03722615	
-0.01344654	0.007610783	-0.09871731	-0.1011947	0.001868208	-0.03722615	-0.1090293	-0.4623074	

2.618e+10	-0.1658919	-0.4371731	-0.02743786	-0.006349664	-0.09395865	-0.1034767	-0.006545931	0.01391081	
-0.02743786	-0.006349664	-0.1774839	-0.4336125	-0.006816162	0.01350542	-0.1015615	-0.09897139	
-0.09395865	-0.1034767	-0.006816162	0.01350542	-0.1052976	-0.4590173	-0.01979613	-0.0314114	
-0.006545931	0.01391081	-0.1015615	-0.09897139	-0.01979613	-0.0314114	-0.1129935	-0.4617663	

2.62e+10	-0.1746192	-0.4379085	-0.02627401	0.01034431	-0.09916901	-0.1031239	0.002588021	0.01507243	
-0.02627401	0.01034431	-0.1826249	-0.4283652	0.002102137	0.01490651	-0.1033277	-0.09511458	
-0.09916901	-0.1031239	0.002102137	0.01490651	-0.1084925	-0.4621974	-0.03415024	-0.01427835	
0.002588021	0.01507243	-0.1033277	-0.09511458	-0.03415024	-0.01427835	-0.116849	-0.4600939	

2.622e+10	-0.1820457	-0.4343423	-0.01575809	0.02370885	-0.1034123	-0.1001086	0.01069773	0.01092721	
-0.01575809	0.02370885	-0.1834777	-0.4213665	0.01017268	0.01112529	-0.1026311	-0.0907365	
-0.1034123	-0.1001086	0.01017268	0.01112529	-0.1133713	-0.4636608	-0.03608013	0.007965744	
0.01069773	0.01092721	-0.1026311	-0.0907365	-0.03608013	0.007965744	-0.1194904	-0.4567693	

2.624e+10	-0.1862677	-0.4283863	0.0009053048	0.02867972	-0.1055386	-0.09576375	0.01514034	0.002928726	
0.0009053048	0.02867972	-0.1797274	-0.416322	0.01485821	0.003483047	-0.09946955	-0.08794135	
-0.1055386	-0.09576375	0.01485821	0.003483047	-0.1182403	-0.4625257	-0.02483282	0.02729091	
0.01514034	0.002928726	-0.09946955	-0.08794135	-0.02483282	0.02729091	-0.1193831	-0.4528066	

2.626e+10	-0.1869187	-0.4222038	0.01754796	0.02278485	-0.1055801	-0.09135964	0.01428385	-0.006382597	
0.01754796	0.02278485	-0.1741386	-0.415884	0.01449964	-0.005738763	-0.09566661	-0.08815503	
-0.1055801	-0.09135964	0.01449964	-0.005738763	-0.1213193	-0.4598249	-0.004426173	0.03652781	
0.01428385	-0.006382597	-0.09566661	-0.08815503	-0.004426173	0.03652781	-0.1163309	-0.4507918	

2.628e+10	-0.1845991	-0.4171611	0.02742032	0.008108214	-0.1038534	-0.08766979	0.008043914	-0.0136908	
0.02742032	0.008108214	-0.1700877	-0.4197159	0.008698968	-0.0134024	-0.09345799	-0.09085219	
-0.1038534	-0.08766979	0.008698968	-0.0134024	-0.1223986	-0.4571168	0.01747481	0.03214177	
0.008043914	-0.0136908	-0.09345799	-0.09085219	0.01747481	0.03214177	-0.1126527	-0.452498	

2.63e+10	-0.1797805	-0.4146538	0.0266116	-0.00934585	-0.1004678	-0.08532352	-0.001512123	-0.01598765	
0.0266116	-0.00934585	-0.1693924	-0.4254481	-0.0008629405	-0.01629717	-0.09362946	-0.0942196	
-0.1004678	-0.08532352	-0.0008629405	-0.01629717	-0.1220635	-0.4552292	0.03257459	0.01595249	
-0.001512123	-0.01598765	-0.09362946	-0.0942196	0.03257459	0.01595249	-0.1111179	-0.457211	

2.632e+10	-0.1738648	-0.4164537	0.01590529	-0.02259656	-0.09608487	-0.08560849	-0.01069684	-0.0121076	
0.01590529	-0.02259656	-0.171745	-0.431357	-0.01052519	-0.01276807	-0.09565844	-0.09703737	
-0.09608487	-0.08560849	-0.01052519	-0.01276807	-0.1207375	-0.4544032	0.03543818	-0.005708445	
-0.01069684	-0.0121076	-0.09565844	-0.09703737	0.03543818	-0.005708445	-0.1128417	-0.4625446	

2.634e+10	-0.1701965	-0.4229504	8.192559e-05	-0.02697688	-0.09279374	-0.08926623	-0.01577349	-0.003462255	
8.192559e-05	-0.02697688	-0.1771264	-0.4362097	-0.01612208	-0.003962946	-0.09907111	-0.09893288	
-0.09279374	-0.08926623	-0.01612208	-0.003962946	-0.1187424	-0.4552077	0.02543949	-0.0247734	
-0.01577349	-0.003462255	-0.09907111	-0.09893288	0.02543949	-0.0247734	-0.1169491	-0.4666279	

2.636e+10	-0.1717585	-0.43161	-0.01483161	-0.02185687	-0.09301396	-0.0948833	-0.01466729	0.006435438	
-0.01483161	-0.02185687	-0.1849623	-0.4385075	-0.01517333	0.006372048	-0.1036751	-0.09931672	
-0.09301396	-0.0948833	-0.01517333	0.006372048	-0.1171579	-0.4582918	0.006599859	-0.03452891	
-0.01466729	0.006435438	-0.1036751	-0.09931672	0.006599859	-0.03452891	-0.122314	-0.4688995	

2.638e+10	-0.1787782	-0.4383013	-0.0242292	-0.009759731	-0.09728173	-0.09947967	-0.00803471	0.01358595	
-0.0242292	-0.009759731	-0.1935921	-0.4366596	-0.008343393	0.01382554	-0.1086639	-0.09722504	
-0.09728173	-0.09947967	-0.008343393	0.01382554	-0.1176662	-0.4633118	-0.01418169	-0.03185259	
-0.00803471	0.01358595	-0.1086639	-0.09722504	-0.01418169	-0.03185259	-0.1281338	-0.4693436	

2.64e+10	-0.1885169	-0.4402673	-0.02558541	0.005438346	-0.1037923	-0.1007224	0.001228388	0.01548034	
-0.02558541	0.005438346	-0.2001038	-0.4304963	0.001166083	0.01573986	-0.1122188	-0.09244025	
-0.1037923	-0.1007224	0.001166083	0.01573986	-0.1214167	-0.4684715	-0.02965462	-0.01798071	
0.001228388	0.01548034	-0.1122188	-0.09244025	-0.02965462	-0.01798071	-0.1338087	-0.4675701	

2.642e+10	-0.1975684	-0.4371586	-0.01823147	0.01914493	-0.1099749	-0.09829435	0.009694846	0.01190868	
-0.01823147	0.01914493	-0.2018046	-0.4221437	0.00970963	0.01207937	-0.11253	-0.08637854	
-0.1099749	-0.09829435	0.00970963	0.01207937	-0.1279788	-0.4713654	-0.03454084	0.002154969	
0.009694846	0.01190868	-0.11253	-0.08637854	-0.03454084	0.002154969	-0.1380323	-0.4633156	

2.644e+10	-0.2034668	-0.430632	-0.003976991	0.02648103	-0.1140237	-0.09339381	0.01471416	0.004344011	
-0.003976991	0.02648103	-0.1981255	-0.4153788	0.01472679	0.004537588	-0.109275	-0.08159951	
-0.1140237	-0.09339381	0.01472679	0.004537588	-0.1349851	-0.4707491	-0.02707351	0.02157385	
0.01471416	0.004344011	-0.109275	-0.08159951	-0.02707351	0.02157385	-0.1388264	-0.4577932	

2.646e+10	-0.2051194	-0.4231783	0.01228604	0.02403488	-0.1153687	-0.08753791	0.01470373	-0.004830928	
0.01228604	0.02403488	-0.1913861	-0.4136285	0.01486784	-0.004555204	-0.1042257	-0.0802646	
-0.1153687	-0.08753791	0.01486784	-0.004555204	-0.1401658	-0.4671971	-0.00968824	0.03323885	
0.01470373	-0.004830928	-0.1042257	-0.0802646	-0.00968824	0.03323885	-0.135574	-0.4539056	

2.648e+10	-0.2030484	-0.4166799	0.02402539	0.01225845	-0.1140103	-0.08195492	0.009366495	-0.01257253	
0.02402539	0.01225845	-0.1859104	-0.4171696	0.009815333	-0.01245024	-0.1002021	-0.08257091	
-0.1140103	-0.08195492	0.009815333	-0.01245024	-0.1424829	-0.4625732	0.01130803	0.03262802	
0.009366495	-0.01257253	-0.1002021	-0.08257091	0.01130803	0.03262802	-0.1305234	-0.4542913	

2.65e+10	-0.1978852	-0.4128334	0.02638451	-0.004098874	-0.1100697	-0.07781838	0.0003043371	-0.01585008	
0.02638451	-0.004098874	-0.18433	-0.4235257	0.0007915617	-0.01618465	-0.09898763	-0.08668764	
-0.1100697	-0.07781838	0.0007915617	-0.01618465	-0.1421177	-0.4585414	0.02793451	0.01992255	
0.0003043371	-0.01585008	-0.09898763	-0.08668764	0.02793451	0.01992255	-0.1272669	-0.4589097	

2.652e+10	-0.1911158	-0.413423	0.01873249	-0.0183519	-0.1043088	-0.07676268	-0.00909945	-0.01310215	
0.01873249	-0.0183519	-0.1865543	-0.4300716	-0.009058197	-0.0137793	-0.1005521	-0.09063287	
-0.1043088	-0.07676268	-0.009058197	-0.0137793	-0.1398886	-0.4561311	0.03398776	0.000126601	
-0.00909945	-0.01310215	-0.1005521	-0.09063287	0.03398776	0.000126601	-0.1278952	-0.465272	

2.654e+10	-0.1860093	-0.4191612	0.004684548	-0.02520435	-0.09903144	-0.0799083	-0.01506375	-0.005245752	
0.004684548	-0.02520435	-0.1920021	-0.4351213	-0.01560381	-0.005719451	-0.1041171	-0.09335337	
-0.09903144	-0.0799083	-0.01560381	-0.005719451	-0.1364997	-0.4561339	0.02757746	-0.01923687	
-0.01506375	-0.005245752	-0.1041171	-0.09335337	0.02757746	-0.01923687	-0.1320971	-0.470581	

2.656e+10	-0.1858522	-0.4280435	-0.01016505	-0.02294955	-0.09726658	-0.08620564	-0.01515963	0.004568304	
-0.01016505	-0.02294955	-0.1998036	-0.4374171	-0.01585546	0.004705632	-0.1090804	-0.09422213	
-0.09726658	-0.08620564	-0.01585546	0.004705632	-0.1334658	-0.4590931	0.01146948	-0.03123369	
-0.01515963	0.004568304	-0.1090804	-0.09422213	0.01146948	-0.03123369	-0.1381938	-0.473506	

2.658e+10	-0.1915597	-0.4359717	-0.02098282	-0.01320847	-0.1002879	-0.0925106	-0.009514456	0.01238157	
-0.02098282	-0.01320847	-0.2081737	-0.4358578	-0.009817817	0.01296266	-0.1145018	-0.0924573	
-0.1002879	-0.0925106	-0.009817817	0.01296266	-0.1326823	-0.4645536	-0.008331725	-0.03191746	
-0.009514456	0.01238157	-0.1145018	-0.0924573	-0.008331725	-0.03191746	-0.1447875	-0.4738743	

2.66e+10	-0.2009958	-0.4396209	-0.02478634	0.0007269818	-0.1067659	-0.09576191	-0.0006327638	0.01534696	
-0.02478634	0.0007269818	-0.2147133	-0.4302722	-0.0004097425	0.01586971	-0.1186018	-0.08779275	
-0.1067659	-0.09576191	-0.0004097425	0.01586971	-0.1352703	-0.4708129	-0.02488388	-0.02135822	
-0.0006327638	0.01534696	-0.1186018	-0.08779275	-0.02488388	-0.02135822	-0.1508163	-0.4717172	

2.662e+10	-0.2106618	-0.4381141	-0.0202829	0.01470396	-0.1139417	-0.09500005	0.00810395	0.01281572	
-0.0202829	0.01470396	-0.2169009	-0.4224062	0.008532404	0.01295335	-0.1195139	-0.08155744	
-0.1139417	-0.09500005	0.008532404	0.01295335	-0.1414297	-0.4753254	-0.03253732	-0.003356665	
0.00810395	0.01281572	-0.1195139	-0.08155744	-0.03253732	-0.003356665	-0.1551179	-0.4671181	

2.664e+10	-0.2178497	-0.4325815	-0.008346482	0.0239948	-0.1196788	-0.09093997	0.01386814	0.005971131	
-0.008346482	0.0239948	-0.2138972	-0.4156635	0.01413643	0.005831523	-0.1166647	-0.07622698	
-0.1196788	-0.09093997	0.01413643	0.005831523	-0.149097	-0.4763516	-0.02860969	0.01585861	
0.01386814	0.005971131	-0.1166647	-0.07622698	-0.02860969	0.01585861	-0.155881	-0.4613257	

2.666e+10	-0.2212	-0.4252836	0.007193774	0.02464869	-0.1228646	-0.08498035	0.01488517	-0.002956794	
0.007193774	0.02464869	-0.2078322	-0.4134082	0.01497215	-0.003071707	-0.1115809	-0.07421844	
-0.1228646	-0.08498035	0.01497215	-0.003071707	-0.1559612	-0.4738011	-0.01428964	0.02944142	
0.01488517	-0.002956794	-0.1115809	-0.07421844	-0.01428964	0.02944142	-0.1526635	-0.4570582	

2.668e+10	-0.2206956	-0.4182325	0.02031114	0.01584084	-0.1231235	-0.07840814	0.01061142	-0.01105544	
0.02031114	0.01584084	-0.2024589	-0.4165775	0.0107638	-0.01110854	-0.1071434	-0.076171	
-0.1231235	-0.07840814	0.0107638	-0.01110854	-0.1601662	-0.4691428	0.005337474	0.03223409	
0.01061142	-0.01105544	-0.1071434	-0.076171	0.005337474	0.03223409	-0.1473073	-0.4571633	

2.67e+10	-0.2168395	-0.4130184	0.02561133	0.000951479	-0.1202285	-0.07252644	0.002283651	-0.0152894	
0.02561133	0.000951479	-0.2010496	-0.4226478	0.002517779	-0.01555556	-0.1056416	-0.08027354	
-0.1202285	-0.07252644	0.002517779	-0.01555556	-0.1613621	-0.4641511	0.0228843	0.02308569	
0.002283651	-0.0152894	-0.1056416	-0.08027354	0.0228843	0.02308569	-0.1436221	-0.4619694	

2.672e+10	-0.2106874	-0.411365	0.02110545	-0.01398794	-0.1144724	-0.06913595	-0.007069508	-0.01383885	
0.02110545	-0.01398794	-0.203767	-0.4285531	-0.007129909	-0.01438832	-0.107179	-0.08422044	
-0.1144724	-0.06913595	-0.007129909	-0.01438832	-0.1600435	-0.4600994	0.03175595	0.005588859	
-0.007069508	-0.01383885	-0.107179	-0.08422044	0.03175595	0.005588859	-0.1441685	-0.4689181	

2.674e+10	-0.2046088	-0.4147231	0.008979227	-0.02320748	-0.107759	-0.07016684	-0.01382777	-0.007137046	
0.008979227	-0.02320748	-0.2091242	-0.4325942	-0.01443482	-0.007523903	-0.110743	-0.0867088	
-0.107759	-0.07016684	-0.01443482	-0.007523903	-0.1567068	-0.4582249	0.02890908	-0.01357339	
-0.01382777	-0.007137046	-0.110743	-0.0867088	0.02890908	-0.01357339	-0.1490213	-0.4746566	

2.676e+10	-0.2021465	-0.4222905	-0.00576844	-0.02373509	-0.1034112	-0.07560245	-0.01535014	0.002255762	
-0.00576844	-0.02373509	-0.2160806	-0.4339595	-0.01614282	0.002530785	-0.1153944	-0.08727213	
-0.1034112	-0.07560245	-0.01614282	0.002530785	-0.1526706	-0.4594801	0.01575003	-0.02743556	
-0.01535014	0.002255762	-0.1153944	-0.08727213	0.01575003	-0.02743556	-0.1559291	-0.4773477	

2.678e+10	-0.2053088	-0.4306322	-0.017904	-0.0161265	-0.1038883	-0.08275494	-0.0111028	0.01067327	
-0.017904	-0.0161265	-0.2231488	-0.4321578	-0.01140142	0.01152547	-0.1202952	-0.08545774	
-0.1038883	-0.08275494	-0.01140142	0.01152547	-0.1501162	-0.4639379	-0.002741974	-0.03125295	
-0.0111028	0.01067327	-0.1202952	-0.08545774	-0.002741974	-0.03125295	-0.1629691	-0.4768083	

2.68e+10	-0.2130153	-0.4359732	-0.02377254	-0.003281799	-0.1089011	-0.08812349	-0.002887076	0.01497829	
-0.02377254	-0.003281799	-0.2284706	-0.4271693	-0.00241217	0.01575441	-0.1239808	-0.08109985	
-0.1089011	-0.08812349	-0.00241217	0.01575441	-0.1507852	-0.4702046	-0.01996796	-0.02394079	
-0.002887076	0.01497829	-0.1239808	-0.08109985	-0.01996796	-0.02394079	-0.1688102	-0.4735511	

2.682e+10	-0.2223201	-0.4365162	-0.02158036	0.01076427	-0.116104	-0.08970298	0.006150509	0.01383441	
-0.02158036	0.01076427	-0.2300833	-0.42043	0.007003541	0.01396079	-0.1247364	-0.07527551	
-0.116104	-0.08970298	0.007003541	0.01396079	-0.1551955	-0.4759461	-0.02994282	-0.0082139	
0.006150509	0.01383441	-0.1247364	-0.07527551	-0.02994282	-0.0082139	-0.1723073	-0.4683174	

2.684e+10	-0.2301063	-0.4329494	-0.01166569	0.02135203	-0.1229651	-0.08748372	0.01291446	0.007853658	
-0.01166569	0.02135203	-0.2272806	-0.4149645	0.01348965	0.007360296	-0.1219176	-0.07033245	
-0.1229651	-0.08748372	0.01348965	0.007360296	-0.1622112	-0.478957	-0.02918762	0.01038177	
0.01291446	0.007853658	-0.1219176	-0.07033245	-0.02918762	0.01038177	-0.172122	-0.4625749	

2.686e+10	-0.234951	-0.4270211	0.002829668	0.02433705	-0.1279811	-0.08254142	0.0151486	-0.0009442039	
0.002829668	0.02433705	-0.2219537	-0.4137685	0.01517799	-0.001540867	-0.1170191	-0.06870963	
-0.1279811	-0.08254142	0.01517799	-0.001540867	-0.1696141	-0.4784445	-0.01789088	0.02521217	
0.0151486	-0.0009442039	-0.1170191	-0.06870963	-0.01789088	0.02521217	-0.1682074	-0.4589037	

2.688e+10	-0.2365626	-0.4205172	0.01647112	0.01819508	-0.130366	-0.07599674	0.01190065	-0.009553672	
0.01647112	0.01819508	-0.2179244	-0.4173831	0.01167172	-0.009876995	-0.1130197	-0.07097964	
-0.130366	-0.07599674	0.01167172	-0.009876995	-0.1754707	-0.4751233	-9.623583e-05	0.03080385	
0.01190065	-0.009553672	-0.1130197	-0.07097964	-9.623583e-05	0.03080385	-0.1625702	-0.4598491	

2.69e+10	-0.2351052	-0.4147023	0.02389933	0.005211771	-0.129498	-0.06897129	0.004176405	-0.01471792	
0.02389933	0.005211771	-0.2180539	-0.4231963	0.004005803	-0.01490095	-0.1121947	-0.07513618	
-0.129498	-0.06897129	0.004005803	-0.01490095	-0.1787968	-0.4704385	0.01756863	0.02507477	
0.004176405	-0.01471792	-0.1121947	-0.07513618	0.01756863	0.02507477	-0.1591887	-0.4654823	

2.692e+10	-0.2308286	-0.4109955	0.02232588	-0.009561043	-0.1250386	-0.06332597	-0.005113806	-0.01440099	
0.02232588	-0.009561043	-0.2220393	-0.4279916	-0.005361153	-0.01468179	-0.1144766	-0.07864818	
-0.1250386	-0.06332597	-0.005361153	-0.01468179	-0.1794651	-0.4655785	0.02857092	0.0103211	
-0.005113806	-0.01440099	-0.1144766	-0.07864818	0.02857092	0.0103211	-0.1605086	-0.4731143	

2.694e+10	-0.2249756	-0.4112671	0.01253864	-0.02050053	-0.1180415	-0.06147473	-0.01245646	-0.008783807	
0.01253864	-0.02050053	-0.2279431	-0.4301464	-0.01307053	-0.008946231	-0.1184292	-0.08018259	
-0.1180415	-0.06147473	-0.01307053	-0.008946231	-0.1774709	-0.4618457	0.02908104	-0.007877167	
-0.01245646	-0.008783807	-0.1184292	-0.08018259	0.02908104	-0.007877167	-0.1663765	-0.4791142	

2.696e+10	-0.2207581	-0.4160611	-0.001521838	-0.02366812	-0.1115752	-0.06462585	-0.01521	-5.309291e-06	
-0.001521838	-0.02366812	-0.2341761	-0.4295093	-0.01598069	0.0004491724	-0.1227895	-0.07964909	
-0.1115752	-0.06462585	-0.01598069	0.0004491724	-0.1736976	-0.4606498	0.01917982	-0.02293393	
-0.01521	-5.309291e-06	-0.1227895	-0.07964909	0.01917982	-0.02293393	-0.1746534	-0.4811625	

2.698e+10	-0.2208822	-0.4234083	-0.01457858	-0.01833436	-0.1089636	-0.07135815	-0.01242055	0.008735791	
-0.01457858	-0.01833436	-0.2395058	-0.4264455	-0.01263444	0.009825021	-0.1267797	-0.07711357	
-0.1089636	-0.07135815	-0.01263444	0.009825021	-0.1698695	-0.4629381	0.002592307	-0.02958264	
-0.01242055	0.008735791	-0.1267797	-0.07711357	0.002592307	-0.02958264	-0.1825723	-0.4791129	

2.7e+10	-0.2259436	-0.4296301	-0.02223494	-0.006763972	-0.111443	-0.07817824	-0.005138316	0.01427222	
-0.02223494	-0.006763972	-0.2427238	-0.4214285	-0.004362424	0.01526384	-0.1293469	-0.07270489	
-0.111443	-0.07817824	-0.004362424	0.01526384	-0.1683519	-0.4681282	-0.01470892	-0.02560026	
-0.005138316	0.01427222	-0.1293469	-0.07270489	-0.01470892	-0.02560026	-0.1880397	-0.4742085	

2.702e+10	-0.2335613	-0.4323233	-0.02209004	0.007054078	-0.1175238	-0.08216883	0.003990791	0.01464913	
-0.02209004	0.007054078	-0.2425672	-0.4159368	0.005318222	0.01471228	-0.1291727	-0.06735773	
-0.1175238	-0.08216883	0.005318222	0.01471228	-0.1703759	-0.4742759	-0.02658126	-0.01251953	
0.003990791	0.01464913	-0.1291727	-0.06735773	-0.02658126	-0.01251953	-0.1902571	-0.4678437	

2.704e+10	-0.2412187	-0.4310798	-0.01409877	0.01842709	-0.12475	-0.08235119	0.01173636	0.009725042	
-0.01409877	0.01842709	-0.2390952	-0.4124609	0.01264531	0.008777271	-0.1258292	-0.06331304	
-0.12475	-0.08235119	0.01264531	0.008777271	-0.1758196	-0.4788951	-0.02883318	0.004944086	
0.01173636	0.009725042	-0.1258292	-0.06331304	-0.02883318	0.004944086	-0.1884619	-0.4620423	

2.706e+10	-0.2469737	-0.4272543	-0.0009412116	0.02317189	-0.1312025	-0.07911517	0.01527623	0.00114388	
-0.0009412116	0.02317189	-0.2343883	-0.4132695	0.01519089	-5.840069e-05	-0.1209675	-0.06278398	
-0.1312025	-0.07911517	0.01519089	-5.840069e-05	-0.1828334	-0.4805543	-0.02068489	0.020498	
0.01527623	0.00114388	-0.1209675	-0.06278398	-0.02068489	0.020498	-0.1833134	-0.4592458	

2.708e+10	-0.2504578	-0.4221545	0.01252945	0.01943296	-0.1356114	-0.07335541	0.0131068	-0.007980029	
0.01252945	0.01943296	-0.2320598	-0.4181304	0.01233904	-0.008639567	-0.1176735	-0.06590035	
-0.1356114	-0.07335541	0.01233904	-0.008639567	-0.189429	-0.4791759	-0.005137791	0.02849756	
0.0131068	-0.007980029	-0.1176735	-0.06590035	-0.005137791	0.02849756	-0.1773865	-0.4613853	

2.71e+10	-0.251454	-0.4166756	0.02134274	0.008665953	-0.1369897	-0.06604653	0.005974506	-0.01405595	
0.02134274	0.008665953	-0.2341406	-0.4241451	0.005206232	-0.01408032	-0.1179536	-0.07037027	
-0.1369897	-0.06604653	0.005206232	-0.01408032	-0.1944818	-0.4756137	0.01205801	0.02610909	
0.005974506	-0.01405595	-0.1179536	-0.07037027	0.01205801	0.02610909	-0.1742717	-0.4681022	

2.712e+10	-0.2497693	-0.4117692	0.02237491	-0.005163599	-0.1344615	-0.0588846	-0.003233042	-0.01477849	
0.02237491	-0.005163599	-0.2399759	-0.427982	-0.003755799	-0.01456453	-0.1213591	-0.07343977	
-0.1344615	-0.0588846	-0.003755799	-0.01456453	-0.1971887	-0.470933	0.02465433	0.01439874	
-0.003233042	-0.01477849	-0.1213591	-0.07343977	0.02465433	0.01439874	-0.1762815	-0.4765507	

2.714e+10	-0.2456031	-0.4092375	0.01526355	-0.01705936	-0.128319	-0.05441532	-0.0110152	-0.01016098	
0.01526355	-0.01705936	-0.2471153	-0.4281888	-0.01150488	-0.009853912	-0.1259788	-0.07397045	
-0.128319	-0.05441532	-0.01150488	-0.009853912	-0.1972148	-0.4661916	0.02827708	-0.002256891	
-0.0110152	-0.01016098	-0.1259788	-0.07397045	0.02827708	-0.002256891	-0.1834127	-0.4828375	

2.716e+10	-0.2407894	-0.4107441	0.002602854	-0.02262376	-0.1208673	-0.05475155	-0.01476823	-0.002072911	
0.002602854	-0.02262376	-0.2531234	-0.4252932	-0.01523132	-0.001394201	-0.1302998	-0.07216691	
-0.1208673	-0.05475155	-0.01523132	-0.001394201	-0.1946142	-0.4629689	0.02181074	-0.01791172	
-0.01476823	-0.002072911	-0.1302998	-0.07216691	0.02181074	-0.01791172	-0.1929408	-0.4845926	

2.718e+10	-0.2385397	-0.4158403	-0.01083324	-0.01983661	-0.115696	-0.05989426	-0.01333797	0.006699553	
-0.01083324	-0.01983661	-0.257084	-0.4203459	-0.01326039	0.007832805	-0.1335308	-0.06868444	
-0.115696	-0.05989426	-0.01326039	0.007832805	-0.1906678	-0.462824	0.007630663	-0.02705448	
-0.01333797	0.006699553	-0.1335308	-0.06868444	0.007630663	-0.02705448	-0.2017337	-0.4815516	

2.72e+10	-0.2404722	-0.4219349	-0.02010275	-0.009931034	-0.1153324	-0.06701733	-0.007173184	0.01318391	
-0.02010275	-0.009931034	-0.2580539	-0.4147422	-0.006114092	0.01412883	-0.1350094	-0.06390514	
-0.1153324	-0.06701733	-0.006114092	0.01412883	-0.1875189	-0.4662328	-0.009189124	-0.0264619	
-0.007173184	0.01318391	-0.1350094	-0.06390514	-0.009189124	-0.0264619	-0.207486	-0.4751428	

2.722e+10	-0.245925	-0.4259546	-0.02201199	0.003380104	-0.1195393	-0.07279537	0.001701294	0.01504411	
-0.02201199	0.003380104	-0.2559404	-0.4099086	0.00331947	0.01490176	-0.1338574	-0.0588429	
-0.1195393	-0.07279537	0.00331947	0.01490176	-0.1874586	-0.4717817	-0.02261474	-0.01637034	
0.001701294	0.01504411	-0.1338574	-0.0588429	-0.02261474	-0.01637034	-0.2089551	-0.4675627	

2.724e+10	-0.2524387	-0.4268506	-0.01596555	0.01531576	-0.1262726	-0.07512429	0.01018347	0.01141201	
-0.01596555	0.01531576	-0.2511758	-0.4081207	0.01122867	0.01004347	-0.1298962	-0.05545904	
-0.1262726	-0.07512429	0.01122867	0.01004347	-0.1909404	-0.4771434	-0.02781449	-0.0004418007	
0.01018347	0.01141201	-0.1298962	-0.05545904	-0.02781449	-0.0004418007	-0.2060267	-0.4612261	

2.726e+10	-0.2583175	-0.425192	-0.004232026	0.02153103	-0.1332741	-0.07381423	0.01505106	0.003362104	
-0.004232026	0.02153103	-0.2465088	-0.4107466	0.01475733	0.001691901	-0.1248702	-0.05570029	
-0.1332741	-0.07381423	0.01475733	0.001691901	-0.1968805	-0.480283	-0.02293162	0.01554339	
0.01505106	0.003362104	-0.1248702	-0.05570029	-0.02293162	0.01554339	-0.1999505	-0.458541	

2.728e+10	-0.2628604	-0.4219745	0.008776667	0.01988527	-0.1389975	-0.06942281	0.01418923	-0.006120538	
0.008776667	0.01988527	-0.2450597	-0.4170269	0.01290521	-0.006988596	-0.121808	-0.05951503	
-0.1389975	-0.06942281	0.01290521	-0.006988596	-0.2033199	-0.4806234	-0.009799881	0.02575773	
0.01418923	-0.006120538	-0.121808	-0.05951503	-0.009799881	0.02575773	-0.1932827	-0.4611527	

2.73e+10	-0.2659388	-0.4176011	0.01840271	0.01124806	-0.1422269	-0.06278884	0.007854513	-0.01318706	
0.01840271	0.01124806	-0.2486681	-0.4236751	0.006558223	-0.0129904	-0.1226045	-0.06442342	
-0.1422269	-0.06278884	0.006558223	-0.0129904	-0.2089988	-0.4786069	0.006707767	0.02654975	
0.007854513	-0.01318706	-0.1226045	-0.06442342	0.006707767	0.02654975	-0.189813	-0.4683909	

2.732e+10	-0.2668168	-0.4125938	0.02145793	-0.001227374	-0.1418699	-0.0551987	-0.001250081	-0.01509533	
0.02145793	-0.001227374	-0.2560211	-0.4274415	-0.001984149	-0.01436159	-0.1266411	-0.06759165	
-0.1418699	-0.0551987	-0.001984149	-0.01436159	-0.2132361	-0.4749151	0.0205577	0.01780764	
-0.001250081	-0.01509533	-0.1266411	-0.06759165	0.0205577	0.01780764	-0.191656	-0.4774814	

2.734e+10	-0.2649333	-0.4082735	0.016901	-0.01327638	-0.1375009	-0.04890781	-0.009543281	-0.01149086	
0.016901	-0.01327638	-0.26451	-0.4267773	-0.009826507	-0.01070873	-0.1318797	-0.06780607	
-0.1375009	-0.04890781	-0.009826507	-0.01070873	-0.2152142	-0.4702854	0.02688479	0.002855407	
-0.009543281	-0.01149086	-0.1318797	-0.06780607	0.02688479	0.002855407	-0.1989549	-0.4846202	

2.736e+10	-0.2608204	-0.4067378	0.006180623	-0.02058934	-0.1303847	-0.04650484	-0.01425011	-0.004018947	
0.006180623	-0.02058934	-0.2713211	-0.4223017	-0.01430553	-0.0031767	-0.1365146	-0.06546544	
-0.1303847	-0.04650484	-0.01430553	-0.0031767	-0.2144699	-0.4658627	0.02360417	-0.0129454	
-0.01425011	-0.004018947	-0.1365146	-0.06546544	0.02360417	-0.0129454	-0.2091727	-0.4870969	

2.738e+10	-0.2571524	-0.408984	-0.006846538	-0.02032061	-0.1236475	-0.04915535	-0.01402722	0.004726132	
-0.006846538	-0.02032061	-0.2750129	-0.4156567	-0.0136394	0.005750292	-0.1397178	-0.06139002	
-0.1236475	-0.04915535	-0.0136394	0.005750292	-0.2112572	-0.4635616	0.01194312	-0.02404978	
-0.01402722	0.004726132	-0.1397178	-0.06139002	0.01194312	-0.02404978	-0.2191384	-0.4842107	

2.74e+10	-0.2563475	-0.41393	-0.0172412	-0.01253106	-0.1205494	-0.055472	-0.008954987	0.01193126	
-0.0172412	-0.01253106	-0.2749103	-0.4088013	-0.0077483	0.0127187	-0.1409654	-0.0562395	
-0.1205494	-0.055472	-0.0077483	0.0127187	-0.2074387	-0.4648229	-0.003974079	-0.02650573	
-0.008954987	0.01193126	-0.1409654	-0.0562395	-0.003974079	-0.02650573	-0.2259419	-0.4773368	

2.742e+10	-0.2592907	-0.4186825	-0.02112851	-0.00025077	-0.1223469	-0.06217757	-0.0005431685	0.01510824	
-0.02112851	-0.00025077	-0.2713019	-0.4035876	0.001197099	0.01482675	-0.1396028	-0.05092167	
-0.1223469	-0.06217757	0.001197099	0.01482675	-0.2055943	-0.4692467	-0.01842834	-0.01938551	
-0.0005431685	0.01510824	-0.1396028	-0.05092167	-0.01842834	-0.01938551	-0.2280627	-0.4688433	

2.744e+10	-0.2644754	-0.4212831	-0.01719243	0.01186469	-0.1278415	-0.06649335	0.008411097	0.01284518	
-0.01719243	0.01186469	-0.2653014	-0.4020453	0.009574954	0.01123026	-0.135426	-0.04721333	
-0.1278415	-0.06649335	0.009574954	0.01123026	-0.2070574	-0.4748389	-0.02614947	-0.005253662	
0.008411097	0.01284518	-0.135426	-0.04721333	-0.02614947	-0.005253662	-0.2253364	-0.4613948	

2.746e+10	-0.2701663	-0.4214743	-0.00712482	0.01931267	-0.1349018	-0.06717139	0.01452614	0.005582754	
-0.00712482	0.01931267	-0.2597013	-0.4054596	0.01415874	0.003529383	-0.1299232	-0.04710849	
-0.1349018	-0.06717139	0.01415874	0.003529383	-0.2118073	-0.4790987	-0.02431243	0.01070786	
0.01452614	0.005582754	-0.1299232	-0.04710849	-0.02431243	0.01070786	-0.2189403	-0.4575783	

2.748e+10	-0.2754172	-0.4197614	0.00510192	0.01959779	-0.1416211	-0.06436141	0.01511812	-0.004080032	
0.00510192	0.01959779	-0.2577729	-0.4128435	0.01344118	-0.005233202	-0.1260777	-0.05088751	
-0.1416211	-0.06436141	0.01344118	-0.005233202	-0.2181741	-0.4807392	-0.01363736	0.02262477	
0.01511812	-0.004080032	-0.1260777	-0.05088751	-0.01363736	0.02262477	-0.2115691	-0.4591396	

2.75e+10	-0.2797817	-0.4163591	0.01509308	0.0130828	-0.1464714	-0.05849545	0.009758247	-0.01217114	
0.01509308	0.0130828	-0.261547	-0.4206836	0.007920275	-0.01188224	-0.1261762	-0.05628284	
-0.1464714	-0.05849545	0.007920275	-0.01188224	-0.2244388	-0.4797793	0.00184429	0.02615806	
0.009758247	-0.01217114	-0.1261762	-0.05628284	0.00184429	0.02615806	-0.2067284	-0.4658505	

2.752e+10	-0.282306	-0.4115267	0.01969855	0.002279479	-0.1479601	-0.05074464	0.0007700358	-0.01538674	
0.01969855	0.002279479	-0.2696839	-0.4254461	-0.0002885711	-0.01417806	-0.1299914	-0.06028485	
-0.1479601	-0.05074464	-0.0002885711	-0.01417806	-0.2295192	-0.4766928	0.01637326	0.02019694	
0.0007700358	-0.01538674	-0.1299914	-0.06028485	0.01637326	0.02019694	-0.2070474	-0.4752687	

2.754e+10	-0.2820255	-0.4063867	0.01752295	-0.00925953	-0.145086	-0.04319686	-0.008133141	-0.01279603	
0.01752295	-0.00925953	-0.2794748	-0.4251362	-0.008304689	-0.01146405	-0.1355011	-0.06129503	
-0.145086	-0.04319686	-0.008304689	-0.01146405	-0.2326499	-0.471975	0.02477837	0.007152377	
-0.008133141	-0.01279603	-0.1355011	-0.06129503	0.02477837	0.007152377	-0.2131974	-0.4836117	

2.756e+10	-0.2788156	-0.4031117	0.00913216	-0.01764711	-0.1384055	-0.03872163	-0.01380029	-0.005801108	
0.00913216	-0.01764711	-0.2875853	-0.4203225	-0.01342822	-0.004678827	-0.1407422	-0.059365	
-0.1384055	-0.03872163	-0.01342822	-0.004678827	-0.2327948	-0.4669141	0.02427726	-0.008210314	
-0.01380029	-0.005801108	-0.1407422	-0.059365	0.02427726	-0.008210314	-0.2233013	-0.4877324	

2.758e+10	-0.2746459	-0.4035229	-0.00268404	-0.01970908	-0.1306795	-0.03950424	-0.01458913	0.003007989	
-0.00268404	-0.01970908	-0.2921764	-0.4126555	-0.01378365	0.003962815	-0.1446313	-0.05543189	
-0.1306795	-0.03950424	-0.01378365	0.003962815	-0.2298382	-0.4636154	0.01518871	-0.02050914	
-0.01458913	0.003007989	-0.1446313	-0.05543189	0.01518871	-0.02050914	-0.2339913	-0.4864152	

2.76e+10	-0.2724494	-0.4074414	-0.01353688	-0.01449622	-0.1257098	-0.0450849	-0.01036537	0.01077874	
-0.01353688	-0.01449622	-0.2923172	-0.4045632	-0.008937614	0.01134545	-0.1466411	-0.05012071	
-0.1257098	-0.0450849	-0.008937614	0.01134545	-0.2255211	-0.4640302	0.0007366863	-0.02543533	
-0.01036537	0.01077874	-0.1466411	-0.05012071	0.0007366863	-0.02543533	-0.2422638	-0.480434	

2.762e+10	-0.2739565	-0.4123377	-0.01929151	-0.003981037	-0.1258243	-0.05237561	-0.002407388	0.01492307	
-0.01929151	-0.003981037	-0.2884867	-0.3980898	-0.0005571673	0.01443125	-0.1460503	-0.04426211	
-0.1258243	-0.05237561	-0.0005571673	0.01443125	-0.2229706	-0.4680983	-0.0139257	-0.02121598	
-0.002407388	0.01492307	-0.1460503	-0.04426211	-0.0139257	-0.02121598	-0.2463562	-0.4718375	

2.764e+10	-0.2784542	-0.415636	-0.01786585	0.007801686	-0.1305709	-0.05794285	0.006713519	0.01378734	
-0.01786585	0.007801686	-0.2818055	-0.3955147	0.007961657	0.01190511	-0.1423778	-0.03940458	
-0.1305709	-0.05794285	0.007961657	0.01190511	-0.2240039	-0.4738839	-0.02350657	-0.009363908	
0.006713519	0.01378734	-0.1423778	-0.03940458	-0.02350657	-0.009363908	-0.2454071	-0.4632978	

2.766e+10	-0.2840008	-0.4164857	-0.009985677	0.01642355	-0.1377475	-0.05978001	0.01367652	0.007405978	
-0.009985677	0.01642355	-0.2748945	-0.3983336	0.01322669	0.004956838	-0.136547	-0.03779084	
-0.1377475	-0.05978001	0.01322669	0.004956838	-0.2286816	-0.4785807	-0.02453854	0.005818757	
0.01367652	0.007405978	-0.136547	-0.03779084	-0.02453854	0.005818757	-0.2400715	-0.4574628	

2.768e+10	-0.2894219	-0.415031	0.001153647	0.01887277	-0.1450314	-0.05759774	0.01555554	-0.002072513	
0.001153647	0.01887277	-0.2715835	-0.4056866	0.01345268	-0.00354531	-0.1313405	-0.04045581	
-0.1450314	-0.05759774	0.01345268	-0.00354531	-0.2354249	-0.4803498	-0.01665479	0.01879175	
0.01555554	-0.002072513	-0.1313405	-0.04045581	-0.01665479	0.01879175	-0.2324427	-0.4565884	

2.77e+10	-0.2936999	-0.4119042	0.01144752	0.01470181	-0.150538	-0.05198137	0.01132715	-0.01086121	
0.01144752	0.01470181	-0.2739626	-0.4145409	0.00886899	-0.01047981	-0.1296321	-0.04590512	
-0.150538	-0.05198137	0.00886899	-0.01047981	-0.241986	-0.4790508	-0.002792654	0.02480328	
0.01132715	-0.01086121	-0.1296321	-0.04590512	-0.002792654	0.02480328	-0.2258357	-0.4613956	

2.772e+10	-0.2963337	-0.4074196	0.01758334	0.005689772	-0.1526159	-0.04413689	0.002743522	-0.01530302	
0.01758334	0.005689772	-0.2816803	-0.420769	0.001294619	-0.01353925	-0.1320973	-0.0509986	
-0.1526159	-0.04413689	0.001294619	-0.01353925	-0.2469348	-0.4753696	0.01187635	0.02173491	
0.002743522	-0.01530302	-0.1320973	-0.0509986	0.01187635	0.02173491	-0.2236448	-0.4701474	

2.774e+10	-0.2963581	-0.4027057	0.01772818	-0.005178374	-0.1502127	-0.0362293	-0.006575258	-0.013835	
0.01772818	-0.005178374	-0.2918028	-0.4220459	-0.006612075	-0.01182607	-0.1371729	-0.05350905	
-0.1502127	-0.0362293	-0.006612075	-0.01182607	-0.2494589	-0.4703516	0.02200301	0.01091377	
-0.006575258	-0.013835	-0.1371729	-0.05350905	0.02200301	0.01091377	-0.2273334	-0.4794107	

2.776e+10	-0.2938182	-0.3995463	0.01172098	-0.01437135	-0.1437648	-0.03124067	-0.013135	-0.007440505	
0.01172098	-0.01437135	-0.3011544	-0.4181759	-0.01220714	-0.005959095	-0.1428132	-0.05299829	
-0.1437648	-0.03124067	-0.01220714	-0.005959095	-0.2489486	-0.465457	0.02410339	-0.003594922	
-0.013135	-0.007440505	-0.1428132	-0.05299829	0.02410339	-0.003594922	-0.235914	-0.4856301	

2.778e+10	-0.2902374	-0.3996242	0.001411768	-0.01857643	-0.1358844	-0.03142136	-0.01489785	0.001340082	
0.001411768	-0.01857643	-0.3072035	-0.4107968	-0.01351041	0.002166435	-0.1476424	-0.05000292	
-0.1358844	-0.03142136	-0.01351041	0.002166435	-0.2457045	-0.4626873	0.01762317	-0.01660839	
-0.01489785	0.001340082	-0.1476424	-0.05000292	0.01762317	-0.01660839	-0.2466343	-0.4867742	

2.78e+10	-0.2883309	-0.4028848	-0.009543041	-0.01604678	-0.1304736	-0.03667448	-0.01149213	0.009530788	
-0.009543041	-0.01604678	-0.3089074	-0.4021399	-0.009785038	0.009689865	-0.1509765	-0.04520897	
-0.1304736	-0.03667448	-0.009785038	0.009689865	-0.2415918	-0.4636982	0.004955733	-0.02357782	
-0.01149213	0.009530788	-0.1509765	-0.04520897	0.004955733	-0.02357782	-0.2562528	-0.4829577	

2.782e+10	-0.2897554	-0.4072737	-0.01703656	-0.007610119	-0.1301905	-0.0440164	-0.004064318	0.01443992	
-0.01703656	-0.007610119	-0.3061853	-0.3945895	-0.002232375	0.01358176	-0.1520112	-0.03914298	
-0.1301905	-0.0440164	-0.002232375	0.01358176	-0.2395121	-0.4682492	-0.009370176	-0.02208547	
-0.004064318	0.01443992	-0.1520112	-0.03914298	-0.009370176	-0.02208547	-0.2625818	-0.4756661	

2.784e+10	-0.294173	-0.4101398	-0.01824506	0.003606002	-0.1347899	-0.04972664	0.004957274	0.01431494	
-0.01824506	0.003606002	-0.3001641	-0.3901935	0.006099831	0.01219224	-0.1498669	-0.03306007	
-0.1347899	-0.04972664	0.006099831	0.01219224	-0.2411319	-0.4742706	-0.02024464	-0.01271422	
0.004957274	0.01431494	-0.1498669	-0.03306007	-0.02024464	-0.01271422	-0.2644369	-0.4670102	

2.786e+10	-0.2996092	-0.4104152	-0.01272161	0.01339173	-0.1419672	-0.05155962	0.01245672	0.008969537	
-0.01272161	0.01339173	-0.2928383	-0.3907337	0.01186331	0.006273614	-0.1446441	-0.0291391	
-0.1419672	-0.05155962	0.01186331	0.006273614	-0.2467597	-0.478703	-0.02381093	0.001177046	
0.01245672	0.008969537	-0.1446441	-0.0291391	-0.02381093	0.001177046	-0.2616838	-0.4593391	

2.788e+10	-0.3044127	-0.4085498	-0.002654475	0.01807209	-0.149153	-0.04926987	0.01555691	5.385606e-05	
-0.002654475	0.01807209	-0.2875043	-0.3964428	0.0130991	-0.001653083	-0.1383394	-0.02940495	
-0.149153	-0.04926987	0.0130991	-0.001653083	-0.2541509	-0.479805	-0.01876126	0.01460524	
0.01555691	5.385606e-05	-0.1383394	-0.02940495	-0.01876126	0.01460524	-0.2552254	-0.4551785	

2.79e+10	-0.3079997	-0.4051869	0.00804853	0.01612382	-0.1543722	-0.04359565	0.01274492	-0.009169968	
0.00804853	0.01612382	-0.2873119	-0.4050352	0.00971497	-0.008710319	-0.1341198	-0.03366368	
-0.1543722	-0.04359565	0.00971497	-0.008710319	-0.261075	-0.4772587	-0.006886619	0.02265232	
0.01274492	-0.009169968	-0.1341198	-0.03366368	-0.006886619	0.02265232	-0.2476993	-0.4563954	

2.792e+10	-0.3096997	-0.4011385	0.0155942	0.008609526	-0.1561867	-0.03585762	0.004908958	-0.0149465	
0.0155942	0.008609526	-0.2928083	-0.4127837	0.003052689	-0.01262312	-0.1339724	-0.0393794	
-0.1561867	-0.03585762	0.003052689	-0.01262312	-0.2656273	-0.4721831	0.007390758	0.02231492	
0.004908958	-0.0149465	-0.1339724	-0.0393794	0.007390758	0.02231492	-0.2425226	-0.4629185	

2.794e+10	-0.3093698	-0.397117	0.01761175	-0.001704041	-0.1536535	-0.0282007	-0.004778465	-0.01490999	
0.01761175	-0.001704041	-0.3020837	-0.4163936	-0.004666667	-0.01215708	-0.1375015	-0.04380302	
-0.1536535	-0.0282007	-0.004666667	-0.01215708	-0.2667601	-0.4663554	0.01870591	0.01383963	
-0.004778465	-0.01490999	-0.1375015	-0.04380302	0.01870591	0.01383963	-0.2425497	-0.4721534	

2.796e+10	-0.3069285	-0.3948353	0.01351415	-0.01135299	-0.1471748	-0.02344187	-0.01247341	-0.00925007	
0.01351415	-0.01135299	-0.3119498	-0.4148746	-0.01088062	-0.007372277	-0.1428929	-0.04549305	
-0.1471748	-0.02344187	-0.01088062	-0.007372277	-0.264596	-0.461637	0.02297948	0.0005878527	
-0.01247341	-0.00925007	-0.1428929	-0.04549305	0.02297948	0.0005878527	-0.2482525	-0.4803632	

2.798e+10	-0.303969	-0.3955681	0.004656403	-0.01700811	-0.1394069	-0.02395449	-0.01540179	-0.0003145537	
0.004656403	-0.01700811	-0.3196638	-0.4091509	-0.01329868	0.0002971448	-0.1485875	-0.04443709	
-0.1394069	-0.02395449	-0.01329868	0.0002971448	-0.2602508	-0.4599917	0.01895301	-0.01249294	
-0.01540179	-0.0003145537	-0.1485875	-0.04443709	0.01895301	-0.01249294	-0.2576929	-0.4846499	

2.8e+10	-0.3029102	-0.3990695	-0.005862378	-0.01661935	-0.1343033	-0.02943021	-0.01268891	0.008568448	
-0.005862378	-0.01661935	-0.323601	-0.4011864	-0.01068058	0.00811876	-0.1535597	-0.04088777	
-0.1343033	-0.02943021	-0.01068058	0.00811876	-0.255996	-0.4625903	0.008373833	-0.02081796	
-0.01268891	0.008568448	-0.1535597	-0.04088777	0.008373833	-0.02081796	-0.2680423	-0.4839595	

2.802e+10	-0.3052876	-0.4030773	-0.01430364	-0.01030473	-0.1345268	-0.03672666	-0.005435994	0.01425039	
-0.01430364	-0.01030473	-0.3235136	-0.3928723	-0.003798252	0.01285563	-0.1567883	-0.03510381	
-0.1345268	-0.03672666	-0.003798252	0.01285563	-0.2547433	-0.4683988	-0.004878733	-0.02168394	
-0.005435994	0.01425039	-0.1567883	-0.03510381	-0.004878733	-0.02168394	-0.276565	-0.4790246	

2.804e+10	-0.3103462	-0.4051827	-0.01765319	-0.0002526644	-0.1395874	-0.04203762	0.003719114	0.0147813	
-0.01765319	-0.0002526644	-0.319444	-0.386416	0.004479164	0.01246251	-0.1569151	-0.02803562	
-0.1395874	-0.04203762	0.004479164	0.01246251	-0.2577308	-0.4748787	-0.01619824	-0.01499448	
0.003719114	0.0147813	-0.1569151	-0.02803562	-0.01619824	-0.01499448	-0.2816926	-0.4712338	

2.806e+10	-0.31593	-0.4045174	-0.01458012	0.009968271	-0.146886	-0.04317521	0.01157318	0.01001369	
-0.01458012	0.009968271	-0.3126726	-0.3837845	0.01070267	0.007343923	-0.1531582	-0.02171582	
-0.146886	-0.04317521	0.01070267	0.007343923	-0.2646677	-0.4790494	-0.0217577	-0.003139209	
0.01157318	0.01001369	-0.1531582	-0.02171582	-0.0217577	-0.003139209	-0.2824106	-0.4624814	

2.808e+10	-0.3204869	-0.4014671	-0.006102945	0.0164984	-0.153734	-0.04018799	0.01536688	0.001521332	
-0.006102945	0.0164984	-0.3057876	-0.3862232	0.01270311	-0.000150591	-0.1464996	-0.01887099	
-0.153734	-0.04018799	0.01270311	-0.000150591	-0.2731475	-0.4792673	-0.01963836	0.009787045	
0.01536688	0.001521332	-0.1464996	-0.01887099	-0.01963836	0.009787045	-0.2783547	-0.4553032	

2.81e+10	-0.3230132	-0.397326	0.004500733	0.01682751	-0.1582322	-0.0341243	0.0135215	-0.007794062	
0.004500733	0.01682751	-0.3020526	-0.3933582	0.01020851	-0.007220544	-0.1398973	-0.02083292	
-0.1582322	-0.0341243	0.01020851	-0.007220544	-0.2806438	-0.4752998	-0.01048479	0.01923046	
0.0135215	-0.007794062	-0.1398973	-0.02083292	-0.01048479	0.01923046	-0.2710047	-0.4524574	

2.812e+10	-0.3234718	-0.3931011	0.01316137	0.01105467	-0.1591998	-0.02649812	0.006402233	-0.01435941	
0.01316137	0.01105467	-0.304047	-0.4020222	0.004323947	-0.01165475	-0.1365224	-0.02633949	
-0.1591998	-0.02649812	0.004323947	-0.01165475	-0.2847459	-0.4686932	0.002456062	0.02167429	
0.006402233	-0.01435941	-0.1365224	-0.02633949	0.002456062	0.02167429	-0.2634631	-0.4555967	

2.814e+10	-0.3219478	-0.3898603	0.01689534	0.001579409	-0.1560575	-0.01941033	-0.00331651	-0.01537845	
0.01689534	0.001579409	-0.3113055	-0.4083511	-0.003057304	-0.01210901	-0.1375994	-0.0324764	
-0.1560575	-0.01941033	-0.003057304	-0.01210901	-0.2847637	-0.4616121	0.01435341	0.01618938	
-0.00331651	-0.01537845	-0.1375994	-0.0324764	0.01435341	0.01618938	-0.2597809	-0.4634927	

2.816e+10	-0.3191211	-0.388781	0.01467238	-0.008182985	-0.1494812	-0.01547375	-0.011677	-0.01040017	
0.01467238	-0.008182985	-0.3211537	-0.4098771	-0.009559552	-0.008260322	-0.14214	-0.03665406	
-0.1494812	-0.01547375	-0.009559552	-0.008260322	-0.2809665	-0.4567045	0.02079922	0.004983855	
-0.011677	-0.01040017	-0.14214	-0.03665406	0.02079922	0.004983855	-0.2619377	-0.4727427	

2.818e+10	-0.3167139	-0.3905513	0.007434199	-0.01493615	-0.1421145	-0.01659404	-0.01539216	-0.001549909	
0.007434199	-0.01493615	-0.3303795	-0.4065319	-0.01274553	-0.001157691	-0.14834	-0.03783897	
-0.1421145	-0.01659404	-0.01274553	-0.001157691	-0.2752803	-0.4559775	0.01967481	-0.007659023	
-0.01539216	-0.001549909	-0.14834	-0.03783897	0.01967481	-0.007659023	-0.2692636	-0.479626	

2.82e+10	-0.316567	-0.3945754	-0.002276352	-0.01647448	-0.1377193	-0.02228099	-0.01323792	0.007615215	
-0.002276352	-0.01647448	-0.336677	-0.3998168	-0.01104248	0.006653367	-0.154721	-0.03580549	
-0.1377193	-0.02228099	-0.01104248	0.006653367	-0.2705716	-0.4598898	0.01172626	-0.01725208	
-0.01323792	0.007615215	-0.154721	-0.03580549	0.01172626	-0.01725208	-0.2790451	-0.4821535	

2.822e+10	-0.3198601	-0.398395	-0.01119679	-0.01233103	-0.138556	-0.02929937	-0.006296839	0.01369031	
-0.01119679	-0.01233103	-0.3391913	-0.3914351	-0.004884103	0.01187914	-0.1598388	-0.03075117	
-0.138556	-0.02929937	-0.004884103	0.01187914	-0.2696729	-0.4667109	-6.02147e-05	-0.02065891	
-0.006296839	0.01369031	-0.1598388	-0.03075117	-6.02147e-05	-0.02065891	-0.2888286	-0.4799322	

2.824e+10	-0.3254044	-0.4001246	-0.01631109	-0.003813719	-0.1438942	-0.03401515	0.002686486	0.01465479	
-0.01631109	-0.003813719	-0.3374693	-0.3835929	0.003090113	0.01225337	-0.1621015	-0.02338806	
-0.1438942	-0.03401515	0.003090113	0.01225337	-0.27346	-0.4736466	-0.01161016	-0.0169245	
0.002686486	0.01465479	-0.1621015	-0.02338806	-0.01161016	-0.0169245	-0.2963288	-0.4740411	

2.826e+10	-0.3315051	-0.3987331	-0.01565689	0.00626548	-0.1510903	-0.0345488	0.01051435	0.01041862	
-0.01565689	0.00626548	-0.3322646	-0.3782089	0.009455977	0.007880101	-0.1602199	-0.01562501	
-0.1510903	-0.0345488	0.009455977	0.007880101	-0.2810383	-0.4780619	-0.01906779	-0.007426554	
0.01051435	0.01041862	-0.1602199	-0.01562501	-0.01906779	-0.007426554	-0.3002689	-0.4657476	

2.828e+10	-0.336115	-0.3949338	-0.009181444	0.01420866	-0.1575272	-0.03116266	0.01459081	0.00253858	
-0.009181444	0.01420866	-0.3250216	-0.3773392	0.01190559	0.0009318469	-0.1543617	-0.01022563	
-0.1575272	-0.03116266	0.01190559	0.0009318469	-0.2902277	-0.4782804	-0.01994394	0.004637431	
0.01459081	0.00253858	-0.1543617	-0.01022563	-0.01994394	0.004637431	-0.2994029	-0.4571872	

2.83e+10	-0.3383634	-0.3899293	0.0007566136	0.01683701	-0.1614754	-0.02493999	0.01348232	-0.006366729	
0.0007566136	0.01683701	-0.3189367	-0.3817146	0.01005993	-0.005833649	-0.1467484	-0.00941264	
-0.1614754	-0.02493999	0.01005993	-0.005833649	-0.2984853	-0.4739866	-0.01383356	0.01517626	
0.01348232	-0.006366729	-0.1467484	-0.00941264	-0.01383356	0.01517626	-0.2940322	-0.4510445	

2.832e+10	-0.3381164	-0.3851409	0.01023908	0.01316499	-0.1619801	-0.01756806	0.007311482	-0.0131329	
0.01023908	0.01316499	-0.3173305	-0.3897797	0.004982032	-0.01031042	-0.1408006	-0.01343356	
-0.1619801	-0.01756806	0.004982032	-0.01031042	-0.3033956	-0.4664749	-0.002699967	0.02040918	
0.007311482	-0.0131329	-0.1408006	-0.01343356	-0.002699967	0.02040918	-0.2862868	-0.4500734	

2.834e+10	-0.335731	-0.3818856	0.01571687	0.004856169	-0.1586921	-0.01095768	-0.001819542	-0.01497889	
0.01571687	0.004856169	-0.3215504	-0.3977909	-0.001653979	-0.01131273	-0.1390903	-0.01999367	
-0.1586921	-0.01095768	-0.001653979	-0.01131273	-0.3035074	-0.4583758	0.00948214	0.01826091	
-0.001819542	-0.01497889	-0.1390903	-0.01999367	0.00948214	0.01826091	-0.2799238	-0.4550096	

2.836e+10	-0.332355	-0.3811199	0.01548766	-0.004865712	-0.1523643	-0.007318584	-0.01027685	-0.0109744	
0.01548766	-0.004865712	-0.3300909	-0.4021453	-0.007858356	-0.008453639	-0.1418787	-0.02593723	
-0.1523643	-0.007318584	-0.007858356	-0.008453639	-0.2991944	-0.4525481	0.01815686	0.009484916	
-0.01027685	-0.0109744	-0.1418787	-0.02593723	0.01815686	0.009484916	-0.2783141	-0.463559	

2.838e+10	-0.3295736	-0.3834354	0.009941747	-0.0126269	-0.14536	-0.008355952	-0.01461446	-0.002782571	
0.009941747	-0.0126269	-0.3397146	-0.4015713	-0.01145133	-0.002379795	-0.1476585	-0.02921038	
-0.14536	-0.008355952	-0.01145133	-0.002379795	-0.2928281	-0.4510881	0.02017848	-0.002574113	
-0.01461446	-0.002782571	-0.1476585	-0.02921038	0.02017848	-0.002574113	-0.2824117	-0.4718756	

2.84e+10	-0.3294381	-0.3877736	0.00112452	-0.0159454	-0.1410282	-0.01367884	-0.01327273	0.006206105	
0.00112452	-0.0159454	-0.3476796	-0.3967319	-0.01074941	0.00486484	-0.1545663	-0.02898214	
-0.1410282	-0.01367884	-0.01074941	0.00486484	-0.2872793	-0.4546066	0.01501236	-0.01349159	
-0.01327273	0.006206105	-0.1545663	-0.02898214	0.01501236	-0.01349159	-0.290625	-0.4768685	

2.842e+10	-0.3327226	-0.3920556	-0.008029411	-0.01383476	-0.1415875	-0.02040307	-0.007073884	0.01254388	
-0.008029411	-0.01383476	-0.3524555	-0.3892501	-0.005722035	0.01028892	-0.1608695	-0.02519149	
-0.1415875	-0.02040307	-0.005722035	0.01028892	-0.2852768	-0.461542	0.004688681	-0.01948481	
-0.007073884	0.01254388	-0.1608695	-0.02519149	0.004688681	-0.01948481	-0.3000689	-0.4776097	

2.844e+10	-0.338519	-0.3942601	-0.01452588	-0.006940941	-0.1465413	-0.02512773	0.001423581	0.01408826	
-0.01452588	-0.006940941	-0.3532319	-0.3811888	0.001525106	0.01148518	-0.1647933	-0.01851366	
-0.1465413	-0.02512773	0.001525106	0.01148518	-0.2880607	-0.4691528	-0.0070975	-0.01862552	
0.001423581	0.01408826	-0.1647933	-0.01851366	-0.0070975	-0.01862552	-0.3087299	-0.4743142	

2.846e+10	-0.3451202	-0.3932572	-0.01604763	0.002581905	-0.1534498	-0.02589899	0.009102515	0.01059873	
-0.01604763	0.002581905	-0.3502461	-0.3742812	0.007801503	0.008116595	-0.1648967	-0.01049	
-0.1534498	-0.02589899	0.007801503	0.008116595	-0.2950392	-0.4747388	-0.0163129	-0.01135888	
0.009102515	0.01059873	-0.1648967	-0.01049	-0.0163129	-0.01135888	-0.3150639	-0.4678056	

2.848e+10	-0.3505843	-0.3893633	-0.01175175	0.01143207	-0.1597878	-0.02282654	0.01341921	0.003499445	
-0.01175175	0.01143207	-0.3442371	-0.370573	0.01066614	0.001978008	-0.1607799	-0.003592454	
-0.1597878	-0.02282654	0.01066614	0.001978008	-0.3044278	-0.4763868	-0.01990098	-0.0002014627	
0.01341921	0.003499445	-0.1607799	-0.003592454	-0.01990098	-0.0002014627	-0.3175014	-0.4595577	

2.85e+10	-0.3535493	-0.3838092	-0.002982647	0.01618751	-0.1638386	-0.01701777	0.0130126	-0.004783581	
-0.002982647	0.01618751	-0.3374364	-0.3716188	0.009518319	-0.004284093	-0.1537595	-0.0003757062	
-0.1638386	-0.01701777	0.009518319	-0.004284093	-0.313825	-0.47324	-0.01662523	0.01113382	
0.0130126	-0.004783581	-0.1537595	-0.0003757062	-0.01662523	0.01113382	-0.3153471	-0.4517034	

2.852e+10	-0.353592	-0.3781212	0.006928352	0.0148823	-0.1647192	-0.009959237	0.00792256	-0.01145401	
0.006928352	0.0148823	-0.3331415	-0.3773434	0.00534383	-0.008597593	-0.1467068	-0.001971716	
-0.1647192	-0.009959237	0.00534383	-0.008597593	-0.3204103	-0.4661999	-0.0074065	0.01875448	
0.00792256	-0.01145401	-0.1467068	-0.001971716	-0.0074065	0.01875448	-0.3091994	-0.4472075	

2.854e+10	-0.3510458	-0.3739566	0.01412817	0.00809914	-0.162095	-0.003367104	-0.0002223832	-0.01398523	
0.01412817	0.00809914	-0.3338803	-0.3853061	-0.000279484	-0.009968283	-0.142642	-0.007325774	
-0.162095	-0.003367104	-0.000279484	-0.009968283	-0.3223436	-0.4574595	0.004693339	0.01975103	
-0.0002223832	-0.01398523	-0.142642	-0.007325774	0.004693339	0.01975103	-0.3019029	-0.4482642	

2.856e+10	-0.3471472	-0.3724001	0.0160584	-0.001430603	-0.1564777	0.0008466341	-0.00837586	-0.0111881	
0.0160584	-0.001430603	-0.3398184	-0.3916061	-0.005774589	-0.008155745	-0.1430655	-0.01370004	
-0.1564777	0.0008466341	-0.005774589	-0.008155745	-0.3194498	-0.449842	0.01524751	0.01350742	
-0.00837586	-0.0111881	-0.1430655	-0.01370004	0.01524751	0.01350742	-0.2973952	-0.4542944	

2.858e+10	-0.3434589	-0.3741636	0.01228931	-0.01020967	-0.149637	0.0009402097	-0.01324732	-0.004105799	
0.01228931	-0.01020967	-0.3485431	-0.3936793	-0.009496373	-0.003503397	-0.1473318	-0.01842949	
-0.149637	0.0009402097	-0.009496373	-0.003503397	-0.3131558	-0.446072	0.02023027	0.002276947	
-0.01324732	-0.004105799	-0.1473318	-0.01842949	0.02023027	0.002276947	-0.2980527	-0.4623101	

2.86e+10	-0.3421311	-0.3785112	0.004345955	-0.01527582	-0.1445328	-0.003279908	-0.01297116	0.004365277	
0.004345955	-0.01527582	-0.3570414	-0.3912844	-0.00990195	0.002679169	-0.1536694	-0.01995817	
-0.1445328	-0.003279908	-0.00990195	0.002679169	-0.3062254	-0.447566	0.01781059	-0.009711054	
-0.01297116	0.004365277	-0.1536694	-0.01995817	0.01781059	-0.009711054	-0.3033137	-0.469031	

2.862e+10	-0.3442946	-0.3835879	-0.005007141	-0.01505202	-0.1437415	-0.009723701	-0.007883054	0.01091004	
-0.005007141	-0.01505202	-0.3632998	-0.3856593	-0.006443582	0.00803428	-0.1602116	-0.01791398	
-0.1437415	-0.009723701	-0.006443582	0.00803428	-0.3020585	-0.4534318	0.009013307	-0.01805974	
-0.007883054	0.01091004	-0.1602116	-0.01791398	0.009013307	-0.01805974	-0.3114729	-0.472194	

2.864e+10	-0.3497554	-0.3869461	-0.01268153	-0.009657242	-0.1474931	-0.01505984	-0.0001366326	0.01322329	
-0.01268153	-0.009657242	-0.36636	-0.3784505	-0.0004054286	0.01018293	-0.1651418	-0.01270697	
-0.1474931	-0.01505984	-0.0004054286	0.01018293	-0.3024128	-0.4614319	-0.002856687	-0.01987071	
-0.0001366326	0.01322329	-0.1651418	-0.01270697	-0.002856687	-0.01987071	-0.3202005	-0.4715146	

2.866e+10	-0.3567673	-0.387167	-0.01607933	-0.0007751583	-0.1538641	-0.01690521	0.007342723	0.01073865	
-0.01607933	-0.0007751583	-0.3659816	-0.3712573	0.005551165	0.008236451	-0.1669981	-0.005539899	
-0.1538641	-0.01690521	0.005551165	0.008236451	-0.3076186	-0.468661	-0.01356305	-0.01469299	
0.007342723	0.01073865	-0.1669981	-0.005539899	-0.01356305	-0.01469299	-0.3276295	-0.4675559	

2.868e+10	-0.3632494	-0.3841255	-0.0137978	0.008668775	-0.160284	-0.01495374	0.01199767	0.004590824	
-0.0137978	0.008668775	-0.3623273	-0.3657583	0.008967872	0.003332093	-0.1650627	0.001555725	
-0.160284	-0.01495374	0.008967872	0.003332093	-0.3164923	-0.4725921	-0.01947748	-0.004457361	
0.01199767	0.004590824	-0.1650627	0.001555725	-0.01947748	-0.004457361	-0.3327137	-0.4608102	

2.87e+10	-0.3675707	-0.3786418	-0.006324036	0.01520748	-0.1649518	-0.01008888	0.01240312	-0.003013695	
-0.006324036	0.01520748	-0.3565999	-0.3635127	0.008881005	-0.002268693	-0.1598922	0.006393983	
-0.1649518	-0.01008888	0.008881005	-0.002268693	-0.3266101	-0.4718608	-0.01865789	0.007357062	
0.01240312	-0.003013695	-0.1598922	0.006393983	-0.01865789	0.007357062	-0.333899	-0.4528896	

2.872e+10	-0.3687792	-0.3724013	0.003716621	0.01614473	-0.1669015	-0.003583518	0.008476189	-0.009541928	
0.003716621	0.01614473	-0.3508751	-0.3658891	0.005901883	-0.006553325	-0.153338	0.007472654	
-0.1669015	-0.003583518	0.005901883	-0.006553325	-0.3351163	-0.4665355	-0.01127663	0.01677507	
0.008476189	-0.009541928	-0.153338	0.007472654	-0.01127663	0.01677507	-0.3305804	-0.446265	

2.874e+10	-0.3670949	-0.3669668	0.0124184	0.01095523	-0.1657006	0.003123752	0.001460897	-0.0127234	
0.0124184	0.01095523	-0.3483774	-0.3718937	0.001371025	-0.008502572	-0.1479794	0.004572882	
-0.1657006	0.003123752	0.001371025	-0.008502572	-0.3398851	-0.4579896	0.0003379064	0.0203992	
0.001460897	-0.0127234	-0.1479794	0.004572882	0.0003379064	0.0203992	-0.3243056	-0.4435946	

2.876e+10	-0.3633121	-0.3638198	0.01637686	0.00170134	-0.1613829	0.008372992	-0.006201451	-0.01123855	
0.01637686	0.00170134	-0.3508141	-0.3787121	-0.003429103	-0.007882633	-0.145908	-0.0007639795	
-0.1613829	0.008372992	-0.003429103	-0.007882633	-0.3395639	-0.4489839	0.01210632	0.01661531	
-0.006201451	-0.01123855	-0.145908	-0.0007639795	0.01210632	0.01661531	-0.318188	-0.4462478	

2.878e+10	-0.3588494	-0.3638952	0.01422914	-0.007994166	-0.1549813	0.01040252	-0.0115597	-0.005501317	
0.01422914	-0.007994166	-0.3572184	-0.3832039	-0.007319511	-0.00478793	-0.1477378	-0.006011243	
-0.1549813	0.01040252	-0.007319511	-0.00478793	-0.3347431	-0.4424491	0.01955533	0.006596677	
-0.0115597	-0.005501317	-0.1477378	-0.006011243	0.01955533	0.006596677	-0.3157616	-0.4526336	

2.88e+10	-0.3557059	-0.3673165	0.007005448	-0.01456926	-0.1488747	0.008193072	-0.01249732	0.002248622	
0.007005448	-0.01456926	-0.3652659	-0.383701	-0.008972232	0.0001926414	-0.1525063	-0.009140681	
-0.1488747	0.008193072	-0.008972232	0.0001926414	-0.3275582	-0.4405753	0.01976986	-0.005915826	
-0.01249732	0.002248622	-0.1525063	-0.009140681	0.01976986	-0.005915826	-0.3181357	-0.4596176	

2.882e+10	-0.3557959	-0.3727096	-0.00252268	-0.01583633	-0.1458864	0.002622867	-0.008766151	0.008976737	
-0.00252268	-0.01583633	-0.3725078	-0.3806582	-0.007344453	0.005484363	-0.1584983	-0.009111202	
-0.1458864	0.002622867	-0.007344453	0.005484363	-0.3210527	-0.4440062	0.01269679	-0.01618002	
-0.008766151	0.008976737	-0.1584983	-0.009111202	0.01269679	-0.01618002	-0.324092	-0.464575	

2.884e+10	-0.3598688	-0.3775035	-0.01101598	-0.01156792	-0.1474709	-0.003398086	-0.001952134	0.0122231	
-0.01101598	-0.01156792	-0.3777045	-0.3750768	-0.002705379	0.008832354	-0.163964	-0.005897666	
-0.1474709	-0.003398086	-0.002705379	0.008832354	-0.3182156	-0.4512666	0.001089214	-0.02042197	
-0.001952134	0.0122231	-0.163964	-0.005897666	0.001089214	-0.02042197	-0.3319064	-0.4661756	

2.886e+10	-0.3665814	-0.3797387	-0.01565942	-0.003288542	-0.152649	-0.007011846	0.005343204	0.01098437	
-0.01565942	-0.003288542	-0.3801466	-0.3681305	0.003032994	0.008638632	-0.1673399	-0.0002044443	
-0.152649	-0.007011846	0.003032994	0.008638632	-0.3204301	-0.4596676	-0.01070917	-0.0172654	
0.005343204	0.01098437	-0.1673399	-0.0002044443	-0.01070917	-0.0172654	-0.3397019	-0.4644839	

2.888e+10	-0.3739068	-0.3783709	-0.01484081	0.00625985	-0.1590672	-0.006972841	0.01054113	0.005906218	
-0.01484081	0.00625985	-0.3791662	-0.3613275	0.007357497	0.00507882	-0.1675953	0.006467654	
-0.1590672	-0.006972841	0.007357497	0.00507882	-0.3275632	-0.4660753	-0.01852858	-0.008075688	
0.01054113	0.005906218	-0.1675953	0.006467654	-0.01852858	-0.008075688	-0.3461901	-0.4597436	

2.89e+10	-0.3798232	-0.3737728	-0.008621088	0.01376987	-0.1646208	-0.003592039	0.01194975	-0.001129394	
-0.008621088	0.01376987	-0.3749585	-0.3563201	0.008639859	-0.0001052473	-0.1645698	0.01231629	
-0.1646208	-0.003592039	0.008639859	-0.0001052473	-0.3374216	-0.4683633	-0.01981424	0.003829969	
0.01194975	-0.001129394	-0.1645698	0.01231629	-0.01981424	0.003829969	-0.3497333	-0.4528286	

2.892e+10	-0.3828738	-0.3674194	0.0009629992	0.01632462	-0.1680375	0.002053067	0.009173294	-0.007720801	
0.0009629992	0.01632462	-0.3688342	-0.3551852	0.006820637	-0.004779765	-0.1591893	0.0155806	
-0.1680375	0.002053067	0.006820637	-0.004779765	-0.3474676	-0.465485	-0.01420993	0.01442988	
0.009173294	-0.007720801	-0.1591893	0.0155806	-0.01420993	0.01442988	-0.3492423	-0.4454052	

2.894e+10	-0.3827626	-0.3609495	0.01031067	0.01272127	-0.1686262	0.008689775	0.003113041	-0.01162127	
0.01031067	0.01272127	-0.363767	-0.358723	0.002989776	-0.007519852	-0.1533938	0.01514852	
-0.1686262	0.008689775	0.002989776	-0.007519852	-0.354724	-0.4584629	-0.003494897	0.02009942	
0.003113041	-0.01162127	-0.1533938	0.01514852	-0.003494897	0.02009942	-0.3447762	-0.4403421	

2.896e+10	-0.3798886	-0.3559913	0.01571849	0.004303631	-0.1660569	0.01496626	-0.004187721	-0.01133304	
0.01571849	0.004303631	-0.3627598	-0.3653012	-0.0015288	-0.007864993	-0.1494682	0.01150095	
-0.1660569	0.01496626	-0.0015288	-0.007864993	-0.3576297	-0.4492801	0.008729385	0.01862255	
-0.004187721	-0.01133304	-0.1494682	0.01150095	0.008729385	0.01862255	-0.3386234	-0.4400291	

2.898e+10	-0.3751999	-0.3539416	0.01514608	-0.005570572	-0.1606718	0.01907364	-0.01000746	-0.006790852	
0.01514608	-0.005570572	-0.3665817	-0.3716065	-0.005624309	-0.00585065	-0.1490014	0.006427379	
-0.1606718	0.01907364	-0.005624309	-0.00585065	-0.3555056	-0.4408977	0.01797804	0.01024244	
-0.01000746	-0.006790852	-0.1490014	0.006427379	0.01797804	0.01024244	-0.3344488	-0.4443124	

2.9e+10	-0.3705907	-0.3555079	0.009036126	-0.01312163	-0.154036	0.01937733	-0.01203693	0.0003130958	
0.009036126	-0.01312163	-0.3737487	-0.3747938	-0.008158462	-0.001775849	-0.1519625	0.002307631	
-0.154036	0.01937733	-0.008158462	-0.001775849	-0.3496024	-0.4357513	0.02064108	-0.002043663	
-0.01203693	0.0003130958	-0.1519625	0.002307631	0.02064108	-0.002043663	-0.3344429	-0.4508207	

2.902e+10	-0.3683065	-0.3602947	-0.0001072421	-0.01571463	-0.1489008	0.01554501	-0.009529549	0.007188857	
-0.0001072421	-0.01571463	-0.3817122	-0.3740613	-0.007934756	0.003340354	-0.1570685	0.000685345	
-0.1489008	0.01554501	-0.007934756	0.003340354	-0.342288	-0.4355959	0.01564153	-0.01358595	
-0.009529549	0.007188857	-0.1570685	0.000685345	0.01564153	-0.01358595	-0.338749	-0.4562923	

2.904e+10	-0.3701842	-0.3660722	-0.008911583	-0.01272233	-0.147748	0.009450863	-0.003579453	0.01125659	
-0.008911583	-0.01272233	-0.3885973	-0.3699269	-0.004529762	0.007526883	-0.1625753	0.002184987	
-0.147748	0.009450863	-0.004529762	0.007526883	-0.3366523	-0.4404822	0.004916876	-0.02003756	
-0.003579453	0.01125659	-0.1625753	0.002184987	0.004916876	-0.02003756	-0.3453783	-0.4591656	

2.906e+10	-0.3757373	-0.3702686	-0.01445091	-0.005425984	-0.1509404	0.004242512	0.003518364	0.01114797	
-0.01445091	-0.005425984	-0.3929633	-0.363506	0.0008571064	0.008769815	-0.1668147	0.006466691	
-0.1509404	0.004242512	0.0008571064	0.008769815	-0.3355255	-0.448343	-0.007440346	-0.0191032	
0.003518364	0.01114797	-0.1668147	0.006466691	-0.007440346	-0.0191032	-0.3528074	-0.458792	

2.908e+10	-0.3832717	-0.3708976	-0.01499304	0.003696519	-0.1567358	0.002106505	0.009194376	0.00704974	
-0.01499304	0.003696519	-0.394106	-0.3558523	0.00582173	0.006438291	-0.1685318	0.01243535	
-0.1567358	0.002106505	0.00582173	0.006438291	-0.3395191	-0.4563304	-0.01690882	-0.01135369	
0.009194376	0.00704974	-0.1685318	0.01243535	-0.01690882	-0.01135369	-0.359474	-0.4554998	

2.91e+10	-0.3903833	-0.36775	-0.01028241	0.01163442	-0.1628312	0.00355299	0.01150337	0.0005173958	
-0.01028241	0.01163442	-0.3912934	-0.3491201	0.008246955	0.001738958	-0.1671214	0.0184799	
-0.1628312	0.00355299	0.008246955	0.001738958	-0.3479101	-0.4611896	-0.02028031	0.0002619436	
0.01150337	0.0005173958	-0.1671214	0.0184799	-0.02028031	0.0002619436	-0.3641122	-0.4496411	

2.912e+10	-0.3951143	-0.3620555	-0.001744045	0.01553139	-0.1675379	0.007812972	0.009706629	-0.00614268	
-0.001744045	0.01553139	-0.3854061	-0.3455623	0.007464208	-0.003188991	-0.1630101	0.02282254	
-0.1675379	0.007812972	0.007464208	-0.003188991	-0.3578265	-0.4614735	-0.01655821	0.01171953	
0.009706629	-0.00614268	-0.1630101	0.02282254	-0.01655821	0.01171953	-0.3651035	-0.4427485	

2.914e+10	-0.3967753	-0.3553816	0.007593926	0.01372069	-0.169889	0.01381817	0.004421249	-0.01061615	
0.007593926	0.01372069	-0.3790243	-0.3469469	0.004257114	-0.006572193	-0.1575743	0.02405597	
-0.169889	0.01381817	0.004257114	-0.006572193	-0.3667661	-0.4569811	-0.006997103	0.01914118	
0.004421249	-0.01061615	-0.1575743	0.02405597	-0.006997103	0.01914118	-0.362228	-0.4370813	

2.916e+10	-0.3953395	-0.349398	0.01412154	0.006748036	-0.1693354	0.02040188	-0.002541355	-0.01124029	
0.01412154	0.006748036	-0.3755322	-0.3527716	-9.488304e-06	-0.007656894	-0.1529814	0.0219632	
-0.1693354	0.02040188	-9.488304e-06	-0.007656894	-0.3722297	-0.449469	0.005233874	0.01984026	
-0.002541355	-0.01124029	-0.1529814	0.0219632	0.005233874	0.01984026	-0.3569291	-0.4353066	

2.918e+10	-0.3915649	-0.3454539	0.01531013	-0.002668824	-0.1657014	0.02600742	-0.008606143	-0.007648954	
0.01531013	-0.002668824	-0.3772114	-0.3598418	-0.004143054	-0.006431226	-0.151127	0.01769987	
-0.1657014	0.02600742	-0.004143054	-0.006431226	-0.3734462	-0.4409763	0.01578328	0.0133096	
-0.008606143	-0.007648954	-0.151127	0.01769987	0.01578328	0.0133096	-0.3525048	-0.4381143	

2.92e+10	-0.3867134	-0.3446701	0.01084704	-0.01090208	-0.1597494	0.02882981	-0.01137919	-0.001177933	
0.01084704	-0.01090208	-0.3833157	-0.3647715	-0.007126418	-0.003162459	-0.1526797	0.01343831	
-0.1597494	0.02882981	-0.007126418	-0.003162459	-0.3705923	-0.4337545	0.02065445	0.001779863	
-0.01137919	-0.001177933	-0.1526797	0.01343831	0.02065445	0.001779863	-0.3517402	-0.4436267	

2.922e+10	-0.3827224	-0.3476405	0.002594615	-0.01496981	-0.1535395	0.02765379	-0.009827155	0.005598493	
0.002594615	-0.01496981	-0.3914399	-0.3657907	-0.007888059	0.001454846	-0.1567695	0.01107238	
-0.1535395	0.02765379	-0.007888059	0.001454846	-0.364673	-0.4300077	0.01792263	-0.01049035	
-0.009827155	0.005598493	-0.1567695	0.01107238	0.01792263	-0.01049035	-0.3550068	-0.4488719	

2.924e+10	-0.3820517	-0.3529177	-0.00632059	-0.01361654	-0.1497942	0.02300201	-0.004720373	0.01011365	
-0.00632059	-0.01361654	-0.3992548	-0.3627847	-0.005714994	0.005911852	-0.1618288	0.01154326	
-0.1497942	0.02300201	-0.005714994	0.005911852	-0.3581209	-0.4308994	0.008571428	-0.01890789	
-0.004720373	0.01011365	-0.1618288	0.01154326	0.008571428	-0.01890789	-0.3610051	-0.4515763	

2.926e+10	-0.3853649	-0.3582285	-0.01280646	-0.00758277	-0.1502031	0.01724628	0.001925417	0.01085862	
-0.01280646	-0.00758277	-0.4048747	-0.3568195	-0.001122603	0.008241192	-0.166237	0.01474853	
-0.1502031	0.01724628	-0.001122603	0.008241192	-0.3537498	-0.4362216	-0.00389113	-0.02034015	
0.001925417	0.01085862	-0.166237	0.01474853	-0.00389113	-0.02034015	-0.3676933	-0.4513188	

2.928e+10	-0.3918524	-0.3608319	-0.01480939	0.0009680631	-0.1542243	0.01322169	0.007724737	0.007725546	
-0.01480939	0.0009680631	-0.4072428	-0.3490493	0.003972311	0.007248965	-0.1686066	0.01992607	
-0.1542243	0.01322169	0.003972311	0.007248965	-0.353953	-0.4437068	-0.01482102	-0.01434753	
0.007724737	0.007725546	-0.1686066	0.01992607	-0.01482102	-0.01434753	-0.3736975	-0.4483665	

2.93e+10	-0.3990852	-0.3598427	-0.01169105	0.009213173	-0.1599529	0.01236387	0.01068882	0.001903583	
-0.01169105	0.009213173	-0.4055231	-0.3414821	0.007315206	0.003433234	-0.1681967	0.02570767	
-0.1599529	0.01236387	0.007315206	0.003433234	-0.3589243	-0.4504223	-0.02029064	-0.003260931	
0.01068882	0.001903583	-0.1681967	0.02570767	-0.02029064	-0.003260931	-0.3777685	-0.4434059	

2.932e+10	-0.405031	-0.3557032	-0.004364601	0.01432065	-0.1654103	0.01467518	0.009820082	-0.00454771	
-0.004364601	0.01432065	-0.4001742	-0.3365007	0.007687084	-0.001382986	-0.1650372	0.03037934	
-0.1654103	0.01467518	0.007687084	-0.001382986	-0.3671697	-0.4537405	-0.01848584	0.00890061	
0.009820082	-0.00454771	-0.1650372	0.03037934	-0.01848584	0.00890061	-0.3789312	-0.4374502	

2.934e+10	-0.4084813	-0.34974	0.004691345	0.01429066	-0.1693209	0.01941144	0.005415692	-0.009363641	
0.004691345	0.01429066	-0.3933493	-0.3363084	0.005372687	-0.005277329	-0.160211	0.03247884	
-0.1693209	0.01941144	0.005372687	-0.005277329	-0.3761368	-0.4527373	-0.01009615	0.01788856	
0.005415692	-0.009363641	-0.160211	0.03247884	-0.01009615	0.01788856	-0.3768309	-0.4324263	

2.936e+10	-0.4090105	-0.3435656	0.01209496	0.008959607	-0.1707842	0.02558482	-0.001002085	-0.01077149	
0.01209496	0.008959607	-0.3885377	-0.3410985	0.001554244	-0.007158413	-0.1555875	0.03142846	
-0.1707842	0.02558482	0.001554244	-0.007158413	-0.3834227	-0.4481378	0.001982654	0.02050437	
-0.001002085	-0.01077149	-0.1555875	0.03142846	0.001982654	0.02050437	-0.3724043	-0.4308261	

2.938e+10	-0.407007	-0.338384	0.01499851	0.0003236021	-0.169276	0.03192384	-0.00706619	-0.008151681	
0.01499851	0.0003236021	-0.3886014	-0.348305	-0.002536464	-0.006798547	-0.1531617	0.02799991	
-0.169276	0.03192384	-0.002536464	-0.006798547	-0.3878984	-0.4412248	0.01344307	0.01567766	
-0.00706619	-0.008151681	-0.1531617	0.02799991	0.01344307	0.01567766	-0.3688234	-0.4332129	

2.94e+10	-0.4030252	-0.3354305	0.0123694	-0.008330395	-0.1648418	0.03675591	-0.01040762	-0.002475606	
0.0123694	-0.008330395	-0.393656	-0.3542007	-0.005883323	-0.004377312	-0.1538056	0.02408531	
-0.1648418	0.03675591	-0.005883323	-0.004377312	-0.3888054	-0.4337874	0.02004484	0.005089997	
-0.01040762	-0.002475606	-0.1538056	0.02408531	0.02004484	0.005089997	-0.3684871	-0.4382131	

2.942e+10	-0.3985317	-0.3355949	0.005294914	-0.01382256	-0.1586659	0.03841464	-0.009773494	0.003980532	
0.005294914	-0.01382256	-0.401642	-0.3562185	-0.00750344	-0.0003906123	-0.1569987	0.02161781	
-0.1586659	0.03841464	-0.00750344	-0.0003906123	-0.3861993	-0.4274152	0.01933813	-0.00738142	
-0.009773494	0.003980532	-0.1569987	0.02161781	0.01933813	-0.00738142	-0.3721234	-0.4426943	

2.944e+10	-0.3954908	-0.3390964	-0.003543231	-0.01424289	-0.1530226	0.03617302	-0.005599715	0.008745937	
-0.003543231	-0.01424289	-0.4097111	-0.3541526	-0.00657192	0.004058901	-0.1613525	0.02158634	
-0.1530226	0.03617302	-0.00657192	0.004058901	-0.3809339	-0.423962	0.01156942	-0.01718794	
-0.005599715	0.008745937	-0.1613525	0.02158634	0.01156942	-0.01718794	-0.3781652	-0.4444998	

2.946e+10	-0.3959436	-0.3443098	-0.01093858	-0.009606395	-0.1503738	0.03116829	0.0004043026	0.01023101	
-0.01093858	-0.009606395	-0.4159762	-0.3486745	-0.003044293	0.007274051	-0.1653978	0.02406996	
-0.1503738	0.03116829	-0.003044293	0.007274051	-0.3749403	-0.4249871	-0.0004642041	-0.0207268	
0.0004043026	0.01023101	-0.1653978	0.02406996	-0.0004642041	-0.0207268	-0.3843882	-0.4432807	

2.948e+10	-0.4002199	-0.3486423	-0.01438191	-0.001699666	-0.1517088	0.02587756	0.006102796	0.008101625	
-0.01438191	-0.001699666	-0.4191374	-0.3411099	0.001835914	0.007723701	-0.1678854	0.02851626	
-0.1517088	0.02587756	0.001835914	0.007723701	-0.3712475	-0.4300943	-0.01233978	-0.01663979	
0.006102796	0.008101625	-0.1678854	0.02851626	-0.01233978	-0.01663979	-0.3892904	-0.4397034	

2.95e+10	-0.4067382	-0.3500971	-0.01280283	0.006747313	-0.1561215	0.02260871	0.009588792	0.003166178	
-0.01280283	0.006747313	-0.4182638	-0.3332984	0.005973505	0.005119732	-0.1679539	0.03374343	
-0.1561215	0.02260871	0.005973505	0.005119732	-0.3720064	-0.4369515	-0.0196342	-0.006451599	
0.009588792	0.003166178	-0.1679539	0.03374343	-0.0196342	-0.006451599	-0.3921778	-0.4346414	

2.952e+10	-0.4133941	-0.3481102	-0.006709484	0.01287234	-0.1617721	0.02250529	0.009671595	-0.002885985	
-0.006709484	0.01287234	-0.4136168	-0.3274762	0.007670298	0.0006858513	-0.1654018	0.03830767	
-0.1617721	0.02250529	0.007670298	0.0006858513	-0.3770168	-0.4426801	-0.01970064	0.006030611	
0.009671595	-0.002885985	-0.1654018	0.03830767	-0.01970064	0.006030611	-0.3923309	-0.4293561	

2.954e+10	-0.4183657	-0.3436494	0.001874534	0.01444891	-0.1669393	0.02539623	0.006260075	-0.007940012	
0.001874534	0.01444891	-0.4067613	-0.3262271	0.006527548	-0.003695215	-0.1610656	0.04066613	
-0.1669393	0.02539623	0.006527548	-0.003695215	-0.3846405	-0.4451389	-0.01259171	0.01622144	
0.006260075	-0.007940012	-0.1610656	0.04066613	-0.01259171	0.01622144	-0.389613	-0.4256352	

2.956e+10	-0.421025	-0.3377875	0.00985539	0.01076772	-0.1703553	0.03059036	0.0004947505	-0.01011591	
0.00985539	0.01076772	-0.4012933	-0.3299781	0.003302003	-0.006559027	-0.1567146	0.04000433	
-0.1703553	0.03059036	0.003302003	-0.006559027	-0.3926442	-0.4439596	-0.0009470329	0.02043807	
0.0004947505	-0.01011591	-0.1567146	0.04000433	-0.0009470329	0.02043807	-0.3855746	-0.4250805	

2.958e+10	-0.4210477	-0.3319272	0.0142479	0.003140946	-0.1710642	0.03704789	-0.005497811	-0.008482083	
0.0142479	0.003140946	-0.4002427	-0.3369163	-0.0008255988	-0.00723384	-0.1543021	0.03701618	
-0.1710642	0.03704789	-0.0008255988	-0.00723384	-0.3992861	-0.4398882	0.01093186	0.01717745	
-0.005497811	-0.008482083	-0.1543021	0.03701618	0.01093186	0.01717745	-0.3827534	-0.4283872	

2.96e+10	-0.4186878	-0.3269971	0.01344537	-0.005605305	-0.1686067	0.04322811	-0.009344412	-0.003616955	
0.01344537	-0.005605305	-0.4044376	-0.3432308	-0.004683331	-0.005635093	-0.154768	0.03349029	
-0.1686067	0.04322811	-0.004683331	-0.005635093	-0.4036989	-0.4336722	0.0187048	0.007755813	
-0.009344412	-0.003616955	-0.154768	0.03349029	0.0187048	0.007755813	-0.3836438	-0.4336304	

2.962e+10	-0.4143811	-0.3245661	0.007773021	-0.01228905	-0.1633681	0.04730826	-0.009541369	0.002483562	
0.007773021	-0.01228905	-0.4120495	-0.3459957	-0.007150385	-0.002138419	-0.1576329	0.03129794	
-0.1633681	0.04730826	-0.007150385	-0.002138419	-0.4050171	-0.4263516	0.0197013	-0.004308907	
-0.009541369	0.002483562	-0.1576329	0.03129794	0.0197013	-0.004308907	-0.3886027	-0.4376937	

2.964e+10	-0.4098268	-0.3256407	-0.0006969948	-0.01448424	-0.1570156	0.04776486	-0.006210243	0.007393215	
-0.0006969948	-0.01448424	-0.4202043	-0.344546	-0.007291698	0.002320068	-0.1615573	0.03134504	
-0.1570156	0.04776486	-0.007291698	0.002320068	-0.4025049	-0.4198749	0.01370636	-0.01477564	
-0.006210243	0.007393215	-0.1615573	0.03134504	0.01370636	-0.01477564	-0.395558	-0.4385414	

2.966e+10	-0.407512	-0.3299967	-0.008843177	-0.01141289	-0.1520524	0.04446322	-0.000847312	0.009419668	
-0.008843177	-0.01141289	-0.4268188	-0.339507	-0.004752282	0.006238262	-0.1652134	0.0336731	
-0.1520524	0.04446322	-0.004752282	0.006238262	-0.3971324	-0.4164475	0.002782444	-0.02001351	
-0.000847312	0.009419668	-0.1652134	0.0336731	0.002782444	-0.02001351	-0.4020523	-0.4358525	

2.968e+10	-0.4091971	-0.3354012	-0.01371543	-0.004287642	-0.1505613	0.03907801	0.00457054	0.008116038	
-0.01371543	-0.004287642	-0.4304361	-0.3321991	-0.0002266078	0.00797308	-0.1674471	0.03779725	
-0.1505613	0.03907801	-0.0002266078	0.00797308	-0.3912973	-0.4177109	-0.009280248	-0.01802644	
0.00457054	0.008116038	-0.1674471	0.03779725	-0.009280248	-0.01802644	-0.406497	-0.4306106	

2.97e+10	-0.4146359	-0.3388924	-0.01367841	0.004278691	-0.1529847	0.03419613	0.008297246	0.004080413	
-0.01367841	0.004278691	-0.4302322	-0.324321	0.004515849	0.006621974	-0.1674891	0.04275472	
-0.1529847	0.03419613	0.004515849	0.006621974	-0.3881444	-0.4228439	-0.01802812	-0.009348884	
0.008297246	0.004080413	-0.1674891	0.04275472	-0.01802812	-0.009348884	-0.4079115	-0.4246238	

2.972e+10	-0.4215237	-0.3390349	-0.008808717	0.01131937	-0.1580001	0.03185841	0.009143601	-0.001353259	
-0.008808717	0.01131937	-0.4260982	-0.3180668	0.007480329	0.002722617	-0.1650583	0.04711153	
-0.1580001	0.03185841	0.007480329	0.002722617	-0.3892621	-0.4292963	-0.02007868	0.00283617	
0.009143601	-0.001353259	-0.1650583	0.04711153	-0.02007868	0.00283617	-0.4062912	-0.4194064	

2.974e+10	-0.4277752	-0.3357805	-0.0007545029	0.0143632	-0.1637512	0.03278017	0.006742713	-0.006373592	
-0.0007545029	0.0143632	-0.4194818	-0.3158727	0.007580148	-0.002055503	-0.1608553	0.04933193	
-0.1637512	0.03278017	0.007580148	-0.002055503	-0.3942741	-0.4342142	-0.01463878	0.01389168	
0.006742713	-0.006373592	-0.1608553	0.04933193	-0.01463878	0.01389168	-0.4023424	-0.4164923	

2.976e+10	-0.4318138	-0.330505	0.007644753	0.01222324	-0.1685077	0.03670981	0.001808698	-0.009137103	
0.007644753	0.01222324	-0.413543	-0.3188161	0.00500967	-0.005916195	-0.1566424	0.04863875	
-0.1685077	0.03670981	0.00500967	-0.005916195	-0.4013011	-0.4362589	-0.003860376	0.01964021	
0.001808698	-0.009137103	-0.1566424	0.04863875	-0.003860376	0.01964021	-0.3977252	-0.4173608	

2.978e+10	-0.4333232	-0.3242852	0.01329645	0.005613905	-0.1709341	0.04271373	-0.003878112	-0.008462726	
0.01329645	0.005613905	-0.4116508	-0.3253356	0.0008195707	-0.007653745	-0.1543843	0.0456428	
-0.1709341	0.04271373	0.0008195707	-0.007653745	-0.4087431	-0.4352672	0.008079061	0.01806689	
-0.003878112	-0.008462726	-0.1543843	0.0456428	0.008079061	0.01806689	-0.3952436	-0.4220711	

2.98e+10	-0.4320831	-0.3185591	0.01411431	-0.003049559	-0.1701995	0.0493509	-0.008042896	-0.004524544	
0.01411431	-0.003049559	-0.4150183	-0.3318982	-0.003602994	-0.006807745	-0.1550073	0.04231797	
-0.1701995	0.0493509	-0.003602994	-0.006807745	-0.4154082	-0.4313715	0.01675766	0.01006504	
-0.008042896	-0.004524544	-0.1550073	0.04231797	0.01675766	0.01006504	-0.397086	-0.4283638	

2.982e+10	-0.4284461	-0.3146098	0.009797924	-0.01062088	-0.1663019	0.0547738	-0.009002704	0.001038464	
0.009797924	-0.01062088	-0.4221733	-0.3352107	-0.006851208	-0.00365206	-0.157902	0.04036615	
-0.1663019	0.0547738	-0.006851208	-0.00365206	-0.4199076	-0.4250693	0.01931654	-0.001219491	
-0.009002704	0.001038464	-0.157902	0.04036615	0.01931654	-0.001219491	-0.4033192	-0.4328097	

2.984e+10	-0.4236532	-0.3138303	0.001885114	-0.01432853	-0.1603642	0.05722931	-0.006551735	0.005926181	
0.001885114	-0.01432853	-0.4302985	-0.3342552	-0.007829884	0.000854746	-0.1616635	0.04066706	
-0.1603642	0.05722931	-0.007829884	0.000854746	-0.4209445	-0.4175784	0.0151819	-0.01188233	
-0.006551735	0.005926181	-0.1616635	0.04066706	0.0151819	-0.01188233	-0.4116426	-0.4331747	

2.986e+10	-0.4199091	-0.316884	-0.00671333	-0.01276535	-0.1545081	0.05593117	-0.001920641	0.008372529	
-0.00671333	-0.01276535	-0.4369829	-0.3297688	-0.006060932	0.005255701	-0.1650299	0.04307937	
-0.1545081	0.05593117	-0.006060932	0.005255701	-0.4180567	-0.4111101	0.005788851	-0.01844179	
-0.001920641	0.008372529	-0.1650299	0.04307937	0.005788851	-0.01844179	-0.419232	-0.4291532	

2.988e+10	-0.4197553	-0.3220896	-0.01278587	-0.006545679	-0.1510691	0.05160472	0.003064911	0.007807893	
-0.01278587	-0.006545679	-0.4410442	-0.3227955	-0.001957096	0.007926052	-0.1670245	0.04710578	
-0.1510691	0.05160472	-0.001957096	0.007926052	-0.4124199	-0.408266	-0.005822874	-0.01856946	
0.003064911	0.007807893	-0.1670245	0.04710578	-0.005822874	-0.01856946	-0.4237543	-0.4224252	

2.99e+10	-0.4237119	-0.3266557	-0.01417126	0.001958862	-0.151333	0.0464116	0.006812256	0.004690341	
-0.01417126	0.001958862	-0.4414663	-0.3151274	0.00305642	0.007670701	-0.1669571	0.0518735	
-0.151333	0.0464116	0.00305642	0.007670701	-0.4069452	-0.4100824	-0.01556753	-0.01189367	
0.006812256	0.004690341	-0.1669571	0.0518735	-0.01556753	-0.01189367	-0.4244294	-0.4150519	

2.992e+10	-0.4302431	-0.3281135	-0.01048325	0.009700801	-0.1549227	0.04270191	0.008246037	6.586662e-05	
-0.01048325	0.009700801	-0.4381692	-0.3085221	0.00697531	0.004462441	-0.1645835	0.05612497	
-0.1549227	0.04270191	0.00697531	0.004462441	-0.4044742	-0.4152044	-0.01963742	-0.0006445782	
0.008246037	6.586662e-05	-0.1645835	0.05612497	-0.01963742	-0.0006445782	-0.4215419	-0.4090736	

2.994e+10	-0.4367883	-0.3260466	-0.003032868	0.01396854	-0.1602475	0.0419206	0.006866998	-0.004638827	
-0.003032868	0.01396854	-0.4320562	-0.3054602	0.008238514	-0.0004057556	-0.1604235	0.0584211	
-0.1602475	0.0419206	0.008238514	-0.0004057556	-0.4060257	-0.4210398	-0.01629098	0.01088529	
0.006866998	-0.004638827	-0.1604235	0.0584211	-0.01629098	0.01088529	-0.416176	-0.406271	

2.996e+10	-0.4416042	-0.3213155	0.005558944	0.01318939	-0.1654882	0.04428053	0.002975884	-0.007800422	
0.005558944	0.01318939	-0.4259009	-0.3072824	0.006469896	-0.005034319	-0.156139	0.05778857	
-0.1654882	0.04428053	0.006469896	-0.005034319	-0.4108487	-0.4254463	-0.006857787	0.01816778	
0.002975884	-0.007800422	-0.156139	0.05778857	-0.006857787	0.01816778	-0.410472	-0.407901	

2.998e+10	-0.4438371	-0.3154186	0.01214555	0.007578483	-0.1690264	0.0492667	-0.002136469	-0.00810339	
0.01214555	0.007578483	-0.4230458	-0.3130374	0.00243288	-0.007788569	-0.1537245	0.05482955	
-0.1690264	0.0492667	0.00243288	-0.007788569	-0.4177507	-0.4271892	0.004845196	0.01852278	
-0.002136469	-0.00810339	-0.1537245	0.05482955	0.004845196	0.01852278	-0.4075328	-0.4135517	

3e+10	-0.4434759	-0.3094882	0.01428624	-0.0008067789	-0.1697522	0.05554918	-0.00645988	-0.005272305	
0.01428624	-0.0008067789	-0.4253045	-0.3194438	-0.00241427	-0.007780014	-0.1542409	0.05136891	
-0.1697522	0.05554918	-0.00241427	-0.007780014	-0.4251687	-0.4260601	0.01433678	0.0122076	
-0.00645988	-0.005272305	-0.1542409	0.05136891	0.01433678	0.0122076	-0.4094558	-0.4209056	

3.002e+10	-0.4405909	-0.3049658	0.01119812	-0.008891763	-0.1673105	0.06142571	-0.008191168	-0.0004550892	
0.01119812	-0.008891763	-0.4315123	-0.3234002	-0.006407326	-0.005058386	-0.1570813	0.04934674	
-0.1673105	0.06142571	-0.006407326	-0.005058386	-0.431757	-0.4217756	0.01846354	0.001919062	
-0.008191168	-0.0004550892	-0.1570813	0.04934674	0.01846354	0.001919062	-0.4162507	-0.4262501	

3.004e+10	-0.4361005	-0.3032106	0.003998672	-0.0137108	-0.1623705	0.06514087	-0.006738211	0.004296021	
0.003998672	-0.0137108	-0.4392149	-0.3233441	-0.00820414	-0.0005506715	-0.1608054	0.04956237	
-0.1623705	0.06514087	-0.00820414	-0.0005506715	-0.435727	-0.4149372	0.01622999	-0.008719592	
-0.006738211	0.004296021	-0.1608054	0.04956237	0.01622999	-0.008719592	-0.4255488	-0.4270368	

3.006e+10	-0.4320201	-0.3050955	-0.004652924	-0.01345203	-0.1566171	0.06554646	-0.002949447	0.007155894	
-0.004652924	-0.01345203	-0.4460066	-0.3197805	-0.007154391	0.004261489	-0.1641271	0.05187508	
-0.1566171	0.06554646	-0.007154391	0.004261489	-0.4358335	-0.4072755	0.008539859	-0.01635123	
-0.002949447	0.007155894	-0.1641271	0.05187508	0.008539859	-0.01635123	-0.4341721	-0.4229517	

3.008e+10	-0.4308375	-0.3097022	-0.01149818	-0.008247077	-0.1522761	0.06270152	0.001551817	0.00734547	
-0.01149818	-0.008247077	-0.4506386	-0.313552	-0.003472145	0.007711469	-0.1661833	0.05573319	
-0.1522761	0.06270152	-0.003472145	0.007711469	-0.4319722	-0.4016944	-0.002231727	-0.01846361	
0.001551817	0.00734547	-0.1661833	0.05573319	-0.002231727	-0.01846361	-0.4395776	-0.4155425	

3.01e+10	-0.4337829	-0.3143527	-0.0140543	-0.0001398221	-0.1509357	0.05815046	0.005260519	0.005135318	
-0.0140543	-0.0001398221	-0.4520555	-0.3062947	0.001660003	0.008411362	-0.1663513	0.06034972	
-0.1509357	0.05815046	0.001660003	0.008411362	-0.4263676	-0.4001059	-0.01253303	-0.01400759	
0.005260519	0.005135318	-0.1663513	0.06034972	-0.01253303	-0.01400759	-0.4406205	-0.4071628	

3.012e+10	-0.4397173	-0.3164347	-0.01154747	0.007897843	-0.1529531	0.05407341	0.007169104	0.001352673	
-0.01154747	0.007897843	-0.4499933	-0.2994279	0.00629855	0.005914939	-0.1643603	0.06471009	
-0.1529531	0.05407341	0.00629855	0.005914939	-0.4218888	-0.4027432	-0.01847493	-0.004207575	
0.007169104	0.001352673	-0.1643603	0.06471009	-0.01847493	-0.004207575	-0.4376577	-0.4000568	

3.014e+10	-0.4461983	-0.3149916	-0.004934188	0.01307175	-0.1572747	0.05219642	0.006728819	-0.002896356	
-0.004934188	0.01307175	-0.444843	-0.2952173	0.008576383	0.001142902	-0.1604662	0.06748672	
-0.1572747	0.05219642	0.008576383	0.001142902	-0.4206999	-0.4076866	-0.01750562	0.007355091	
0.006728819	-0.002896356	-0.1604662	0.06748672	-0.01750562	0.007355091	-0.4317107	-0.3964225	

3.016e+10	-0.4512149	-0.3105754	0.003478301	0.01353728	-0.1622356	0.05324625	0.00393068	-0.006267742	
0.003478301	0.01353728	-0.4387626	-0.295281	0.007632875	-0.00402521	-0.1559881	0.06753442	
-0.1622356	0.05324625	0.007632875	-0.00402521	-0.4229816	-0.4127704	-0.009889145	0.01609345	
0.00393068	-0.006267742	-0.1559881	0.06753442	-0.009889145	0.01609345	-0.4251954	-0.3973344	

3.018e+10	-0.4536432	-0.3048356	0.01064992	0.009048742	-0.166168	0.05705408	-0.000422086	-0.007446948	
0.01064992	0.009048742	-0.4347976	-0.2996109	0.003907464	-0.007658583	-0.1529192	0.06497336	
-0.166168	0.05705408	0.003907464	-0.007658583	-0.4280243	-0.4162355	0.00126398	0.01862215	
-0.000422086	-0.007446948	-0.1529192	0.06497336	0.00126398	0.01862215	-0.4209629	-0.4028435	

3.02e+10	-0.4534643	-0.2990046	0.01389694	0.001227019	-0.167783	0.06259802	-0.004702887	-0.005784838	
0.01389694	0.001227019	-0.4352642	-0.3056819	-0.001183875	-0.008490359	-0.1526262	0.06141723	
-0.167783	0.06259802	-0.001183875	-0.008490359	-0.4347222	-0.417175	0.01154454	0.01429046	
-0.004702887	-0.005784838	-0.1526262	0.06141723	0.01154454	0.01429046	-0.4216798	-0.4106389	

3.022e+10	-0.4508201	-0.2945591	0.01201019	-0.007015379	-0.1664491	0.06833365	-0.007112688	-0.001887224	
0.01201019	-0.007015379	-0.4399263	-0.3103339	-0.005813589	-0.006289105	-0.1549287	0.05885188	
-0.1664491	0.06833365	-0.005813589	-0.006289105	-0.4417628	-0.414988	0.01735167	0.005140129	
-0.007112688	-0.001887224	-0.1549287	0.05885188	0.01735167	0.005140129	-0.4277876	-0.4170233	

3.024e+10	-0.4466706	-0.2926272	0.005707681	-0.01261703	-0.1625422	0.07250448	-0.006701775	0.002557819	
0.005707681	-0.01261703	-0.4468701	-0.3115091	-0.00838082	-0.001867193	-0.1585099	0.05838311	
-0.1625422	0.07250448	-0.00838082	-0.001867193	-0.4472346	-0.4099586	0.0170836	-0.005443859	
-0.006701775	0.002557819	-0.1585099	0.05838311	0.0170836	-0.005443859	-0.4371124	-0.4191757	

3.026e+10	-0.4427476	-0.2941608	-0.002628908	-0.0134994	-0.1574126	0.07383798	-0.003876999	0.005750052	
-0.002628908	-0.0134994	-0.4536563	-0.3093473	-0.008009629	0.003267038	-0.1619961	0.06008493	
-0.1574126	0.07383798	-0.008009629	0.003267038	-0.449686	-0.4030553	0.0111007	-0.01407409	
-0.003876999	0.005750052	-0.1619961	0.06008493	0.0111007	-0.01407409	-0.4464763	-0.4162002	

3.028e+10	-0.4414925	-0.2983513	-0.009844052	-0.009417047	-0.1530157	0.0721669	3.308317e-05	0.006697918	
-0.009844052	-0.009417047	-0.4589274	-0.304449	-0.004742369	0.007347446	-0.1644815	0.06343513	
-0.1530157	0.0721669	-0.004742369	0.007347446	-0.4483474	-0.3966642	0.001261618	-0.0180239	
3.308317e-05	0.006697918	-0.1644815	0.06343513	0.001261618	-0.0180239	-0.4531145	-0.4092767	

3.03e+10	-0.4441187	-0.3029572	-0.01333047	-0.00204223	-0.1510067	0.06853146	0.003629228	0.005420049	
-0.01333047	-0.00204223	-0.4617018	-0.2978888	0.0003817591	0.008832153	-0.1653535	0.0678164	
-0.1510067	0.06853146	0.0003817591	0.008832153	-0.4443341	-0.3929754	-0.009335401	-0.01573512	
0.003629228	0.005420049	-0.1653535	0.0678164	-0.009335401	-0.01573512	-0.4554823	-0.4007147	

3.032e+10	-0.4499657	-0.3049934	-0.01202562	0.005888687	-0.1519842	0.06479541	0.005930756	0.002516846	
-0.01202562	0.005888687	-0.4613277	-0.2909635	0.005484104	0.007011258	-0.1642331	0.07236695	
-0.1519842	0.06479541	0.005484104	0.007011258	-0.4399681	-0.3931006	-0.01689644	-0.007582929	
0.005930756	0.002516846	-0.1642331	0.07236695	-0.01689644	-0.007582929	-0.4535725	-0.3928969	

3.034e+10	-0.4564962	-0.3034102	-0.006502002	0.0116722	-0.1553159	0.06268865	0.006345932	-0.001166757	
-0.006502002	0.0116722	-0.4577628	-0.2854868	0.008549769	0.002513577	-0.1610654	0.07596336	
-0.1553159	0.06268865	0.008549769	0.002513577	-0.4375687	-0.3960678	-0.01830126	0.003666918	
0.006345932	-0.001166757	-0.1610654	0.07596336	-0.01830126	0.003666918	-0.4484917	-0.3878111	

3.036e+10	-0.4614869	-0.2986635	0.001367438	0.01331195	-0.1595996	0.06312551	0.004657472	-0.00456157	
0.001367438	0.01331195	-0.4522405	-0.28336	0.008401738	-0.002895247	-0.1566253	0.07734101	
-0.1595996	0.06312551	0.008401738	-0.002895247	-0.4379893	-0.4000794	-0.01274996	0.01366309	
0.004657472	-0.00456157	-0.1566253	0.07734101	-0.01274996	0.01366309	-0.4418485	-0.3870816	

3.038e+10	-0.4635685	-0.2926031	0.00882101	0.01009641	-0.1632959	0.06610846	0.001245445	-0.006476028	
0.00882101	0.01009641	-0.4472047	-0.2855596	0.005184846	-0.007177342	-0.1525857	0.07594345	
-0.1632959	0.06610846	0.005184846	-0.007177342	-0.4410785	-0.4033251	-0.002402802	0.01843003	
0.001245445	-0.006476028	-0.1525857	0.07594345	-0.002402802	0.01843003	-0.4364632	-0.3909291	

3.04e+10	-0.4627732	-0.2867079	0.01303255	0.003094938	-0.1650884	0.07092758	-0.002742374	-0.006037126	
0.01303255	0.003094938	-0.4454984	-0.2905275	0.0001396161	-0.008838397	-0.1507662	0.07265614	
-0.1650884	0.07092758	0.0001396161	-0.008838397	-0.4459	-0.405027	0.008602691	0.0162504	
-0.002742374	-0.006037126	-0.1507662	0.07265614	0.008602691	0.0162504	-0.4351599	-0.397913	

3.042e+10	-0.459556	-0.2826102	0.01233622	-0.005045122	-0.1641973	0.07618304	-0.00570921	-0.003293557	
0.01233622	-0.005045122	-0.4479081	-0.2956776	-0.004942288	-0.00734382	-0.1517545	0.06935052	
-0.1641973	0.07618304	-0.004942288	-0.00734382	-0.4515214	-0.4045584	0.01615633	0.008296455	
-0.00570921	-0.003293557	-0.1517545	0.06935052	0.01615633	0.008296455	-0.4390866	-0.4050356	

3.044e+10	-0.4551879	-0.2813493	0.007028154	-0.01117695	-0.1608426	0.08015814	-0.006442751	0.0006135576	
0.007028154	-0.01117695	-0.4534411	-0.2984219	-0.0082946	-0.003220595	-0.1547527	0.06764196	
-0.1608426	0.08015814	-0.0082946	-0.003220595	-0.4566936	-0.401639	0.01784609	-0.002302411	
-0.006442751	0.0006135576	-0.1547527	0.06764196	0.01784609	-0.002302411	-0.4471595	-0.4088856	

3.046e+10	-0.4515201	-0.2835675	-0.0007512408	-0.01299731	-0.1562627	0.08158802	-0.004811265	0.004073036	
-0.0007512408	-0.01299731	-0.4599004	-0.2982065	-0.008718588	0.002135038	-0.158385	0.06811308	
-0.1562627	0.08158802	-0.008718588	0.002135038	-0.4600899	-0.3967187	0.01340313	-0.01193378	
-0.004811265	0.004073036	-0.158385	0.06811308	0.01340313	-0.01193378	-0.4564632	-0.4078385	

3.048e+10	-0.4509387	-0.2880548	-0.007960957	-0.01001547	-0.152372	0.08020076	-0.001664636	0.005910249	
-0.007960957	-0.01001547	-0.4658969	-0.2949832	-0.005951833	0.006846801	-0.1615734	0.07048894	
-0.152372	0.08020076	-0.005951833	0.006846801	-0.4606843	-0.3915188	0.004336875	-0.01749961	
-0.001664636	0.005910249	-0.1615734	0.07048894	0.004336875	-0.01749961	-0.4639319	-0.4025796	

3.05e+10	-0.4543197	-0.2924525	-0.01204401	-0.003622542	-0.1506416	0.07715356	0.001829855	0.005747542	
-0.01204401	-0.003622542	-0.4701124	-0.2895545	-0.0008731479	0.009114674	-0.1635395	0.07435695	
-0.1506416	0.07715356	-0.0008731479	0.009114674	-0.4589869	-0.3877367	-0.006454747	-0.01701908	
0.001829855	0.005747542	-0.1635395	0.07435695	-0.006454747	-0.01701908	-0.4679175	-0.3948614	

3.052e+10	-0.4606999	-0.2939506	-0.01184129	0.00377676	-0.1515451	0.0741428	0.004653818	0.003789614	
-0.01184129	0.00377676	-0.4717127	-0.2827617	0.004634179	0.007945403	-0.1637374	0.079048	
-0.1515451	0.0741428	0.004634179	0.007945403	-0.4565122	-0.3864661	-0.01521858	-0.01033477	
0.004653818	0.003789614	-0.1637374	0.079048	-0.01521858	-0.01033477	-0.4678574	-0.3871829	

3.054e+10	-0.4674104	-0.2916169	-0.007609489	0.009767784	-0.1544214	0.07263229	0.006008316	0.0006050056	
-0.007609489	0.009767784	-0.4700446	-0.2763252	0.008387874	0.003742945	-0.1617379	0.08358644	
-0.1544214	0.07263229	0.008387874	0.003742945	-0.4550268	-0.3872581	-0.01854707	0.0003820287	
0.006008316	0.0006050056	-0.1617379	0.08358644	-0.01854707	0.0003820287	-0.4646203	-0.3812362	

3.056e+10	-0.4721454	-0.286054	-0.0007036916	0.01240005	-0.1579671	0.07335938	0.005396991	-0.002882451	
-0.0007036916	0.01240005	-0.4656292	-0.2720917	0.008955008	-0.001805972	-0.1577216	0.08663652	
-0.1579671	0.07335938	0.008955008	-0.001805972	-0.4552252	-0.3889365	-0.01493205	0.01114217	
0.005396991	-0.002882451	-0.1577216	0.08663652	-0.01493205	0.01114217	-0.4594305	-0.3783214	

3.058e+10	-0.4735517	-0.2792774	0.006591582	0.01059724	-0.1608783	0.07621867	0.002868763	-0.005510138	
0.006591582	0.01059724	-0.4601703	-0.2717105	0.006251929	-0.006592535	-0.1529486	0.08695753	
-0.1608783	0.07621867	0.006251929	-0.006592535	-0.4567993	-0.3904193	-0.00564871	0.0177425	
0.002868763	-0.005510138	-0.1529486	0.08695753	-0.00564871	0.0177425	-0.4538933	-0.3795137	

3.06e+10	-0.4717327	-0.2732339	0.01153836	0.004794924	-0.1620599	0.08051776	-0.0008076717	-0.006238333	
0.01153836	0.004794924	-0.4564934	-0.2748314	0.001357882	-0.008970105	-0.1493262	0.08458793	
-0.1620599	0.08051776	0.001357882	-0.008970105	-0.459383	-0.3911039	0.005680863	0.01762615	
-0.0008076717	-0.006238333	-0.1493262	0.08458793	0.005680863	0.01762615	-0.4507011	-0.3842554	

3.062e+10	-0.4675611	-0.2696202	0.01209185	-0.002836118	-0.1609284	0.0850275	-0.004279615	-0.004657308	
0.01209185	-0.002836118	-0.4563036	-0.2798423	-0.004028089	-0.008171752	-0.1483669	0.08085867	
-0.1609284	0.0850275	-0.004028089	-0.008171752	-0.4624866	-0.3909699	0.01469135	0.01100654	
-0.004279615	-0.004657308	-0.1483669	0.08085867	0.01469135	0.01100654	-0.4517442	-0.3907614	

3.064e+10	-0.4626944	-0.2694027	0.008043897	-0.009229668	-0.1576842	0.08827122	-0.006161247	-0.001337738	
0.008043897	-0.009229668	-0.4597458	-0.2840556	-0.008060433	-0.004420275	-0.1501123	0.07774438	
-0.1576842	0.08827122	-0.008060433	-0.004420275	-0.4657787	-0.3897278	0.01818252	0.0005871968	
-0.006161247	-0.001337738	-0.1501123	0.07774438	0.01818252	0.0005871968	-0.4573096	-0.3957151	

3.066e+10	-0.4593812	-0.2724354	0.001177979	-0.01192395	-0.1536353	0.08909512	-0.005768636	0.00240007	
0.001177979	-0.01192395	-0.4654786	-0.2856929	-0.00923458	0.001066844	-0.1535527	0.07649164	
-0.1536353	0.08909512	-0.00923458	0.001066844	-0.4685012	-0.3874402	0.01518147	-0.009824343	
-0.005768636	0.00240007	-0.1535527	0.07649164	0.01518147	-0.009824343	-0.4652189	-0.3969134	

3.068e+10	-0.459439	-0.2774795	-0.005711631	-0.01019051	-0.1504942	0.08755454	-0.003374272	0.005191954	
-0.005711631	-0.01019051	-0.4717398	-0.2843471	-0.006951611	0.006314398	-0.157406	0.07745337	
-0.1504942	0.08755454	-0.006951611	0.006314398	-0.4701132	-0.3846462	0.00688175	-0.01669638	
-0.003374272	0.005191954	-0.157406	0.07745337	0.00688175	-0.01669638	-0.4727786	-0.3939043	

3.07e+10	-0.4636016	-0.2817634	-0.01022098	-0.005075961	-0.1495602	0.08482397	0.0001147447	0.006166633	
-0.01022098	-0.005075961	-0.4771166	-0.2802586	-0.001931956	0.009247752	-0.1606438	0.0804444	
-0.1495602	0.08482397	-0.001931956	0.009247752	-0.4704502	-0.3824609	-0.003887354	-0.0176807	
0.0001147447	0.006166633	-0.1606438	0.0804444	-0.003887354	-0.0176807	-0.4777807	-0.3882819	

3.072e+10	-0.4703853	-0.2829713	-0.01114611	0.001457519	-0.1508923	0.08257691	0.003556758	0.005057565	
-0.01114611	0.001457519	-0.4803139	-0.2742996	0.003878145	0.008609563	-0.1623581	0.08505925	
-0.1508923	0.08257691	0.003878145	0.008609563	-0.470542	-0.3811734	-0.01337721	-0.0123096	
0.003556758	0.005057565	-0.1623581	0.08505925	-0.01337721	-0.0123096	-0.4797661	-0.3817599	

3.074e+10	-0.4774157	-0.2799861	-0.008421143	0.007382544	-0.1535981	0.08194485	0.005824919	0.002198498	
-0.008421143	0.007382544	-0.4806329	-0.2676267	0.008133132	0.004660905	-0.161742	0.09035753	
-0.1535981	0.08194485	0.008133132	0.004660905	-0.4711749	-0.3805977	-0.01809668	-0.002376047	
0.005824919	0.002198498	-0.161742	0.09035753	-0.01809668	-0.002376047	-0.4790178	-0.375868	

3.076e+10	-0.4821045	-0.2739848	-0.002849579	0.0109007	-0.1565232	0.08325993	0.006105453	-0.001490268	
-0.002849579	0.0109007	-0.4778969	-0.2620747	0.009217296	-0.0009350236	-0.1585955	0.09487988	
-0.1565232	0.08325993	0.009217296	-0.0009350236	-0.472536	-0.3799287	-0.01619225	0.008537207	
0.006105453	-0.001490268	-0.1585955	0.09487988	-0.01619225	0.008537207	-0.476161	-0.3716164	

3.078e+10	-0.483332	-0.2665935	0.003900495	0.01069387	-0.1586015	0.08625699	0.004224878	-0.004741899	
0.003900495	0.01069387	-0.4731211	-0.2592409	0.006911843	-0.006001388	-0.1536348	0.09712388	
-0.1586015	0.08625699	0.006911843	-0.006001388	-0.4739737	-0.3787747	-0.008276457	0.01635622	
0.004224878	-0.004741899	-0.1536348	0.09712388	-0.008276457	0.01635622	-0.4720305	-0.3698532	

3.08e+10	-0.4810006	-0.2600761	0.009432296	0.006528065	-0.1590937	0.09023092	0.0007721203	-0.006372997	
0.009432296	0.006528065	-0.4683436	-0.2600347	0.00223163	-0.00880768	-0.1486379	0.0962686	
-0.1590937	0.09023092	0.00223163	-0.00880768	-0.4749199	-0.3773625	0.002736211	0.01810946	
0.0007721203	-0.006372997	-0.1486379	0.0962686	0.002736211	0.01810946	-0.4680703	-0.3713871	

3.082e+10	-0.4761357	-0.2563727	0.01146738	-0.0001929925	-0.1575729	0.09419341	-0.00305145	-0.005714859	
0.01146738	-0.0001929925	-0.4658989	-0.2637003	-0.003182004	-0.008515187	-0.1455227	0.09292259	
-0.1575729	0.09419341	-0.003182004	-0.008515187	-0.4754897	-0.3761933	0.01267933	0.01312203	
-0.00305145	-0.005714859	-0.1455227	0.09292259	0.01267933	0.01312203	-0.466499	-0.3756113	

3.084e+10	-0.4707691	-0.2562455	0.009104203	-0.006775935	-0.1543202	0.09680488	-0.005816936	-0.002935798	
0.009104203	-0.006775935	-0.4669557	-0.2681862	-0.007542154	-0.005201041	-0.1454365	0.08877483	
-0.1543202	0.09680488	-0.007542154	-0.005201041	-0.4760537	-0.37556	0.0178218	0.003355867	
-0.005816936	-0.002935798	-0.1454365	0.08877483	0.0178218	0.003355867	-0.4687338	-0.3803866	

3.086e+10	-0.4670067	-0.2598258	0.003431228	-0.01058474	-0.1505112	0.09718383	-0.006462428	0.0009439183	
0.003431228	-0.01058474	-0.4710171	-0.2713941	-0.009264463	0.0001245129	-0.1480637	0.08572596	
-0.1505112	0.09718383	-0.009264463	0.0001245129	-0.4768475	-0.3753767	0.01638983	-0.007467896	
-0.006462428	0.0009439183	-0.1480637	0.08572596	0.01638983	-0.007467896	-0.4740237	-0.3833092	

3.088e+10	-0.4670172	-0.2651949	-0.003141935	-0.01039348	-0.1477891	0.09538967	-0.004758106	0.004483812	
-0.003141935	-0.01039348	-0.4767484	-0.2719325	-0.007509796	0.005577266	-0.1522358	0.08494231	
-0.1477891	0.09538967	-0.007509796	0.005577266	-0.4780895	-0.3751396	0.009079364	-0.01543341	
-0.004758106	0.004483812	-0.1522358	0.08494231	0.009079364	-0.01543341	-0.4803946	-0.3829451	

3.09e+10	-0.4711842	-0.269959	-0.008242782	-0.006696339	-0.1472876	0.09271608	-0.001338877	0.006408841	
-0.008242782	-0.006696339	-0.4825077	-0.2696644	-0.002780536	0.008965839	-0.1565896	0.08676329	
-0.1472876	0.09271608	-0.002780536	0.008965839	-0.4796076	-0.3751151	-0.001404273	-0.01777161	
-0.001338877	0.006408841	-0.1565896	0.08676329	-0.001404273	-0.01777161	-0.4857595	-0.3799267	

3.092e+10	-0.4782174	-0.2715549	-0.01043591	-0.001003025	-0.1489385	0.09073414	0.002575063	0.006032482	
-0.01043591	-0.001003025	-0.4869014	-0.2651366	0.003046746	0.008830366	-0.1597354	0.09096372	
-0.1489385	0.09073414	0.003046746	0.008830366	-0.4817595	-0.3750395	-0.01129881	-0.01371143	
0.002575063	0.006032482	-0.1597354	0.09096372	-0.01129881	-0.01371143	-0.4893086	-0.3754597	

3.094e+10	-0.4856597	-0.2688733	-0.009255081	0.004923086	-0.1517123	0.09051046	0.005572057	0.003475861	
-0.009255081	0.004923086	-0.4891024	-0.2589664	0.007566257	0.005268091	-0.1605483	0.09658161	
-0.1517123	0.09051046	0.007566257	0.005268091	-0.4846898	-0.3744757	-0.01707222	-0.004747384	
0.005572057	0.003475861	-0.1605483	0.09658161	-0.01707222	-0.004747384	-0.4909813	-0.3706532	

3.096e+10	-0.4910185	-0.2627304	-0.005002043	0.00934443	-0.1544185	0.09216153	0.006562818	-0.000335731	
-0.005002043	0.00934443	-0.4883957	-0.252944	0.009047508	-0.000140588	-0.1584626	0.1021613	
-0.1544185	0.09216153	0.009047508	-0.000140588	-0.4879499	-0.3726612	-0.0166941	0.00587892	
0.006562818	-0.000335731	-0.1584626	0.1021613	-0.0166941	0.00587892	-0.4909593	-0.3659498	

3.098e+10	-0.4928092	-0.2549027	0.001177435	0.01071651	-0.1562322	0.09521487	0.005202719	-0.004024165	
0.001177435	0.01071651	-0.485166	-0.248272	0.007160895	-0.005226219	-0.1539141	0.1059405	
-0.1562322	0.09521487	0.007160895	-0.005226219	-0.4905071	-0.3693553	-0.01031308	0.01439984	
0.005202719	-0.004024165	-0.1539141	0.1059405	-0.01031308	0.01439984	-0.4891561	-0.3620886	

3.1e+10	-0.4906887	-0.2477572	0.007243586	0.008223755	-0.1564979	0.0991634	0.001988086	-0.006288941	
0.007243586	0.008223755	-0.480546	-0.2465432	0.002859616	-0.008233439	-0.1482989	0.1067599	
-0.1564979	0.0991634	0.002859616	-0.008233439	-0.4913503	-0.3654414	-0.0001533298	0.01774734	
0.001988086	-0.006288941	-0.1482989	0.1067599	-0.0001533298	0.01774734	-0.4859001	-0.3603352	

3.102e+10	-0.4856956	-0.2432183	0.01077963	0.002487881	-0.1549027	0.1030341	-0.001965863	-0.006331114	
0.01077963	0.002487881	-0.4766274	-0.2482223	-0.002274176	-0.008335848	-0.1436025	0.1044482	
-0.1549027	0.1030341	-0.002274176	-0.008335848	-0.4904117	-0.3622237	0.01014608	0.01459722	
-0.001965863	-0.006331114	-0.1436025	0.1044482	0.01014608	0.01459722	-0.482842	-0.3613434	

3.104e+10	-0.4797583	-0.2424485	0.01018277	-0.004291113	-0.1516092	0.1056854	-0.005269456	-0.00409183	
0.01018277	-0.004291113	-0.4753957	-0.2519216	-0.006602863	-0.005597654	-0.1416034	0.1001495	
-0.1516092	0.1056854	-0.006602863	-0.005597654	-0.4884812	-0.3607978	0.01671559	0.006009417	
-0.005269456	-0.00409183	-0.1416034	0.1001495	0.01671559	0.006009417	-0.4819163	-0.3646027	

3.106e+10	-0.4751751	-0.2455713	0.005698755	-0.009311556	-0.147616	0.106151	-0.0067046	-0.0003255638	
0.005698755	-0.009311556	-0.4773862	-0.2556505	-0.008701919	-0.0008256384	-0.1428955	0.09587704	
-0.147616	0.106151	-0.008701919	-0.0008256384	-0.4868961	-0.3610738	0.01703332	-0.004778869	
-0.0067046	-0.0003255638	-0.1428955	0.09587704	0.01703332	-0.004778869	-0.4840653	-0.3679585	

3.108e+10	-0.4740703	-0.2512192	-0.0006914423	-0.01068365	-0.1445945	0.1043232	-0.005696258	0.003614955	
-0.0006914423	-0.01068365	-0.4817253	-0.2577578	-0.007648793	0.004430284	-0.1467248	0.09347401	
-0.1445945	0.1043232	-0.007648793	0.004430284	-0.4864381	-0.3627119	0.01104864	-0.01366392	
-0.005696258	0.003614955	-0.1467248	0.09347401	0.01104864	-0.01366392	-0.4883187	-0.3697146	

3.11e+10	-0.477478	-0.2565582	-0.006487722	-0.008244425	-0.1438706	0.1013768	-0.002573813	0.006260038	
-0.006487722	-0.008244425	-0.487092	-0.2572492	-0.003603208	0.008127272	-0.1516112	0.09392965	
-0.1438706	0.1013768	-0.003603208	0.008127272	-0.4876378	-0.3649324	0.001128833	-0.01738539	
-0.002573813	0.006260038	-0.1516112	0.09392965	0.001128833	-0.01738539	-0.4930408	-0.3693788	

3.112e+10	-0.4841929	-0.2591869	-0.009849557	-0.003179422	-0.1454452	0.09910444	0.001518848	0.0066004	
-0.009849557	-0.003179422	-0.4920365	-0.2542853	0.001894468	0.008652531	-0.1558034	0.09731898	
-0.1454452	0.09910444	0.001894468	0.008652531	-0.4907122	-0.3668325	-0.008985432	-0.01473785	
0.001518848	0.0066004	-0.1558034	0.09731898	-0.008985432	-0.01473785	-0.4974015	-0.3672523	

3.114e+10	-0.4919918	-0.2575352	-0.009933939	0.002811021	-0.1483089	0.09861081	0.005037403	0.004501111	
-0.009933939	0.002811021	-0.4954929	-0.2494237	0.006545412	0.005788651	-0.1577688	0.1028089	
-0.1483089	0.09861081	0.006545412	0.005788651	-0.4953061	-0.3674445	-0.01566367	-0.006882393	
0.005037403	0.004501111	-0.1577688	0.1028089	-0.01566367	-0.006882393	-0.500896	-0.3640558	

3.116e+10	-0.4982083	-0.2520999	-0.006743982	0.00793537	-0.1512093	0.1000453	0.006676675	0.0007818719	
-0.006743982	0.00793537	-0.4966098	-0.2437167	0.008514742	0.0008483534	-0.1567867	0.1087668	
-0.1512093	0.1000453	0.008514742	0.0008483534	-0.5006178	-0.3655924	-0.01668611	0.003246474	
0.006676675	0.0007818719	-0.1567867	0.1087668	-0.01668611	0.003246474	-0.5033249	-0.359814	

3.118e+10	-0.5010957	-0.2444007	-0.001115358	0.01052708	-0.1532272	0.1030032	0.005893551	-0.003161551	
-0.001115358	0.01052708	-0.4951543	-0.2384081	0.007262049	-0.004124747	-0.1530122	0.1135127	
-0.1532272	0.1030032	0.007262049	-0.004124747	-0.5049417	-0.3613695	-0.01184936	0.01213401	
0.005893551	-0.003161551	-0.1530122	0.1135127	-0.01184936	0.01213401	-0.5039395	-0.3550952	

3.12e+10	-0.500083	-0.2366018	0.005207927	0.009443101	-0.1538528	0.1068906	0.00303563	-0.005936484	
0.005207927	0.009443101	-0.4917409	-0.2348645	0.00353855	-0.007356835	-0.1475828	0.1156365	
-0.1538528	0.1068906	0.00353855	-0.007356835	-0.5067928	-0.3557837	-0.002821405	0.0167612	
0.00303563	-0.005936484	-0.1475828	0.1156365	-0.002821405	0.0167612	-0.5023688	-0.350979	

3.122e+10	-0.495686	-0.2309316	0.009870144	0.00473004	-0.1527149	0.1109946	-0.0008765642	-0.006613563	
0.009870144	0.00473004	-0.4877275	-0.2343082	-0.001195667	-0.007944428	-0.1423051	0.1145799	
-0.1527149	0.1109946	-0.001195667	-0.007944428	-0.5058698	-0.3504115	0.007341236	0.01541961	
-0.0008765642	-0.006613563	-0.1423051	0.1145799	0.007341236	0.01541961	-0.4993158	-0.3489757	

3.124e+10	-0.4896545	-0.2287459	0.01083451	-0.001969159	-0.149676	0.1142705	-0.004502051	-0.004959849	
0.01083451	-0.001969159	-0.4851437	-0.2364108	-0.005412515	-0.005884004	-0.1389662	0.110975	
-0.149676	0.1142705	-0.005412515	-0.005884004	-0.5027658	-0.347094	0.0149639	0.008374699	
-0.004502051	-0.004959849	-0.1389662	0.110975	0.0149639	0.008374699	-0.4964723	-0.3499632	

3.126e+10	-0.4841773	-0.2306296	0.00757981	-0.007913548	-0.145486	0.1155176	-0.006571343	-0.00150866	
0.00757981	-0.007913548	-0.4852322	-0.2395006	-0.007842188	-0.001823492	-0.1387999	0.1064664	
-0.145486	0.1155176	-0.007842188	-0.001823492	-0.4991722	-0.3464172	0.01705395	-0.001877652	
-0.006571343	-0.00150866	-0.1387999	0.1064664	0.01705395	-0.001877652	-0.4958496	-0.3526425	

3.128e+10	-0.481583	-0.2356125	0.00152663	-0.01069055	-0.1416368	0.1142457	-0.006291037	0.002554525	
0.00152663	-0.01069055	-0.4877752	-0.2420276	-0.007572339	0.003037922	-0.1416238	0.1031225	
-0.1416368	0.1142457	-0.007572339	0.003037922	-0.4965856	-0.3483592	0.01272329	-0.01139793	
-0.006291037	0.002554525	-0.1416238	0.1031225	0.01272329	-0.01139793	-0.4977321	-0.355291	

3.13e+10	-0.4832535	-0.2415735	-0.004795033	-0.009443354	-0.1398558	0.1112065	-0.003688645	0.005750069	
-0.004795033	-0.009443354	-0.491859	-0.2427715	-0.004428292	0.006961747	-0.1462104	0.1023777	
-0.1398558	0.1112065	-0.004428292	0.006961747	-0.4962148	-0.3519902	0.00371321	-0.01651983	
-0.003688645	0.005750069	-0.1462104	0.1023777	0.00371321	-0.01651983	-0.5012014	-0.3567122	

3.132e+10	-0.4889778	-0.2453958	-0.009133708	-0.004994345	-0.140707	0.1082026	0.0003198569	0.006846032	
-0.009133708	-0.004994345	-0.4963486	-0.2413352	0.0005322442	0.00825065	-0.1507074	0.1047053	
-0.140707	0.1082026	0.0005322442	0.00825065	-0.4987434	-0.3557502	-0.006429261	-0.01544531	
0.0003198569	0.006846032	-0.1507074	0.1047053	-0.006429261	-0.01544531	-0.5053174	-0.3565943	

3.134e+10	-0.4966425	-0.2453482	-0.0102719	0.000952895	-0.1433894	0.1067624	0.004221019	0.005394697	
-0.0102719	0.000952895	-0.5000848	-0.2382069	0.005254917	0.006282136	-0.1534445	0.1094509	
-0.1433894	0.1067624	0.005254917	0.006282136	-0.5039256	-0.3579889	-0.01394099	-0.008854046	
0.004221019	0.005394697	-0.1534445	0.1094509	-0.01394099	-0.008854046	-0.5095951	-0.3549698	

3.136e+10	-0.5035652	-0.241268	-0.008005587	0.006531524	-0.1465846	0.1074016	0.006536228	0.001961833	
-0.008005587	0.006531524	-0.5023666	-0.2336172	0.007791051	0.001961603	-0.1533795	0.1151606	
-0.1465846	0.1074016	0.007791051	0.001961603	-0.5103922	-0.3575132	-0.01632229	0.0006441579	
0.006536228	0.001961833	-0.1533795	0.1151606	-0.01632229	0.0006441579	-0.5133215	-0.3520052	

3.138e+10	-0.5078155	-0.2341062	-0.002986651	0.01000576	-0.1492186	0.1098125	0.0064458	-0.002138236	
-0.002986651	0.01000576	-0.5026677	-0.2286552	0.007298154	-0.002850568	-0.150555	0.1201004	
-0.1492186	0.1098125	0.007298154	-0.002850568	-0.5164303	-0.3536072	-0.01301005	0.009711529	
0.0064458	-0.002138236	-0.150555	0.1201004	-0.01301005	0.009711529	-0.5158543	-0.3474244	

3.14e+10	-0.5082053	-0.2262676	0.003282497	0.01008631	-0.1506664	0.1134941	0.004049286	-0.005421269	
0.003282497	0.01008631	-0.500941	-0.2246066	0.004243325	-0.00634435	-0.1459103	0.1229114	
-0.1506664	0.1134941	0.004243325	-0.00634435	-0.5199928	-0.3474481	-0.005224901	0.01537443	
0.004049286	-0.005421269	-0.1459103	0.1229114	-0.005224901	0.01537443	-0.516031	-0.3425906	

3.142e+10	-0.5050508	-0.2197072	0.008626967	0.006454031	-0.1504166	0.1178569	0.0002313406	-0.006753139	
0.008626967	0.006454031	-0.4980859	-0.2224917	-7.008121e-05	-0.007463271	-0.1409691	0.1229752	
-0.1504166	0.1178569	-7.008121e-05	-0.007463271	-0.5202054	-0.340802	0.004481972	0.01569457	
0.0002313406	-0.006753139	-0.1409691	0.1229752	0.004481972	0.01569457	-0.5140158	-0.338931	

3.144e+10	-0.4996175	-0.2161003	0.0108888	0.0002187147	-0.1481368	0.1219409	-0.00366644	-0.005682665	
0.0108888	0.0002187147	-0.4954843	-0.2225755	-0.004164714	-0.006073312	-0.1372424	0.1206129	
-0.1481368	0.1219409	-0.004164714	-0.006073312	-0.517543	-0.3354546	0.01277137	0.01034574	
-0.00366644	-0.005682665	-0.1372424	0.1206129	0.01277137	0.01034574	-0.5111589	-0.3375594	

3.146e+10	-0.4938878	-0.216185	0.00896975	-0.006221145	-0.1440157	0.1245305	-0.006272247	-0.002578832	
0.00896975	-0.006221145	-0.4943909	-0.2239536	-0.006836733	-0.002722049	-0.1359259	0.1169147	
-0.1440157	0.1245305	-0.006836733	-0.002722049	-0.5131316	-0.3331043	0.0164859	0.001045264	
-0.006272247	-0.002578832	-0.1359259	0.1169147	0.0164859	0.001045264	-0.5090866	-0.3387489	

3.148e+10	-0.4899986	-0.219803	0.003606741	-0.01022026	-0.1393866	0.124451	-0.006650542	0.001481698	
0.003606741	-0.01022026	-0.4951069	-0.2257376	-0.007258741	0.001618531	-0.1373726	0.1135234	
-0.1393866	0.124451	-0.007258741	0.001618531	-0.5089808	-0.3338294	0.01402087	-0.008745907	
-0.006650542	0.001481698	-0.1373726	0.1135234	0.01402087	-0.008745907	-0.5091525	-0.3408479	

3.15e+10	-0.4897586	-0.2252638	-0.002950973	-0.01026422	-0.1360847	0.1218876	-0.004620859	0.005060487	
-0.002950973	-0.01026422	-0.497333	-0.2268574	-0.005087274	0.005571276	-0.1408342	0.1119845	
-0.1360847	0.1218876	-0.005087274	0.005571276	-0.50668	-0.3372751	0.006275206	-0.01519091	
-0.004620859	0.005060487	-0.1408342	0.1119845	0.006275206	-0.01519091	-0.5109958	-0.3428574	

3.152e+10	-0.4936957	-0.2298994	-0.008153864	-0.0066123	-0.1354589	0.1182933	-0.0008617323	0.006833783	
-0.008153864	-0.0066123	-0.5004848	-0.2267141	-0.0008834793	0.007560556	-0.144868	0.1131019	
-0.1354589	0.1182933	-0.0008834793	0.007560556	-0.507449	-0.342021	-0.003659279	-0.01585008	
-0.0008617323	0.006833783	-0.144868	0.1131019	-0.003659279	-0.01585008	-0.5141274	-0.3437886	

3.154e+10	-0.500391	-0.2315311	-0.0103266	-0.000843558	-0.1374022	0.1155805	0.003257828	0.006089852	
-0.0103266	-0.000843558	-0.5038079	-0.2251531	0.003729003	0.006617914	-0.1478659	0.1166518	
-0.1374022	0.1155805	0.003729003	0.006617914	-0.5117203	-0.3458098	-0.01195927	-0.01071162	
0.003257828	0.006089852	-0.1478659	0.1166518	-0.01195927	-0.01071162	-0.5179772	-0.343492	

3.156e+10	-0.507442	-0.2291188	-0.008978665	0.005069546	-0.140673	0.1148937	0.006176835	0.003082349	
-0.008978665	0.005069546	-0.5065763	-0.2221606	0.00681129	0.003121041	-0.1486043	0.1215446	
-0.140673	0.1148937	0.00681129	0.003121041	-0.5182328	-0.3470576	-0.01573447	-0.001943102	
0.006176835	0.003082349	-0.1486043	0.1215446	-0.01573447	-0.001943102	-0.5219809	-0.3417049	

3.158e+10	-0.5125909	-0.2233065	-0.004604642	0.009275991	-0.1439919	0.1163114	0.006806596	-0.001042711	
-0.004604642	0.009275991	-0.5080915	-0.2182934	0.00719478	-0.001393051	-0.1468492	0.1262211	
-0.1439919	0.1163114	0.00719478	-0.001393051	-0.525116	-0.3446744	-0.01394596	0.007256716	
0.006806596	-0.001042711	-0.1468492	0.1262211	-0.01394596	0.007256716	-0.5252873	-0.3382651	

3.16e+10	-0.5144105	-0.216027	0.00146494	0.01037105	-0.1464204	0.1194601	0.004954372	-0.004753397	
0.00146494	0.01037105	-0.5080165	-0.2143856	0.004963862	-0.005133054	-0.1432613	0.1293557	
-0.1464204	0.1194601	0.004963862	-0.005133054	-0.5302817	-0.3391293	-0.007380576	0.01384003	
0.004954372	-0.004753397	-0.1432613	0.1293557	-0.007380576	0.01384003	-0.5268734	-0.3337194	

3.162e+10	-0.5128027	-0.2092709	0.007241219	0.007778038	-0.1473312	0.1238009	0.001325366	-0.006719437	
0.007241219	0.007778038	-0.5065751	-0.2114895	0.001167175	-0.006867218	-0.138996	0.1303434	
-0.1473312	0.1238009	0.001167175	-0.006867218	-0.5322153	-0.3323068	0.001786413	0.01564031	
0.001325366	-0.006719437	-0.138996	0.1303434	0.001786413	0.01564031	-0.5262827	-0.3294969	

3.164e+10	-0.5086705	-0.2046905	0.01054462	0.00217697	-0.1461588	0.1285393	-0.002759445	-0.006253542	
0.01054462	0.00217697	-0.504728	-0.2099946	-0.002802908	-0.006239665	-0.1353429	0.1291558	
-0.1461588	0.1285393	-0.002802908	-0.006239665	-0.5308963	-0.3260989	0.01048461	0.01189078	
-0.002759445	-0.006253542	-0.1353429	0.1291558	0.01048461	0.01189078	-0.5241464	-0.3271415	

3.166e+10	-0.5036305	-0.2030711	0.009910004	-0.004424866	-0.142727	0.1323982	-0.005833903	-0.003547069	
0.009910004	-0.004424866	-0.5034275	-0.209866	-0.005746977	-0.003631685	-0.1333752	0.1264799	
-0.142727	0.1323982	-0.005746977	-0.003631685	-0.5273016	-0.3219926	0.01552763	0.003689754	
-0.005833903	-0.003547069	-0.1333752	0.1264799	0.01552763	0.003689754	-0.522195	-0.3268108	

3.168e+10	-0.4993172	-0.2047849	0.005432404	-0.009395562	-0.1378208	0.1339781	-0.006819337	0.0004206726	
0.005432404	-0.009395562	-0.5031893	-0.2105919	-0.006850654	0.0001674264	-0.1336467	0.1235417	
-0.1378208	0.1339781	-0.006850654	0.0001674264	-0.5229183	-0.3208215	0.01483552	-0.006032223	
-0.006819337	0.0004206726	-0.1336467	0.1235417	0.01483552	-0.006032223	-0.5215453	-0.3280534	

3.17e+10	-0.4975007	-0.2088236	-0.001081055	-0.01071159	-0.1331485	0.1326383	-0.005375425	0.004254403	
-0.001081055	-0.01071159	-0.504158	-0.2112041	-0.005660385	0.004073394	-0.1359708	0.1217001	
-0.1331485	0.1326383	-0.005660385	0.004073394	-0.519343	-0.3226341	0.00853503	-0.01352041	
-0.005375425	0.004254403	-0.1359708	0.1217001	0.00853503	-0.01352041	-0.5225719	-0.3294633	

3.172e+10	-0.4992595	-0.2132613	-0.006991834	-0.007992335	-0.1306569	0.1291154	-0.001981466	0.006604569	
-0.006991834	-0.007992335	-0.5060121	-0.2111508	-0.002320447	0.006708625	-0.1393247	0.1219695	
-0.1306569	0.1291154	-0.002320447	0.006708625	-0.518097	-0.3266421	-0.0009116839	-0.01585481	
-0.001981466	0.006604569	-0.1393247	0.1219695	-0.0009116839	-0.01585481	-0.5248127	-0.3301085	

3.174e+10	-0.5042036	-0.2157895	-0.01016127	-0.002507133	-0.1311171	0.125342	0.002193328	0.006583028	
-0.01016127	-0.002507133	-0.5082901	-0.2102289	0.002060188	0.006860439	-0.1421563	0.1245799	
-0.1311171	0.125342	0.002060188	0.006860439	-0.5202916	-0.3309519	-0.009814357	-0.01227225	
0.002193328	0.006583028	-0.1421563	0.1245799	-0.009814357	-0.01227225	-0.5276997	-0.3298715	

3.176e+10	-0.5104042	-0.2151834	-0.009690217	0.003667427	-0.1338949	0.1230364	0.005619526	0.004129916	
-0.009690217	0.003667427	-0.5104695	-0.2083187	0.005678587	0.004329841	-0.1432424	0.1286595	
-0.1338949	0.1230364	0.005678587	0.004329841	-0.5254523	-0.3337195	-0.01490826	-0.004353831	
0.005619526	0.004129916	-0.1432424	0.1286595	-0.01490826	-0.004353831	-0.5307517	-0.3286954	

3.178e+10	-0.5157208	-0.2111971	-0.005901728	0.008475682	-0.1375785	0.1230526	0.006997105	0.0001237963	
-0.005901728	0.008475682	-0.511951	-0.2056992	0.007042663	0.0001999178	-0.1420995	0.1328813	
-0.1375785	0.1230526	0.007042663	0.0001999178	-0.5320316	-0.3333548	-0.01458351	0.004885237	
0.006997105	0.0001237963	-0.1420995	0.1328813	-0.01458351	0.004885237	-0.5335091	-0.3262947	

3.18e+10	-0.5185629	-0.2052089	-5.136148e-05	0.01036187	-0.1409686	0.1252458	0.005794115	-0.003952774	
-5.136148e-05	0.01036187	-0.5124463	-0.2028918	0.005757453	-0.003822781	-0.1391669	0.1359496	
-0.1409686	0.1252458	0.005757453	-0.003822781	-0.5378817	-0.3297435	-0.009167539	0.01224559	
0.005794115	-0.003952774	-0.1391669	0.1359496	-0.009167539	0.01224559	-0.5352048	-0.3229836	

3.182e+10	-0.5184478	-0.1991173	0.005922686	0.008593763	-0.1431129	0.1292217	0.002445417	-0.006584673	
0.005922686	0.008593763	-0.5121135	-0.2004889	0.002514958	-0.006291346	-0.1355188	0.1371368	
-0.1431129	0.1292217	0.002514958	-0.006291346	-0.5414183	-0.3239038	-0.000564098	0.01527459	
0.002445417	-0.006584673	-0.1355188	0.1371368	-0.000564098	0.01527459	-0.5353986	-0.3196684	

3.184e+10	-0.5160661	-0.1941821	0.009866401	0.003638734	-0.1432752	0.1342153	-0.001812565	-0.006788276	
0.009866401	0.003638734	-0.5114978	-0.1990134	-0.001423095	-0.006521433	-0.1322751	0.1364496	
-0.1432752	0.1342153	-0.001423095	-0.006521433	-0.5420283	-0.3177518	0.0082929	0.01288139	
-0.001812565	-0.006788276	-0.1322751	0.1364496	0.0082929	0.01288139	-0.5344679	-0.3175962	

3.186e+10	-0.5124118	-0.191481	0.01019496	-0.002779273	-0.1409012	0.1390931	-0.005395717	-0.004489164	
0.01019496	-0.002779273	-0.511321	-0.1982257	-0.004782636	-0.00460565	-0.1304288	0.1344511	
-0.1409012	0.1390931	-0.004782636	-0.00460565	-0.5402173	-0.3127752	0.01422997	0.00578253	
-0.005395717	-0.004489164	-0.1304288	0.1344511	0.01422997	0.00578253	-0.5336512	-0.3171109	

3.188e+10	-0.5087203	-0.1912154	0.006664781	-0.008200133	-0.1363123	0.1422942	-0.006985425	-0.0005608069	
0.006664781	-0.008200133	-0.5117652	-0.1975764	-0.006581101	-0.001173458	-0.13045	0.1321919	
-0.1363123	0.1422942	-0.006581101	-0.001173458	-0.5369292	-0.3098713	0.0149714	-0.003504068	
-0.006985425	-0.0005608069	-0.13045	0.1321919	0.0149714	-0.003504068	-0.5339741	-0.3174289	

3.19e+10	-0.506167	-0.1931852	0.0006253883	-0.01048937	-0.130885	0.1425859	-0.006035402	0.003552286	
0.0006253883	-0.01048937	-0.5125389	-0.19654	-0.0062005	0.002782714	-0.1321346	0.1308494	
-0.130885	0.1425859	-0.0062005	0.002782714	-0.5333011	-0.3093926	0.01016182	-0.01151011	
-0.006035402	0.003552286	-0.1321346	0.1308494	0.01016182	-0.01151011	-0.5354712	-0.3174341	

3.192e+10	-0.5060716	-0.1961906	-0.005527966	-0.008802092	-0.1266383	0.1399078	-0.002912339	0.006384637	
-0.005527966	-0.008802092	-0.5133255	-0.1950966	-0.003553176	0.005951058	-0.1346132	0.1311802	
-0.1266383	0.1399078	-0.003553176	0.005951058	-0.5306615	-0.3113373	0.001605461	-0.01520347	
-0.002912339	0.006384637	-0.1346132	0.1311802	0.001605461	-0.01520347	-0.5373429	-0.3166455	

3.194e+10	-0.508691	-0.1989443	-0.00945923	-0.003945248	-0.1252526	0.1356875	0.001290701	0.006935624	
-0.00945923	-0.003945248	-0.5138625	-0.1937626	0.0005890491	0.007010396	-0.1367439	0.1333496	
-0.1252526	0.1356875	0.0005890491	0.007010396	-0.5303913	-0.3149233	-0.007438066	-0.01323282	
0.001290701	0.006935624	-0.1367439	0.1333496	-0.007438066	-0.01323282	-0.5390114	-0.3152253	

3.196e+10	-0.5132567	-0.1995946	-0.009879057	0.002148565	-0.1268997	0.1320066	0.005092583	0.004954742	
-0.009879057	0.002148565	-0.5143361	-0.1923024	0.004618124	0.005351848	-0.1374665	0.1367486	
-0.1268997	0.1320066	0.004618124	0.005351848	-0.5332475	-0.3182579	-0.01358369	-0.006458727	
0.005092583	0.004954742	-0.1374665	0.1367486	-0.01358369	-0.006458727	-0.5403939	-0.3135075	

3.198e+10	-0.5179984	-0.1974936	-0.006833694	0.007310313	-0.1305295	0.1303929	0.00707353	0.001091185	
-0.006833694	0.007310313	-0.5146825	-0.1909998	0.006841499	0.001613984	-0.136355	0.1402659	
-0.1305295	0.1303929	0.006841499	0.001613984	-0.5383793	-0.3196662	-0.01468763	0.002494775	
0.00707353	0.001091185	-0.136355	0.1402659	-0.01468763	0.002494775	-0.5414109	-0.3118282	

3.2e+10	-0.5212939	-0.1932463	-0.001462077	0.009839365	-0.1345917	0.1313884	0.006423077	-0.00325354	
-0.001462077	0.009839365	-0.5149076	-0.1899594	0.006418696	-0.002635771	-0.1337617	0.142741	
-0.1345917	0.1313884	0.006418696	-0.002635771	-0.5440354	-0.3181634	-0.0105249	0.0103681	
0.006423077	-0.00325354	-0.1337617	0.142741	-0.0105249	0.0103681	-0.5420299	-0.3100467	

3.202e+10	-0.522396	-0.1882801	0.004385282	0.008900303	-0.1378415	0.1347018	0.00331962	-0.006417898	
0.004385282	0.008900303	-0.5152898	-0.1891814	0.00367349	-0.005758458	-0.1306702	0.1435544	
-0.1378415	0.1347018	0.00367349	-0.005758458	-0.5483962	-0.3143237	-0.002687813	0.01443184	
0.00331962	-0.006417898	-0.1306702	0.1435544	-0.002687813	0.01443184	-0.542174	-0.3086238	

3.204e+10	-0.5215927	-0.1836818	0.008672843	0.004804072	-0.1391979	0.1396846	-0.001072831	-0.007145208	
0.008672843	0.004804072	-0.5162298	-0.1885047	-0.0002547072	-0.006731283	-0.1281388	0.1428632	
-0.1391979	0.1396846	-0.0002547072	-0.006731283	-0.5506823	-0.3092813	0.006023843	0.01331035	
-0.001072831	-0.007145208	-0.1281388	0.1428632	0.006023843	0.01331035	-0.5422692	-0.3080518	

3.206e+10	-0.5194765	-0.1804943	0.009857093	-0.001027483	-0.1379306	0.1451455	-0.005032596	-0.005137323	
0.009857093	-0.001027483	-0.5178216	-0.187551	-0.003976552	-0.005364206	-0.1269668	0.1413083	
-0.1379306	0.1451455	-0.003976552	-0.005364206	-0.5508849	-0.3043557	0.01250646	0.007429924	
-0.005032596	-0.005137323	-0.1269668	0.1413083	0.01250646	0.007429924	-0.5431246	-0.308287	

3.208e+10	-0.5168521	-0.1788751	0.007476535	-0.00649284	-0.1339758	0.1494758	-0.007024963	-0.001222262	
0.007476535	-0.00649284	-0.5196573	-0.1857573	-0.00629994	-0.002192638	-0.1272355	0.1398791	
-0.1339758	0.1494758	-0.00629994	-0.002192638	-0.54947	-0.3003276	0.01444852	-0.001068842	
-0.007024963	-0.001222262	-0.1272355	0.1398791	0.01444852	-0.001068842	-0.5452636	-0.3082441	

3.21e+10	-0.5145239	-0.1788741	0.002371612	-0.009591855	-0.1283834	0.1511704	-0.006365576	0.003048507	
0.002371612	-0.009591855	-0.5209697	-0.1829515	-0.006479067	0.001763967	-0.1285926	0.1393545	
-0.1283834	0.1511704	-0.006479067	0.001763967	-0.5468855	-0.297924	0.01119151	-0.009121724	
-0.006365576	0.003048507	-0.1285926	0.1393545	0.01119151	-0.009121724	-0.5481207	-0.3068367	

3.212e+10	-0.5133712	-0.1803838	-0.00357283	-0.009163835	-0.1231619	0.1495668	-0.003414864	0.006107676	
-0.00357283	-0.009163835	-0.521139	-0.1798496	-0.004360609	0.005209684	-0.1302804	0.1401493	
-0.1231619	0.1495668	-0.004360609	0.005209684	-0.5440479	-0.2974874	0.003925914	-0.0138545	
-0.003414864	0.006107676	-0.1302804	0.1401493	0.003925914	-0.0138545	-0.550421	-0.3040994	

3.214e+10	-0.5142098	-0.1823943	-0.008133419	-0.005401785	-0.1202823	0.1456031	0.0007111555	0.006930207	
-0.008133419	-0.005401785	-0.5202355	-0.1773053	-0.0005502821	0.006849832	-0.1315537	0.1422144	
-0.1202823	0.1456031	-0.0005502821	0.006849832	-0.5421836	-0.299178	-0.00473975	-0.01355735	
0.0007111555	0.006930207	-0.1315537	0.1422144	-0.00473975	-0.01355735	-0.5513386	-0.3008493	

3.216e+10	-0.5170503	-0.1833003	-0.009672894	0.000233022	-0.1206726	0.1412396	0.0045702	0.005259081	
-0.009672894	0.000233022	-0.5188818	-0.1756318	0.003575029	0.00591565	-0.1316862	0.1450769	
-0.1206726	0.1412396	0.003575029	0.00591565	-0.5426038	-0.3020094	-0.01163141	-0.008327269	
0.0045702	0.005259081	-0.1316862	0.1450769	-0.01163141	-0.008327269	-0.5510031	-0.2979262	

3.218e+10	-0.520695	-0.1823448	-0.007742279	0.005660269	-0.1237267	0.1384781	0.006790123	0.001649479	
-0.007742279	0.005660269	-0.5176431	-0.1751118	0.006347124	0.002692495	-0.1303386	0.1478921	
-0.1237267	0.1384781	0.006347124	0.002692495	-0.545554	-0.3042753	-0.0142206	-0.0001067264	
0.006790123	0.001649479	-0.1303386	0.1478921	-0.0142206	-0.0001067264	-0.549955	-0.2961202	

3.22e+10	-0.5237281	-0.1795165	-0.003125288	0.008994819	-0.1279509	0.1383681	0.006497889	-0.002625054	
-0.003125288	0.008994819	-0.5170333	-0.1755092	0.006658452	-0.001504455	-0.1278763	0.1497239	
-0.1279509	0.1383681	0.006658452	-0.001504455	-0.5499798	-0.3046078	-0.01160959	0.008029872	
0.006497889	-0.002625054	-0.1278763	0.1497239	-0.01160959	0.008029872	-0.5488279	-0.2955134	

3.222e+10	-0.5252385	-0.1757424	0.002524433	0.009131894	-0.1317639	0.1409538	0.003723744	-0.005937998	
0.002524433	0.009131894	-0.5175213	-0.1762794	0.004491563	-0.005009445	-0.125188	0.1500955	
-0.1317639	0.1409538	0.004491563	-0.005009445	-0.5543757	-0.3026321	-0.004858697	0.01312772	
0.003723744	-0.005937998	-0.125188	0.1500955	-0.004858697	0.01312772	-0.548219	-0.2959265	

3.224e+10	-0.5252506	-0.1719828	0.007239351	0.00606722	-0.1338658	0.1455779	-0.0004836507	-0.006958412	
0.007239351	0.00606722	-0.5193104	-0.1768888	0.0007932043	-0.006578754	-0.123282	0.1492344	
-0.1338658	0.1455779	0.0007932043	-0.006578754	-0.5575492	-0.2992059	0.00350287	0.01342659	
-0.0004836507	-0.006958412	-0.123282	0.1492344	0.00350287	0.01342659	-0.5487286	-0.2971917	

3.226e+10	-0.5241973	-0.1691091	0.009393038	0.0008792536	-0.1333664	0.1510618	-0.00443783	-0.005281307	
0.009393038	0.0008792536	-0.5221924	-0.1765492	-0.003049718	-0.005786753	-0.1226615	0.1479566	
-0.1333664	0.1510618	-0.003049718	-0.005786753	-0.5592706	-0.2951195	0.01044616	0.008945541	
-0.00443783	-0.005281307	-0.1226615	0.1479566	0.01044616	0.008945541	-0.5509018	-0.2986175	

3.228e+10	-0.5227332	-0.1671271	0.008232005	-0.004620152	-0.1300735	0.155787	-0.006581158	-0.001650631	
0.008232005	-0.004620152	-0.5253702	-0.1744619	-0.005742865	-0.003022747	-0.1231969	0.1470809	
-0.1300735	0.155787	-0.005742865	-0.003022747	-0.5596015	-0.2910619	0.01357632	0.001406664	
-0.006581158	-0.001650631	-0.1231969	0.1470809	0.01357632	0.001406664	-0.5546926	-0.2987961	

3.23e+10	-0.5212487	-0.1663517	0.004134109	-0.008504415	-0.1249103	0.1581638	-0.006190174	0.002435879	
0.004134109	-0.008504415	-0.527684	-0.1707424	-0.006436633	0.000749298	-0.1243666	0.147116	
-0.1249103	0.1581638	-0.006436633	0.000749298	-0.5585961	-0.2876959	0.0119224	-0.006512187	
-0.006190174	0.002435879	-0.1243666	0.147116	0.0119224	-0.006512187	-0.5590513	-0.2967524	

3.232e+10	-0.520361	-0.1664687	-0.001476273	-0.009356755	-0.1196419	0.1574512	-0.0035864	0.005451475	
-0.001476273	-0.009356755	-0.5282651	-0.1662573	-0.004896126	0.004290764	-0.1256325	0.1481931	
-0.1196419	0.1574512	-0.004896126	0.004290764	-0.5566006	-0.2855628	0.006114686	-0.01211763	
-0.0035864	0.005451475	-0.1256325	0.1481931	0.006114686	-0.01211763	-0.5622939	-0.2927117	

3.234e+10	-0.5206535	-0.1670633	-0.006574307	-0.006826945	-0.1161655	0.1542128	0.000176969	0.006423963	
-0.006574307	-0.006826945	-0.5270151	-0.1622317	-0.001564613	0.006369961	-0.1264148	0.1502288	
-0.1161655	0.1542128	-0.001564613	0.006369961	-0.5545049	-0.2852216	-0.001883683	-0.01346791	
0.000176969	0.006423963	-0.1264148	0.1502288	-0.001883683	-0.01346791	-0.5633586	-0.287789	

3.236e+10	-0.5222736	-0.1673821	-0.009291393	-0.001821215	-0.1156749	0.1500985	0.003778664	0.005120388	
-0.009291393	-0.001821215	-0.5245852	-0.1596812	0.002424259	0.006134237	-0.1261902	0.1528634	
-0.1156749	0.1500985	0.002424259	0.006134237	-0.5535077	-0.2865435	-0.009282391	-0.009982053	
0.003778664	0.005120388	-0.1261902	0.1528634	-0.009282391	-0.009982053	-0.5622285	-0.2833865	

3.238e+10	-0.5246266	-0.1664214	-0.008642306	0.003820724	-0.1179284	0.1470934	0.006002261	0.002018585	
-0.008642306	0.003820724	-0.5219735	-0.1588863	0.005541291	0.003576048	-0.1247883	0.1553718	
-0.1179284	0.1470934	0.005541291	0.003576048	-0.5544144	-0.2884869	-0.01334196	-0.002821322	
0.006002261	0.002018585	-0.1247883	0.1553718	-0.01334196	-0.002821322	-0.5596298	-0.2808528	

3.24e+10	-0.5266556	-0.1641358	-0.004890994	0.008060109	-0.121647	0.1464204	0.006048931	-0.001812695	
-0.004890994	0.008060109	-0.5200829	-0.1597003	0.006543135	-0.0003147243	-0.1223283	0.1570245	
-0.121647	0.1464204	0.006543135	-0.0003147243	-0.5571625	-0.2894228	-0.0124937	0.005370302	
0.006048931	-0.001812695	-0.1223283	0.1570245	-0.0124937	0.005370302	-0.5568746	-0.2803223	

3.242e+10	-0.5276024	-0.1612035	0.0005905505	0.009389146	-0.1252379	0.1483566	0.003849688	-0.004973196	
0.0005905505	0.009389146	-0.5196746	-0.1614627	0.005093671	-0.003998975	-0.119667	0.1572562	
-0.1252379	0.1483566	0.005093671	-0.003998975	-0.5605905	-0.2888469	-0.007081232	0.01151488	
0.003849688	-0.004973196	-0.119667	0.1572562	-0.007081232	0.01151488	-0.5550413	-0.2817103	

3.244e+10	-0.5274378	-0.15854	0.005835464	0.007352764	-0.1273855	0.1523513	0.000211508	-0.006231412	
0.005835464	0.007352764	-0.5211774	-0.1633271	0.001844985	-0.006116287	-0.1178358	0.1562598	
-0.1273855	0.1523513	0.001844985	-0.006116287	-0.5636763	-0.2868357	0.0008017748	0.013381	
0.000211508	-0.006231412	-0.1178358	0.1562598	0.0008017748	0.013381	-0.5550731	-0.2842898	

3.246e+10	-0.5267173	-0.1566209	0.008969635	0.002703481	-0.1271703	0.1572666	-0.003427394	-0.005096656	
0.008969635	0.002703481	-0.5244983	-0.1640663	-0.001949403	-0.005999645	-0.1172784	0.1549012	
-0.1271703	0.1572666	-0.001949403	-0.005999645	-0.5658951	-0.2839971	0.008219856	0.01042908	
-0.003427394	-0.005096656	-0.1172784	0.1549012	0.008219856	0.01042908	-0.5575317	-0.2869015	

3.248e+10	-0.5260884	-0.1554351	0.008901835	-0.002881221	-0.1244391	0.1615875	-0.005635211	-0.002094597	
0.008901835	-0.002881221	-0.5286401	-0.1628329	-0.004962701	-0.003802513	-0.1178934	0.1540309	
-0.1244391	0.1615875	-0.004962701	-0.003802513	-0.5671904	-0.2808158	0.01258135	0.003890007	
-0.005635211	-0.002094597	-0.1178934	0.1540309	0.01258135	0.003890007	-0.5621579	-0.2879184	

3.25e+10	-0.5258671	-0.1547711	0.005680926	-0.007437604	-0.1200506	0.1639082	-0.005660758	0.001514678	
0.005680926	-0.007437604	-0.53222	-0.1592687	-0.006220034	-0.0003227125	-0.1191462	0.1541016	
-0.1200506	0.1639082	-0.006220034	-0.0003227125	-0.5675157	-0.2777775	0.01252322	-0.003874907	
-0.005660758	0.001514678	-0.1191462	0.1541016	0.01252322	-0.003874907	-0.5675168	-0.2864248	

3.252e+10	-0.5262209	-0.1542766	0.000440835	-0.009368734	-0.1154877	0.163593	-0.003675594	0.00436955	
0.000440835	-0.009368734	-0.5339722	-0.1541232	-0.005311616	0.003271563	-0.1203601	0.1552233	
-0.1154877	0.163593	-0.005311616	0.003271563	-0.5669673	-0.2751823	0.0081563	-0.01027153	
-0.003675594	0.00436955	-0.1203601	0.1552233	0.0081563	-0.01027153	-0.5719537	-0.2820563	

3.254e+10	-0.5271538	-0.1536513	-0.004996911	-0.007978127	-0.1124152	0.1611434	-0.0005299701	0.00555578	
-0.004996911	-0.007978127	-0.533306	-0.1490021	-0.002493833	0.00574639	-0.1210955	0.1572457	
-0.1124152	0.1611434	-0.002493833	0.00574639	-0.5658774	-0.2735558	0.0009080311	-0.0131537	
-0.0005299701	0.00555578	-0.1210955	0.1572457	0.0009080311	-0.0131537	-0.5738568	-0.276302	

3.256e+10	-0.5285224	-0.1524502	-0.008700404	-0.003712832	-0.1117661	0.1579698	0.002660045	0.004797268	
-0.008700404	-0.003712832	-0.5307345	-0.145093	0.001282211	0.006150468	-0.1209568	0.1598175	
-0.1117661	0.1579698	0.001282211	0.006150468	-0.5649977	-0.2730089	-0.006803457	-0.01140838	
0.002660045	0.004797268	-0.1209568	0.1598175	-0.006803457	-0.01140838	-0.5730116	-0.2706167	

3.258e+10	-0.5298297	-0.1504262	-0.009306447	0.001952696	-0.1133081	0.1556693	0.004851684	0.00241431	
-0.009306447	0.001952696	-0.5272657	-0.1432549	0.004603825	0.004257372	-0.1195792	0.1624306	
-0.1133081	0.1556693	0.004603825	0.004257372	-0.5649897	-0.27337	-0.01220161	-0.005473384	
0.004851684	0.00241431	-0.1195792	0.1624306	-0.01220161	-0.005473384	-0.5700219	-0.2667752	

3.26e+10	-0.5304429	-0.147803	-0.006524412	0.006979461	-0.1160757	0.155218	0.005311935	-0.0007738008	
-0.006524412	0.006979461	-0.524154	-0.1434907	0.006170433	0.0007907901	-0.1171797	0.1642192	
-0.1160757	0.155218	0.006170433	0.0007907901	-0.5660789	-0.273897	-0.01317745	0.002566211	
0.005311935	-0.0007738008	-0.1171797	0.1642192	-0.01317745	0.002566211	-0.566249	-0.2656121	

3.262e+10	-0.5300122	-0.1451938	-0.001319629	0.009494229	-0.1186784	0.156864	0.00386893	-0.003644111	
-0.001319629	0.009494229	-0.5224536	-0.1454786	0.005425342	-0.002880699	-0.1143535	0.1646557	
-0.1186784	0.156864	0.005425342	-0.002880699	-0.5680273	-0.2734952	-0.009287712	0.00970207	
0.00386893	-0.003644111	-0.1143535	0.1646557	-0.009287712	0.00970207	-0.5633091	-0.2668767	

3.264e+10	-0.528802	-0.1434741	0.004399493	0.008524226	-0.1201002	0.1600748	0.00104895	-0.005134651	
0.004399493	0.008524226	-0.5229811	-0.1481859	0.002753863	-0.005388476	-0.1121918	0.1637294	
-0.1201002	0.1600748	0.002753863	-0.005388476	-0.5700297	-0.2722567	-0.002003162	0.01324842	
0.00104895	-0.005134651	-0.1121918	0.1637294	-0.002003162	0.01324842	-0.5624039	-0.269821	

3.266e+10	-0.5277131	-0.1429809	0.008488287	0.004432477	-0.1196919	0.163898	-0.002058216	-0.004708829	
0.008488287	0.004432477	-0.525917	-0.1501092	-0.0007872916	-0.005915439	-0.1114121	0.1622269	
-0.1196919	0.163898	-0.0007872916	-0.005915439	-0.5716454	-0.2705818	0.005935117	0.01195255	
-0.002058216	-0.004708829	-0.1114121	0.1622269	0.005935117	0.01195255	-0.5642129	-0.2731157	

3.268e+10	-0.5275706	-0.1432389	0.009466333	-0.001233041	-0.1173807	0.1671399	-0.004274888	-0.002616577	
0.009466333	-0.001233041	-0.5303623	-0.1499774	-0.003951283	-0.004388345	-0.1118725	0.1611434	
-0.1173807	0.1671399	-0.003951283	-0.004388345	-0.5728547	-0.2689546	0.01165275	0.00639874	
-0.004274888	-0.002616577	-0.1118725	0.1611434	0.01165275	0.00639874	-0.5685273	-0.2750817	

3.27e+10	-0.5286321	-0.1435271	0.007052667	-0.006400802	-0.1139792	0.1687904	-0.004871889	0.0002595883	
0.007052667	-0.006400802	-0.5347676	-0.1470987	-0.005707361	-0.001384974	-0.1130365	0.1610138	
-0.1139792	0.1687904	-0.005707361	-0.001384974	-0.5740258	-0.267063	0.01320287	-0.00136266	
-0.004871889	0.0002595883	-0.1130365	0.1610138	0.01320287	-0.00136266	-0.5741507	-0.274348	

3.272e+10	-0.5305924	-0.1428668	0.002163185	-0.009280322	-0.1106646	0.1685348	-0.003794255	0.002873739	
0.002163185	-0.009280322	-0.5374849	-0.1422104	-0.00548564	0.002082704	-0.1142483	0.1618973	
-0.1106646	0.1685348	-0.00548564	0.002082704	-0.5749818	-0.2650702	0.01011492	-0.008638958	
-0.003794255	0.002873739	-0.1142483	0.1618973	0.01011492	-0.008638958	-0.5792028	-0.2707023	

3.274e+10	-0.5327083	-0.1411455	-0.003512702	-0.00890384	-0.1085596	0.1669119	-0.001522519	0.004414208	
-0.003512702	-0.00890384	-0.5377248	-0.1366646	-0.00333164	0.004840323	-0.1150469	0.1636344	
-0.1085596	0.1669119	-0.00333164	0.004840323	-0.5755116	-0.2631253	0.003423373	-0.01293774	
-0.001522519	0.004414208	-0.1150469	0.1636344	0.003423373	-0.01293774	-0.5820112	-0.2652378	

3.276e+10	-0.5343644	-0.1384946	-0.008026072	-0.005356773	-0.1081851	0.1649469	0.001176624	0.004456177	
-0.008026072	-0.005356773	-0.5357119	-0.1319801	3.827834e-05	0.005879775	-0.1151626	0.1659444	
-0.1081851	0.1649469	3.827834e-05	0.005879775	-0.5757068	-0.2612734	-0.004626127	-0.01268262	
0.001176624	0.004456177	-0.1151626	0.1659444	-0.004626127	-0.01268262	-0.5820385	-0.259262	

3.278e+10	-0.535098	-0.1351025	-0.00974848	0.0002127126	-0.1092267	0.1637785	0.003432712	0.003009878	
-0.00974848	0.0002127126	-0.5323988	-0.1291943	0.003399299	0.004775507	-0.1142357	0.168472	
-0.1092267	0.1637785	0.003399299	0.004775507	-0.5757879	-0.2598572	-0.01117865	-0.007789635	
0.003432712	0.003009878	-0.1142357	0.168472	-0.01117865	-0.007789635	-0.5796354	-0.2546835	

3.28e+10	-0.5345953	-0.131705	-0.007927869	0.005857754	-0.1109723	0.163967	0.004488276	0.0005609935	
-0.007927869	0.005857754	-0.5290304	-0.1285725	0.005479979	0.001943469	-0.1123134	0.1705264	
-0.1109723	0.163967	0.005479979	0.001943469	-0.5760407	-0.2590038	-0.01373363	0.0001006746	
0.004488276	0.0005609935	-0.1123134	0.1705264	-0.01373363	0.0001006746	-0.5760766	-0.2526402	

3.282e+10	-0.5329037	-0.1290214	-0.003091013	0.009456966	-0.1124031	0.1655825	0.003986133	-0.002031825	
-0.003091013	0.009456966	-0.5266593	-0.1298473	0.005544677	-0.001510717	-0.1097207	0.1715654	
-0.1124031	0.1655825	0.005544677	-0.001510717	-0.5766647	-0.2579546	-0.01119959	0.008083345	
0.003986133	-0.002031825	-0.1097207	0.1715654	-0.01119959	0.008083345	-0.5730043	-0.2528445	

3.284e+10	-0.5306207	-0.1277826	0.003017022	0.009540315	-0.1128442	0.16812	0.002139564	-0.003864329	
0.003017022	0.009540315	-0.5261786	-0.1320693	0.00367516	-0.004327625	-0.1073432	0.1713189	
-0.1128442	0.16812	0.00367516	-0.004327625	-0.577232	-0.2568795	-0.004443742	0.01312093	
0.002139564	-0.003864329	-0.1073432	0.1713189	-0.004443742	0.01312093	-0.5714287	-0.2550142	

3.286e+10	-0.5288644	-0.1282389	0.008021141	0.005995123	-0.1119512	0.170884	-0.0003650948	-0.004347798	
0.008021141	0.005995123	-0.5279167	-0.1341718	0.000613844	-0.005598649	-0.1058627	0.1702743	
-0.1119512	0.170884	0.000613844	-0.005598649	-0.5777058	-0.2557628	0.003995733	0.01327049	
-0.0003650948	-0.004347798	-0.1058627	0.1702743	0.003995733	0.01327049	-0.5721489	-0.2577343	

3.288e+10	-0.528666	-0.1295594	0.009972336	0.0002077762	-0.1098586	0.1730427	-0.002680737	-0.003391967	
0.009972336	0.0002077762	-0.5314279	-0.134768	-0.002612221	-0.004981885	-0.1055024	0.1691675	
-0.1098586	0.1730427	-0.002612221	-0.004981885	-0.5783003	-0.2550608	0.01092414	0.008486163	
-0.002680737	-0.003391967	-0.1055024	0.1691675	0.01092414	0.008486163	-0.5751595	-0.2598153	

3.29e+10	-0.5302226	-0.1307259	0.008205146	-0.00555927	-0.1072494	0.1739909	-0.004092165	-0.001352562	
0.008205146	-0.00555927	-0.5354246	-0.1330994	-0.004983062	-0.002683102	-0.1060046	0.1685934	
-0.1072494	0.1739909	-0.004983062	-0.002683102	-0.579353	-0.2546801	0.01377721	0.0006164878	
-0.004092165	-0.001352562	-0.1060046	0.1685934	0.01377721	0.0006164878	-0.5796701	-0.2601493	

3.292e+10	-0.532972	-0.130516	0.003502688	-0.009211204	-0.1048446	0.1736658	-0.004175557	0.00112978	
0.003502688	-0.009211204	-0.5384273	-0.1293643	-0.005691434	0.000601207	-0.1068253	0.1687851	
-0.1048446	0.1736658	-0.005691434	0.000601207	-0.5810198	-0.2538413	0.01159078	-0.007406342	
-0.004175557	0.00112978	-0.1068253	0.1687851	0.01159078	-0.007406342	-0.5843763	-0.2578625	

3.294e+10	-0.5358895	-0.1287546	-0.002387982	-0.009535123	-0.1034993	0.1724563	-0.002874099	0.00328537	
-0.002387982	-0.009535123	-0.5394944	-0.1247505	-0.004390338	0.003784292	-0.1076609	0.1697118	
-0.1034993	0.1724563	-0.004390338	0.003784292	-0.5827852	-0.2523145	0.005230873	-0.01271182	
-0.002874099	0.00328537	-0.1076609	0.1697118	0.005230873	-0.01271182	-0.5876472	-0.2535673	

3.296e+10	-0.5381535	-0.1255293	-0.007416873	-0.006476993	-0.1034118	0.171225	-0.0005517172	0.004379586	
-0.007416873	-0.006476993	-0.5386685	-0.120308	-0.001434685	0.005678155	-0.108216	0.1713132	
-0.1034118	0.171225	-0.001434685	0.005678155	-0.5842002	-0.2502678	-0.003026843	-0.01343116	
-0.0005517172	0.004379586	-0.108216	0.1713132	-0.003026843	-0.01343116	-0.5886782	-0.2484253	

3.298e+10	-0.5391957	-0.1216119	-0.009845475	-0.001069561	-0.1044291	0.1707471	0.002031406	0.003966471	
-0.009845475	-0.001069561	-0.5365916	-0.1171921	0.002119108	0.0054898	-0.1081695	0.173444	
-0.1044291	0.1707471	0.002119108	0.0054898	-0.5851503	-0.2481406	-0.0102448	-0.009266639	
0.002031406	0.003966471	-0.1081695	0.173444	-0.0102448	-0.009266639	-0.5875481	-0.2442118	

3.3e+10	-0.5387429	-0.117465	-0.008739311	0.004834314	-0.1056678	0.1715592	0.003940667	0.002136759	
-0.008739311	0.004834314	-0.534148	-0.1154869	0.004891584	0.003255009	-0.1071989	0.1757579	
-0.1056678	0.1715592	0.004891584	0.003255009	-0.5858285	-0.2460191	-0.01376532	-0.001651163	
0.003940667	0.002136759	-0.1071989	0.1757579	-0.01376532	-0.001651163	-0.585403	-0.2415248	

3.302e+10	-0.5368175	-0.1140062	-0.004362057	0.009083963	-0.1064088	0.1734395	0.004471855	-0.000456545	
-0.004362057	0.009083963	-0.5320162	-0.1152204	0.005839154	-0.0001343851	-0.105298	0.1776245	
-0.1064088	0.1734395	0.005839154	-0.0001343851	-0.5862072	-0.2438945	-0.01221184	0.006649817	
0.004471855	-0.000456545	-0.105298	0.1776245	-0.01221184	0.006649817	-0.5832491	-0.2406362	

3.304e+10	-0.5339138	-0.1122213	0.001774039	0.009987668	-0.1060549	0.1758786	0.0034581	-0.002891523	
0.001774039	0.009987668	-0.5307689	-0.1159204	0.004703561	-0.003404185	-0.1028069	0.1785703	
-0.1060549	0.1758786	0.004703561	-0.003404185	-0.5861108	-0.2416971	-0.006088586	0.01252782	
0.0034581	-0.002891523	-0.1028069	0.1785703	-0.006088586	0.01252782	-0.5818737	-0.240901	

3.306e+10	-0.5311738	-0.1124201	0.007302002	0.007061567	-0.1045733	0.1780985	0.001269155	-0.004357954	
0.007302002	0.007061567	-0.5308951	-0.1172106	0.00197059	-0.005456785	-0.1005437	0.1783635	
-0.1045733	0.1780985	0.00197059	-0.005456785	-0.5853709	-0.2400781	0.002335673	0.01372772	
0.001269155	-0.004357954	-0.1005437	0.1783635	0.002335673	0.01372772	-0.5815631	-0.2419623	

3.308e+10	-0.5298787	-0.1140799	0.01000521	0.001430795	-0.102248	0.1794781	-0.001394265	-0.004384658	
0.01000521	0.001430795	-0.532551	-0.1179662	-0.001449441	-0.005661607	-0.09895877	0.1774293	
-0.102248	0.1794781	-0.001449441	-0.005661607	-0.5844923	-0.2394795	0.009862261	0.009772475	
-0.001394265	-0.004384658	-0.09895877	0.1774293	0.009862261	0.009772475	-0.582666	-0.2431373	

3.31e+10	-0.5306998	-0.1160024	0.008866721	-0.004623987	-0.09976354	0.1796822	-0.003684514	-0.00290568	
0.008866721	-0.004623987	-0.5351588	-0.1175644	-0.004463718	-0.003902189	-0.09839682	0.1762771	
-0.09976354	0.1796822	-0.004463718	-0.003902189	-0.5843016	-0.239997	0.01362677	0.002204883	
-0.003684514	-0.00290568	-0.09839682	0.1762771	0.01362677	0.002204883	-0.5851046	-0.243915	

3.312e+10	-0.5332951	-0.1169598	0.004506062	-0.008784058	-0.09791516	0.1787716	-0.004791374	-0.0003132034	
0.004506062	-0.008784058	-0.5377209	-0.1154737	-0.005998067	-0.0006547764	-0.09872709	0.1754271	
-0.09791516	0.1787716	-0.005998067	-0.0006547764	-0.5854252	-0.2405779	0.0122889	-0.006049022	
-0.004791374	-0.0003132034	-0.09872709	0.1754271	0.0122889	-0.006049022	-0.5884188	-0.2431297	

3.314e+10	-0.5367374	-0.1161448	-0.001325678	-0.009670155	-0.0972373	0.177387	-0.004198335	0.002545608	
-0.001325678	-0.009670155	-0.539317	-0.1123745	-0.005349788	0.00298867	-0.09967539	0.1752467	
-0.0972373	0.177387	-0.005349788	0.00298867	-0.587588	-0.2406281	0.006498549	-0.01193553	
-0.004198335	0.002545608	-0.09967539	0.1752467	0.006498549	-0.01193553	-0.5914342	-0.240758	

3.316e+10	-0.539942	-0.1134884	-0.006551328	-0.007144511	-0.09787846	0.1763596	-0.001987142	0.004587621	
-0.006551328	-0.007144511	-0.5397189	-0.1090225	-0.002619504	0.005604771	-0.1008826	0.1760084	
-0.09787846	0.1763596	-0.002619504	0.005604771	-0.5902638	-0.2394413	-0.001535367	-0.01341744	
-0.001987142	0.004587621	-0.1008826	0.1760084	-0.001535367	-0.01341744	-0.5933024	-0.237304	

3.318e+10	-0.5420322	-0.1094898	-0.009441373	-0.002153693	-0.09928482	0.1764902	0.001062977	0.00494361	
-0.009441373	-0.002153693	-0.5391845	-0.106077	0.001161621	0.006084813	-0.10183	0.1778051	
-0.09928482	0.1764902	0.001161621	0.006084813	-0.5926632	-0.2375285	-0.008922549	-0.01006031	
0.001062977	0.00494361	-0.10183	0.1778051	-0.008922549	-0.01006031	-0.5937517	-0.2340047	

3.32e+10	-0.5424872	-0.1047612	-0.009023997	0.003633113	-0.1005828	0.1779969	0.003751998	0.003418368	
-0.009023997	0.003633113	-0.5381542	-0.1037296	0.004464328	0.004235304	-0.1018629	0.1804093	
-0.1005828	0.1779969	0.004464328	0.004235304	-0.5946336	-0.2347121	-0.01305044	-0.003101834	
0.003751998	0.003418368	-0.1018629	0.1804093	-0.01305044	-0.003101834	-0.5933941	-0.2313547	

3.322e+10	-0.5410185	-0.1003695	-0.005348614	0.008220429	-0.1009306	0.1805201	0.00502761	0.0006224886	
-0.005348614	0.008220429	-0.5369128	-0.1021303	0.00602035	0.0008658833	-0.1005889	0.1831219	
-0.1009306	0.1805201	0.00602035	0.0008658833	-0.5957985	-0.2312146	-0.01244865	0.004958952	
0.00502761	0.0006224886	-0.1005889	0.1831219	-0.01244865	0.004958952	-0.5927947	-0.229335	

3.324e+10	-0.5379822	-0.09718606	0.0004025853	0.009885806	-0.09993976	0.1832264	0.004462877	-0.002356892	
0.0004025853	0.009885806	-0.5357087	-0.1011264	0.005372923	-0.00269537	-0.09819752	0.1850721	
-0.09993976	0.1832264	0.005372923	-0.00269537	-0.5957025	-0.2275958	-0.007319405	0.01122794	
0.004462877	-0.002356892	-0.09819752	0.1850721	-0.007319405	0.01122794	-0.5921301	-0.2278905	

3.326e+10	-0.5343522	-0.09624142	0.006133974	0.007838149	-0.09768964	0.1853633	0.002340052	-0.004466989	
0.006133974	0.007838149	-0.5348988	-0.1007801	0.002891035	-0.005225239	-0.09534936	0.185769	
-0.09768964	0.1853633	0.002891035	-0.005225239	-0.5941549	-0.2246309	0.0005125564	0.0134032	
0.002340052	-0.004466989	-0.09534936	0.185769	0.0005125564	0.0134032	-0.5914699	-0.227044	

3.328e+10	-0.5316177	-0.0974742	0.009564944	0.002755716	-0.09486059	0.1862547	-0.0005913017	-0.005038824	
0.009564944	0.002755716	-0.5348693	-0.1007746	-0.0005543404	-0.005959775	-0.09287268	0.1852202	
-0.09486059	0.1862547	-0.0005543404	-0.005959775	-0.5917869	-0.2231456	0.008187423	0.01062046	
-0.0005913017	-0.005038824	-0.09287268	0.1852202	0.008187423	0.01062046	-0.5911454	-0.2268011	

3.33e+10	-0.5310051	-0.09995056	0.009303485	-0.00334781	-0.09216713	0.1857509	-0.003384806	-0.003871883	
0.009303485	-0.00334781	-0.5356767	-0.1005395	-0.003873795	-0.004647823	-0.09132014	0.1838826	
-0.09216713	0.1857509	-0.003873795	-0.004647823	-0.589852	-0.2237104	0.01279878	0.003873199	
-0.003384806	-0.003871883	-0.09132014	0.1838826	0.01279878	0.003873199	-0.5916379	-0.2271085	

3.332e+10	-0.5327903	-0.1020207	0.005549611	-0.008042517	-0.09053146	0.1842277	-0.005082516	-0.001263445	
0.005549611	-0.008042517	-0.5368912	-0.09970077	-0.005926263	-0.00161013	-0.0909485	0.1824145	
-0.09053146	0.1842277	-0.005926263	-0.00161013	-0.5895592	-0.2256025	0.01259036	-0.004255234	
-0.005082516	-0.001263445	-0.0909485	0.1824145	0.01259036	-0.004255234	-0.5931433	-0.2270927	

3.334e+10	-0.5361591	-0.1026658	-0.0001014696	-0.009641066	-0.09042702	0.1824838	-0.004963891	0.001944328	
-0.0001014696	-0.009641066	-0.5379815	-0.09825287	-0.005834795	0.002158356	-0.09167703	0.181411	
-0.09042702	0.1824838	-0.005834795	0.002158356	-0.5913533	-0.2272361	0.00773541	-0.01066879	
-0.004963891	0.001944328	-0.09167703	0.181411	0.00773541	-0.01066879	-0.5951453	-0.2261934	

3.336e+10	-0.5399854	-0.1010555	-0.005535706	-0.007763639	-0.09161357	0.1815215	-0.002929542	0.004535322	
-0.005535706	-0.007763639	-0.5387346	-0.09644838	-0.003487172	0.005199254	-0.09303485	0.1814155	
-0.09161357	0.1815215	-0.003487172	0.005199254	-0.5945418	-0.2277471	0.0001670499	-0.01305693	
-0.002929542	0.004535322	-0.09303485	0.1814155	0.0001670499	-0.01305693	-0.5969234	-0.2244877	

3.338e+10	-0.5430863	-0.0976188	-0.008914669	-0.003214752	-0.09336322	0.1819776	0.0002901416	0.005416835	
-0.008914669	-0.003214752	-0.5392946	-0.094607	0.0002265489	0.006240789	-0.09447153	0.182644	
-0.09336322	0.1819776	0.0002265489	0.006240789	-0.5982455	-0.2265356	-0.007306257	-0.01069453	
0.0002901416	0.005416835	-0.09447153	0.182644	-0.007306257	-0.01069453	-0.5981439	-0.2225666	

3.34e+10	-0.5446597	-0.0928069	-0.009160616	0.00242205	-0.09469743	0.1839453	0.003394665	0.004205852	
-0.009160616	0.00242205	-0.5397954	-0.09265682	0.00378813	0.004882748	-0.09516381	0.1850099	
-0.09469743	0.1839453	0.00378813	0.004882748	-0.6016319	-0.2237449	-0.01203715	-0.00454606	
0.003394665	0.004205852	-0.09516381	0.1850099	-0.01203715	-0.00454606	-0.5990861	-0.2205395	

3.342e+10	-0.5441961	-0.08765324	-0.006174997	0.007253032	-0.09484575	0.1867896	0.005154849	0.001436642	
-0.006174997	0.007253032	-0.5401274	-0.09058017	0.005823414	0.0017684	-0.09458115	0.1878086	
-0.09484575	0.1867896	0.005823414	0.0017684	-0.6039694	-0.2197075	-0.01241847	0.003146968	
0.005154849	0.001436642	-0.09458115	0.1878086	-0.01241847	0.003146968	-0.5999175	-0.2185893	

3.344e+10	-0.5416814	-0.08337274	-0.000891374	0.009566964	-0.09349326	0.189669	0.004982512	-0.001763226	
-0.000891374	0.009566964	-0.5400679	-0.08824595	0.005702332	-0.001842462	-0.09269732	0.1902262	
-0.09349326	0.189669	0.005702332	-0.001842462	-0.6045838	-0.214926	-0.008369726	0.009672505	
0.004982512	-0.001763226	-0.09269732	0.1902262	-0.008369726	0.009672505	-0.6005734	-0.2164566	

3.346e+10	-0.5378426	-0.08114902	0.004866299	0.008385697	-0.09091966	0.1917354	0.003069349	-0.004237336	
0.004866299	0.008385697	-0.5394595	-0.08611772	0.003629119	-0.004689439	-0.09008337	0.1916105	
-0.09091966	0.1917354	0.003629119	-0.004689439	-0.6031198	-0.2103827	-0.001306579	0.01273917	
0.003069349	-0.004237336	-0.09008337	0.1916105	-0.001306579	0.01273917	-0.6007133	-0.2142589	

3.348e+10	-0.5341303	-0.08135184	0.008900434	0.003984713	-0.08786273	0.192441	0.0001486848	-0.00521218	
0.008900434	0.003984713	-0.5385321	-0.08442817	0.0003688359	-0.005906896	-0.08741319	0.1918107	
-0.08786273	0.192441	0.0003688359	-0.005906896	-0.5999827	-0.2075281	0.00629285	0.01118992	
0.0001486848	-0.00521218	-0.08741319	0.1918107	0.00629285	0.01118992	-0.6003759	-0.2122505	

3.35e+10	-0.5320959	-0.0835143	0.009543003	-0.001999374	-0.0851123	0.1917054	-0.002825347	-0.004414476	
0.009543003	-0.001999374	-0.537616	-0.08322735	-0.003045927	-0.005123813	-0.08529347	0.1910336	
-0.0851123	0.1917054	-0.003045927	-0.005123813	-0.5965296	-0.2073834	0.01163026	0.005478488	
-0.002825347	-0.004414476	-0.08529347	0.1910336	0.01163026	0.005478488	-0.5998407	-0.2110019	

3.352e+10	-0.5325506	-0.08606362	0.006513479	-0.007168769	-0.08354887	0.1899692	-0.004890706	-0.002059883	
0.006513479	-0.007168769	-0.5368726	-0.08253668	-0.005492324	-0.002507628	-0.08412025	0.1897387	
-0.08354887	0.1899692	-0.005492324	-0.002507628	-0.5945804	-0.2095015	0.01262357	-0.002303424	
-0.004890706	-0.002059883	-0.08412025	0.1897387	0.01262357	-0.002303424	-0.5996104	-0.2104506	

3.354e+10	-0.5351368	-0.08772792	0.001100507	-0.009512855	-0.08349287	0.1881463	-0.005266328	0.001134773	
0.001100507	-0.009512855	-0.5364116	-0.08217833	-0.006008086	0.001136326	-0.08398776	0.1884625	
-0.08349287	0.1881463	-0.006008086	0.001136326	-0.5951845	-0.2122869	0.008878079	-0.009160827	
-0.005266328	0.001134773	-0.08398776	0.1884625	0.008878079	-0.009160827	-0.5998788	-0.209957	

3.356e+10	-0.5388274	-0.08746403	-0.004546838	-0.008284362	-0.08471724	0.1871922	-0.003673552	0.004028698	
-0.004546838	-0.008284362	-0.5364853	-0.08209378	-0.004249858	0.004456557	-0.08474742	0.1877821	
-0.08471724	0.1871922	-0.004249858	0.004456557	-0.5981068	-0.2141532	0.00190593	-0.01250054	
-0.003673552	0.004028698	-0.08474742	0.1877821	0.00190593	-0.01250054	-0.6004653	-0.2093392	

3.358e+10	-0.5424591	-0.08494683	-0.008378238	-0.004124421	-0.08647909	0.1876738	-0.0006312807	0.005443518	
-0.008378238	-0.004124421	-0.5373794	-0.08213462	-0.0008399735	0.006093983	-0.08604203	0.1881055	
-0.08647909	0.1876738	-0.0008399735	0.006093983	-0.6023039	-0.2142339	-0.005600246	-0.01119319	
-0.0006312807	0.005443518	-0.08604203	0.1881055	-0.005600246	-0.01119319	-0.601278	-0.208799	

3.36e+10	-0.5449677	-0.08076542	-0.00916152	0.00138555	-0.08776851	0.1896007	0.002657919	0.004772594	
-0.00916152	0.00138555	-0.5391336	-0.08144005	0.002841493	0.005393249	-0.08708453	0.1895968	
-0.08776851	0.1896007	0.002841493	0.005393249	-0.6066463	-0.2123256	-0.01090472	-0.005886324	
0.002657919	0.004772594	-0.08708453	0.1895968	-0.01090472	-0.005886324	-0.6025533	-0.2084173	

3.362e+10	-0.5455792	-0.07580243	-0.006726046	0.006342739	-0.08779592	0.1923836	0.004885788	0.002323183	
-0.006726046	0.006342739	-0.5411855	-0.07981881	0.005357072	0.002726739	-0.08720814	0.1918931	
-0.08779592	0.1923836	0.005357072	0.002726739	-0.6102084	-0.2083263	-0.01221225	0.001397888	
0.004885788	0.002323183	-0.08720814	0.1918931	-0.01221225	0.001397888	-0.6044733	-0.2076649	

3.364e+10	-0.5440532	-0.07094987	-0.001899972	0.009078822	-0.08645316	0.1950927	0.005266759	-0.0008910326	
-0.001899972	0.009078822	-0.5427848	-0.07686314	0.005870084	-0.00080335	-0.08627833	0.1942403	
-0.08645316	0.1950927	0.005870084	-0.00080335	-0.6119108	-0.2030813	-0.009187395	0.008077008	
0.005266759	-0.0008910326	-0.08627833	0.1942403	-0.009187395	0.008077008	-0.6067246	-0.2058372	

3.366e+10	-0.5407477	-0.06754539	0.003696813	0.008576485	-0.08398461	0.1969944	0.00378619	-0.003681395	
0.003696813	0.008576485	-0.5432557	-0.07316143	0.004347198	-0.003936271	-0.08441079	0.1960939	
-0.08398461	0.1969944	0.004347198	-0.003936271	-0.6111746	-0.1975218	-0.002930574	0.01186855	
0.00378619	-0.003681395	-0.08441079	0.1960939	-0.002930574	0.01186855	-0.6084986	-0.2030105	

3.368e+10	-0.5368899	-0.06639743	0.008047772	0.004870641	-0.08110531	0.1976569	0.001052197	-0.005142765	
0.008047772	0.004870641	-0.5424229	-0.06967844	0.001383878	-0.005682929	-0.08213893	0.1971321	
-0.08110531	0.1976569	0.001383878	-0.005682929	-0.6080814	-0.193479	0.004413921	0.01143894	
0.001052197	-0.005142765	-0.08213893	0.1971321	0.004413921	0.01143894	-0.6091921	-0.1997032	

3.37e+10	-0.534002	-0.06764953	0.009414452	-0.0007590234	-0.07861747	0.1970562	-0.00201577	-0.004856907	
0.009414452	-0.0007590234	-0.5405602	-0.06694712	-0.002062699	-0.005508146	-0.07995666	0.1973045	
-0.07861747	0.1970562	-0.002062699	-0.005508146	-0.6040318	-0.1919583	0.01024671	0.006825702	
-0.00201577	-0.004856907	-0.07995666	0.1973045	0.01024671	0.006825702	-0.6087978	-0.196519	

3.372e+10	-0.5332159	-0.06991519	0.007161379	-0.006135876	-0.07711302	0.1956627	-0.004441785	-0.002908838	
0.007161379	-0.006135876	-0.5381907	-0.06531885	-0.004877547	-0.003406422	-0.07809149	0.196835	
-0.07711302	0.1956627	-0.004877547	-0.003406422	-0.6008587	-0.1933775	0.01233382	-0.0003905364	
-0.004441785	-0.002908838	-0.07809149	0.196835	0.01233382	-0.0003905364	-0.6076202	-0.1942669	

3.374e+10	-0.534619	-0.07180831	0.0021764	-0.009103146	-0.07688649	0.1941931	-0.005386092	0.0001316332	
0.0021764	-0.009103146	-0.5358975	-0.06504054	-0.006026697	6.311144e-06	-0.0768909	0.1959005	
-0.07688649	0.1941931	-0.006026697	6.311144e-06	-0.6000871	-0.1963706	0.009783409	-0.007489455	
-0.005386092	0.0001316332	-0.0768909	0.1959005	0.009783409	-0.007489455	-0.60618	-0.1929905	

3.376e+10	-0.5374905	-0.07228951	-0.003511449	-0.008549043	-0.0777493	0.1934075	-0.004398889	0.00324907	
-0.003511449	-0.008549043	-0.5344584	-0.06609673	-0.004958405	0.003528968	-0.07659469	0.1948457	
-0.0777493	0.1934075	-0.004958405	0.003528968	-0.6020022	-0.1990932	0.003571037	-0.0117169	
-0.004398889	0.00324907	-0.07659469	0.1948457	0.003571037	-0.0117169	-0.6048936	-0.192581	

3.378e+10	-0.5408382	-0.07101064	-0.007701881	-0.004848256	-0.0789806	0.1938261	-0.001721274	0.005253821	
-0.007701881	-0.004848256	-0.5346747	-0.06782956	-0.001987595	0.005775669	-0.0771002	0.1942375	
-0.0789806	0.1938261	-0.001987595	0.005775669	-0.6057809	-0.2003429	-0.003858843	-0.01150616	
-0.001721274	0.005253821	-0.0771002	0.1942375	-0.003858843	-0.01150616	-0.6042578	-0.1931919	

3.38e+10	-0.5436353	-0.06790607	-0.008954579	0.0004583201	-0.0798683	0.1954187	0.001660598	0.005299622	
-0.008954579	0.0004583201	-0.5367417	-0.06885342	0.001733016	0.005838215	-0.0780499	0.1945476	
-0.0798683	0.1954187	0.001733016	0.005838215	-0.6103229	-0.1993664	-0.009688041	-0.007082787	
0.001660598	0.005299622	-0.0780499	0.1945476	-0.009688041	-0.007082787	-0.6048961	-0.1944438	

3.382e+10	-0.5450195	-0.06344653	-0.007005435	0.005433973	-0.07978589	0.1976756	0.004417605	0.003350229	
-0.007005435	0.005433973	-0.5399366	-0.0683056	0.004749169	0.003737227	-0.078844	0.1958343	
-0.07978589	0.1976756	0.004749169	0.003737227	-0.6144857	-0.1961074	-0.01186677	-0.0002299256	
0.004417605	0.003350229	-0.078844	0.1958343	-0.01186677	-0.0002299256	-0.6071604	-0.1954056	

3.384e+10	-0.5444677	-0.05885969	-0.002640718	0.008411106	-0.07848589	0.1998616	0.005512812	0.0001961435	
-0.002640718	0.008411106	-0.5430367	-0.06581083	0.00598144	0.0003435784	-0.07882265	0.1977711	
-0.07848589	0.1998616	0.00598144	0.0003435784	-0.6171051	-0.191144	-0.009786184	0.006533979	
0.005512812	0.0001961435	-0.07882265	0.1977711	-0.009786184	0.006533979	-0.6106084	-0.19487	

3.386e+10	-0.5421307	-0.05516323	0.002642521	0.008407605	-0.0764265	0.2013	0.004615444	-0.002972285	
0.002642521	0.008407605	-0.5449379	-0.06170248	0.005088606	-0.003097085	-0.07795442	0.1997367	
-0.0764265	0.2013	0.005088606	-0.003097085	-0.6173249	-0.1855587	-0.004292392	0.01090245	
0.004615444	-0.002972285	-0.07795442	0.1997367	-0.004292392	0.01090245	-0.6140727	-0.1924387	

3.388e+10	-0.5389284	-0.05322228	0.007019545	0.005370925	-0.07420044	0.2017796	0.002111559	-0.005058257	
0.007019545	0.005370925	-0.5451075	-0.05700455	0.002441481	-0.005430514	-0.0764162	0.2013788	
-0.07420044	0.2017796	0.002441481	-0.005430514	-0.6151081	-0.1808029	0.002703548	0.01140391	
0.002111559	-0.005058257	-0.0764162	0.2013788	0.002703548	0.01140391	-0.6163862	-0.1884482	

3.39e+10	-0.5361042	-0.05322683	0.008860663	0.0003075941	-0.07240477	0.2014429	-0.001123911	-0.005384554	
0.008860663	0.0003075941	-0.5434902	-0.05281088	-0.001070926	-0.005887086	-0.0745653	0.2024445	
-0.07240477	0.2014429	-0.001070926	-0.005887086	-0.6114054	-0.1783242	0.008791177	0.007809564	
-0.001123911	-0.005384554	-0.0745653	0.2024445	0.008791177	0.007809564	-0.6169489	-0.1839205	

3.392e+10	-0.5347194	-0.0545034	0.007382069	-0.00491932	-0.07129613	0.2007771	-0.004011798	-0.003835098	
0.007382069	-0.00491932	-0.5405827	-0.04967257	-0.004271038	-0.004266568	-0.07250237	0.2029376	
-0.07129613	0.2007771	-0.004271038	-0.004266568	-0.6079437	-0.1785817	0.01172783	0.001293998	
-0.004011798	-0.003835098	-0.07250237	0.2029376	0.01172783	0.001293998	-0.6158355	-0.1798496	

3.394e+10	-0.5350521	-0.05585861	0.003091963	-0.008278639	-0.07088722	0.2001793	-0.005554364	-0.0008797249	
0.003091963	-0.008278639	-0.5370432	-0.04840226	-0.006006404	-0.001055849	-0.07056571	0.202751	
-0.07088722	0.2001793	-0.006006404	-0.001055849	-0.6062636	-0.180735	0.01030488	-0.005769358	
-0.005554364	-0.0008797249	-0.07056571	0.202751	0.01030488	-0.005769358	-0.613546	-0.176975	

3.396e+10	-0.5367336	-0.05650769	-0.002321001	-0.008443607	-0.07098348	0.2000073	-0.005131497	0.002503907	
-0.002321001	-0.008443607	-0.5339534	-0.04925139	-0.005563098	0.002628477	-0.06910169	0.2019445	
-0.07098348	0.2000073	-0.005563098	0.002628477	-0.6069917	-0.183146	0.004996571	-0.01066121	
-0.005131497	0.002503907	-0.06910169	0.2019445	0.004996571	-0.01066121	-0.6107557	-0.1758238	

3.398e+10	-0.5391289	-0.05571355	-0.006718081	-0.005424681	-0.07129736	0.2004476	-0.002776828	0.005082505	
-0.006718081	-0.005424681	-0.5325788	-0.05146914	-0.003025179	0.005397426	-0.06853792	0.200869	
-0.07129736	0.2004476	-0.003025179	0.005397426	-0.6096481	-0.1847604	-0.002132157	-0.01149289	
-0.002776828	0.005082505	-0.06853792	0.200869	-0.002132157	-0.01149289	-0.6084173	-0.1765313	

3.4e+10	-0.5414268	-0.05356443	-0.008472177	-0.0005196648	-0.07136457	0.2015273	0.0007067392	0.00580957	
-0.008472177	-0.0005196648	-0.5336226	-0.05392114	0.0006716466	0.006158584	-0.06888459	0.2001689	
-0.07136457	0.2015273	0.0006716466	0.006158584	-0.6134394	-0.1846243	-0.008320529	-0.008029431	
0.0007067392	0.00580957	-0.06888459	0.2001689	-0.008320529	-0.008029431	-0.6076511	-0.1787262	

3.402e+10	-0.5428691	-0.05036044	-0.007111735	0.004368327	-0.07090572	0.202929	0.003981266	0.00433187	
-0.007111735	0.004368327	-0.5367007	-0.05508396	0.004103382	0.004619639	-0.0697308	0.2003522	
-0.07090572	0.202929	0.004103382	0.004619639	-0.617355	-0.1825173	-0.01128572	-0.001733005	
0.003981266	0.00433187	-0.0697308	0.2003522	-0.01128572	-0.001733005	-0.6092489	-0.1810462	

3.404e+10	-0.5429384	-0.04654624	-0.003300785	0.007544428	-0.06972318	0.2042261	0.005763537	0.001210576	
-0.003300785	0.007544428	-0.5405838	-0.05395744	0.005988898	0.001404132	-0.07034939	0.2014497	
-0.06972318	0.2042261	0.005988898	0.001404132	-0.6203462	-0.1785847	-0.01011765	0.004991667	
0.005763537	0.001210576	-0.07034939	0.2014497	-0.01011765	0.004991667	-0.6129137	-0.1820188	

3.406e+10	-0.5415902	-0.04319479	0.001566528	0.00801576	-0.06822228	0.2049643	0.00539445	-0.002347253	
0.001566528	0.00801576	-0.5438771	-0.05064544	0.00568943	-0.002276301	-0.07032567	0.2030884	
-0.06822228	0.2049643	0.00568943	-0.002276301	-0.6214778	-0.1737536	-0.005412604	0.009784725	
0.00539445	-0.002347253	-0.07032567	0.2030884	-0.005412604	0.009784725	-0.6173509	-0.18076	

3.408e+10	-0.5394216	-0.04103274	0.005835136	0.005676602	-0.06689456	0.205149	0.003051117	-0.005021759	
0.005835136	0.005676602	-0.5455837	-0.04600574	0.003359491	-0.005112975	-0.06968644	0.2048197	
-0.06689456	0.205149	0.003359491	-0.005112975	-0.6204842	-0.1690471	0.001121487	0.01107737	
0.003051117	-0.005021759	-0.06968644	0.2048197	0.001121487	0.01107737	-0.6210575	-0.1772645	

3.41e+10	-0.5373502	-0.04030925	0.008035312	0.001312506	-0.06601138	0.2051093	-0.0003910228	-0.005862374	
0.008035312	0.001312506	-0.545325	-0.04081176	-0.000169545	-0.006119552	-0.06843436	0.2064428	
-0.06601138	0.2051093	-0.000169545	-0.006119552	-0.6178739	-0.1659056	0.00724958	0.008447781	
-0.0003910228	-0.005862374	-0.06843436	0.2064428	0.00724958	0.008447781	-0.6230196	-0.1724274	

3.412e+10	-0.5361694	-0.04040889	0.007335249	-0.003560698	-0.06546202	0.2052433	-0.003689824	-0.00458266	
0.007335249	-0.003560698	-0.5431406	-0.03626579	-0.003651879	-0.004929831	-0.06673592	0.2077335	
-0.06546202	0.2052433	-0.003651879	-0.004929831	-0.6149376	-0.1648871	0.01080807	0.002760367	
-0.003689824	-0.00458266	-0.06673592	0.2077335	0.01080807	0.002760367	-0.6229344	-0.167381	

3.414e+10	-0.536104	-0.04087449	0.003918547	-0.007157669	-0.06501187	0.2056905	-0.00566986	-0.001645101	
0.003918547	-0.007157669	-0.5394845	-0.03327982	-0.005836112	-0.001948206	-0.06465632	0.2084843	
-0.06501187	0.2056905	-0.005836112	-0.001948206	-0.6129884	-0.1657413	0.01043872	-0.003992006	
-0.00566986	-0.001645101	-0.06465632	0.2084843	0.01043872	-0.003992006	-0.6210832	-0.163054	

3.416e+10	-0.536943	-0.04065569	-0.0009795024	-0.008085889	-0.06445765	0.2063154	-0.005620055	0.001917602	
-0.0009795024	-0.008085889	-0.5352868	-0.03245823	-0.00591398	0.001764158	-0.06249614	0.2084427	
-0.06445765	0.2063154	-0.00591398	0.001764158	-0.6127743	-0.1674062	0.0061925	-0.009303543	
-0.005620055	0.001917602	-0.06249614	0.2084427	0.0061925	-0.009303543	-0.6179268	-0.1604973	

3.418e+10	-0.5382069	-0.03971233	-0.005480554	-0.00595797	-0.06372527	0.2070136	-0.003520467	0.004841952	
-0.005480554	-0.00595797	-0.5319787	-0.03393537	-0.003831343	0.004861781	-0.06082815	0.2076125	
-0.06372527	0.2070136	-0.003831343	0.004861781	-0.6142665	-0.1686206	-0.0003630337	-0.01113708	
-0.003520467	0.004841952	-0.06082815	0.2076125	-0.0003630337	-0.01113708	-0.6144749	-0.1599442	

3.42e+10	-0.539403	-0.03800255	-0.007839198	-0.001627701	-0.06282866	0.2077055	-7.051479e-05	0.006038888	
-0.007839198	-0.001627701	-0.5308966	-0.03693768	-0.0003281948	0.006196114	-0.06009398	0.2064413	
-0.06282866	0.2077055	-0.0003281948	0.006196114	-0.6168822	-0.1688756	-0.006722116	-0.008795343	
-7.051479e-05	0.006038888	-0.06009398	0.2064413	-0.006722116	-0.008795343	-0.6120081	-0.1615852	

3.422e+10	-0.5400987	-0.03558928	-0.00722255	0.003174989	-0.06178073	0.2083012	0.003478279	0.004989706	
-0.00722255	0.003174989	-0.5325147	-0.03966613	0.003311565	0.005255828	-0.06028202	0.2056154	
-0.06178073	0.2083012	0.003311565	0.005255828	-0.6200067	-0.1675228	-0.01047254	-0.003245799	
0.003478279	0.004989706	-0.06028202	0.2056154	-0.01047254	-0.003245799	-0.611819	-0.1645088	

3.424e+10	-0.539961	-0.03302543	-0.004011295	0.006649599	-0.06061082	0.2086238	0.005757474	0.002033402	
-0.004011295	0.006649599	-0.5360983	-0.04068584	0.005736924	0.002381006	-0.06101474	0.205587	
-0.06061082	0.2086238	0.005736924	0.002381006	-0.6227508	-0.1647704	-0.01031581	0.00333987	
0.005757474	0.002033402	-0.06101474	0.205587	-0.01031581	0.00333987	-0.61431	-0.1670195	

3.426e+10	-0.5390263	-0.03070251	0.0005081724	0.00764082	-0.05957561	0.208589	0.005864041	-0.001707214	
0.0005081724	0.00764082	-0.5402466	-0.03910448	0.006053837	-0.001361738	-0.06164821	0.2064	
-0.05957561	0.208589	0.006053837	-0.001361738	-0.6243151	-0.1608777	-0.006482017	0.008558338	
0.005864041	-0.001707214	-0.06164821	0.2064	-0.006482017	0.008558338	-0.6186255	-0.1674973	

3.428e+10	-0.5377519	-0.0291236	0.004722363	0.00592705	-0.05896501	0.2083779	0.00376141	-0.00478918	
0.004722363	0.00592705	-0.5435661	-0.03543665	0.004156036	-0.004595544	-0.06192096	0.2078422	
-0.05896501	0.2083779	0.004156036	-0.004595544	-0.6241258	-0.1570012	-0.0004395779	0.01065694	
0.00376141	-0.00478918	-0.06192096	0.2078422	-0.0004395779	0.01065694	-0.6231675	-0.1655791	

3.43e+10	-0.5367736	-0.02850689	0.007212162	0.002171575	-0.05889499	0.2084081	0.0002808608	-0.006049884	
0.007212162	0.002171575	-0.545164	-0.03038395	0.0007483887	-0.006137641	-0.06158467	0.209652	
-0.05889499	0.2084081	0.0007483887	-0.006137641	-0.6224966	-0.1538217	0.005700831	0.008988619	
0.0002808608	-0.006049884	-0.06158467	0.209652	0.005700831	0.008988619	-0.6266004	-0.1614666	

3.432e+10	-0.5365437	-0.02811906	0.007148579	-0.002324783	-0.05895958	0.2090549	-0.003243704	-0.005064245	
0.007148579	-0.002324783	-0.5445745	-0.02482423	-0.002911237	-0.005433988	-0.06047213	0.2115881	
-0.05895958	0.2090549	-0.002911237	-0.005433988	-0.6203289	-0.1522526	0.009829165	0.004123325	
-0.003243704	-0.005064245	-0.06047213	0.2115881	0.009829165	0.004123325	-0.628164	-0.1562696	

3.434e+10	-0.537047	-0.02748755	0.004533801	-0.006007608	-0.05874727	0.2102674	-0.005527809	-0.002264866	
0.004533801	-0.006007608	-0.5418254	-0.02015192	-0.005484855	-0.002764595	-0.05856563	0.2132024	
-0.05874727	0.2102674	-0.005484855	-0.002764595	-0.6187925	-0.1522191	0.01044864	-0.0022776	
-0.005527809	-0.002264866	-0.05856563	0.2132024	0.01044864	-0.0022776	-0.6276372	-0.1511459	

3.436e+10	-0.5378063	-0.02611494	0.0002425929	-0.0075433	-0.05794916	0.2116813	-0.0058056	0.001298769	
0.0002425929	-0.0075433	-0.5375057	-0.01717352	-0.00605842	0.0008730317	-0.0560667	0.2140179	
-0.05794916	0.2116813	-0.00605842	0.0008730317	-0.6185672	-0.1529654	0.007248485	-0.007915602	
-0.0058056	0.001298769	-0.0560667	0.2140179	0.007248485	-0.007915602	-0.6252396	-0.1468789	

3.438e+10	-0.5383022	-0.02406759	-0.004187703	-0.006293463	-0.05652718	0.2128933	-0.004026715	0.004380554	
-0.004187703	-0.006293463	-0.5328511	-0.01693171	-0.004464495	0.004170498	-0.05361083	0.2137494	
-0.05652718	0.2128933	-0.004464495	0.004170498	-0.6196227	-0.1535707	0.001329144	-0.0106786	
-0.004026715	0.004380554	-0.05361083	0.2137494	0.001329144	-0.0106786	-0.6215583	-0.1445268	

3.44e+10	-0.5382085	-0.02180486	-0.007058472	-0.002660137	-0.05476405	0.2136014	-0.0007982776	0.005923654	
-0.007058472	-0.002660137	-0.5295342	-0.01913951	-0.00128242	0.005976867	-0.05178072	0.2125743	
-0.05476405	0.2136014	-0.00128242	0.005976867	-0.621526	-0.1531216	-0.005121747	-0.009468523	
-0.0007982776	0.005923654	-0.05178072	0.2125743	-0.005121747	-0.009468523	-0.6178253	-0.1446821	

3.442e+10	-0.5375022	-0.01961537	-0.007225882	0.001952399	-0.05297523	0.213743	0.002777967	0.00533779	
-0.007225882	0.001952399	-0.5288801	-0.02253653	0.002376657	0.00564998	-0.0511442	0.2110824	
-0.05297523	0.213743	0.002376657	0.00564998	-0.6236392	-0.1516809	-0.009648784	-0.004712282	
0.002777967	0.00533779	-0.0511442	0.2110824	-0.009648784	-0.004712282	-0.6156513	-0.1470095	

3.444e+10	-0.5363087	-0.01797861	-0.00467487	0.005721755	-0.0514577	0.2133523	0.005388353	0.002753445	
-0.00467487	0.005721755	-0.5310322	-0.02541441	0.005208005	0.003270396	-0.05163383	0.210057	
-0.0514577	0.2133523	0.005208005	0.003270396	-0.6253713	-0.1494459	-0.01053765	0.001750166	
0.005388353	0.002753445	-0.05163383	0.210057	-0.01053765	0.001750166	-0.6161662	-0.1502051	

3.446e+10	-0.535	-0.01699999	-0.0004919142	0.007254842	-0.05051868	0.2125488	0.005994651	-0.0008997683	
-0.0004919142	0.007254842	-0.5350051	-0.02607252	0.006154769	-0.0003298183	-0.0526327	0.2100049	
-0.05051868	0.2125488	0.006154769	-0.0003298183	-0.6263241	-0.1463265	-0.007541343	0.007473208	
0.005994651	-0.0008997683	-0.0526327	0.2100049	-0.007541343	0.007473208	-0.6192975	-0.1523433	

3.448e+10	-0.5341434	-0.01687945	0.003706108	0.006120476	-0.05032907	0.2117511	0.004333974	-0.004211811	
0.003706108	0.006120476	-0.539287	-0.02420594	0.004833065	-0.003824463	-0.05355074	0.2110109	
-0.05032907	0.2117511	0.004833065	-0.003824463	-0.6260654	-0.1432731	-0.001847128	0.01040126	
0.004333974	-0.004211811	-0.05355074	0.2110109	-0.001847128	0.01040126	-0.623776	-0.1521755	

3.45e+10	-0.5342404	-0.01697585	0.006448601	0.002874609	-0.05090147	0.2115319	0.001072939	-0.005901661	
0.006448601	0.002874609	-0.5425119	-0.01998782	0.001733237	-0.005894353	-0.05390175	0.2128614	
-0.05090147	0.2115319	0.001733237	-0.005894353	-0.624888	-0.1410538	0.004459295	0.009546887	
0.001072939	-0.005901661	-0.05390175	0.2128614	0.004459295	0.009546887	-0.6280989	-0.1495184	

3.452e+10	-0.5353515	-0.01663704	0.006882345	-0.001286753	-0.05168213	0.2123307	-0.002504906	-0.005381593	
0.006882345	-0.001286753	-0.5437586	-0.01442876	-0.001964953	-0.005781933	-0.05328169	0.2151403	
-0.05168213	0.2123307	-0.001964953	-0.005781933	-0.6235961	-0.1401904	0.009141954	0.005237554	
-0.002504906	-0.005381593	-0.05328169	0.2151403	0.009141954	0.005237554	-0.631049	-0.1453412	

3.454e+10	-0.53696	-0.01537382	0.004920627	-0.004957868	-0.05191156	0.2140861	-0.005081283	-0.002943148	
0.004920627	-0.004957868	-0.5425685	-0.008807508	-0.004884087	-0.003587718	-0.05155511	0.2172465	
-0.05191156	0.2140861	-0.004884087	-0.003587718	-0.6231522	-0.1402049	0.01050219	-0.001003273	
-0.005081283	-0.002943148	-0.05155511	0.2172465	0.01050219	-0.001003273	-0.6321761	-0.1400343	

3.456e+10	-0.5382583	-0.01277876	0.001211401	-0.006901185	-0.05107241	0.2162201	-0.005805085	0.000464007	
0.001211401	-0.006901185	-0.5391441	-0.004140411	-0.006016574	-0.0001743638	-0.04897198	0.2185505	
-0.05107241	0.2162201	-0.006016574	-0.0001743638	-0.6238986	-0.1402584	0.008003139	-0.006910806	
-0.005805085	0.000464007	-0.04897198	0.2185505	0.008003139	-0.006910806	-0.6311907	-0.1349699	

3.458e+10	-0.5385563	-0.00949456	-0.003004316	-0.00637583	-0.04923876	0.2179574	-0.004510024	0.003657361	
-0.003004316	-0.00637583	-0.5343564	-0.001958527	-0.005047035	0.003248853	-0.04615264	0.2186317	
-0.04923876	0.2179574	-0.005047035	0.003248853	-0.6253967	-0.1395635	0.00250934	-0.01030076	
-0.004510024	0.003657361	-0.04615264	0.2186317	0.00250934	-0.01030076	-0.6283024	-0.1310303	

3.46e+10	-0.5375843	-0.006192801	-0.006184637	-0.003453644	-0.04679387	0.2188329	-0.001652089	0.0055881	
-0.006184637	-0.003453644	-0.5297245	-0.00240383	-0.00233912	0.005548276	-0.04387005	0.2175712	
-0.04679387	0.2188329	-0.00233912	0.005548276	-0.6269455	-0.1378429	-0.00397025	-0.009856419	
-0.001652089	0.0055881	-0.04387005	0.2175712	-0.00397025	-0.009856419	-0.6243946	-0.1291923	

3.462e+10	-0.5355676	-0.003645549	-0.007035539	0.0008314658	-0.04445477	0.2186976	0.001839716	0.005581734	
-0.007035539	0.0008314658	-0.5269248	-0.005150245	0.00122775	0.005947397	-0.04279255	0.2159204	
-0.04445477	0.2186976	0.00122775	0.005947397	-0.6279743	-0.1356581	-0.008987815	-0.005679666	
0.001839716	0.005581734	-0.04279255	0.2159204	-0.008987815	-0.005679666	-0.6209352	-0.1300595	

3.464e+10	-0.5330753	-0.002232954	-0.005161863	0.004779938	-0.04261237	0.2178006	0.004760801	0.003545878	
-0.005161863	0.004779938	-0.5269521	-0.008462012	0.004455406	0.004226692	-0.04294791	0.2145435	
-0.04261237	0.2178006	0.004455406	0.004226692	-0.6283768	-0.1331072	-0.0105873	0.0006623862	
0.004760801	0.003545878	-0.04294791	0.2145435	-0.0105873	0.0006623862	-0.6195075	-0.1326978	

3.466e+10	-0.5308449	-0.002316263	-0.001355599	0.006802646	-0.04165209	0.2164997	0.005980277	0.0001349805	
-0.001355599	0.006802646	-0.5295196	-0.01081448	0.006138278	0.0009006429	-0.04398898	0.2141079	
-0.04165209	0.2164997	0.006138278	0.0009006429	-0.6280936	-0.130758	-0.008153091	0.006701792	
0.005980277	0.0001349805	-0.04398898	0.2141079	-0.008153091	0.006701792	-0.6207479	-0.1355719	

3.468e+10	-0.529689	-0.00342063	0.002805906	0.006200249	-0.04174311	0.2153516	0.004956978	-0.003376859	
0.002805906	0.006200249	-0.5334888	-0.01089554	0.005563069	-0.002835014	-0.04500758	0.214877	
-0.04174311	0.2153516	0.005563069	-0.002835014	-0.627222	-0.1287502	-0.002677072	0.01013231	
0.004956978	-0.003376859	-0.04500758	0.214877	-0.002677072	0.01013231	-0.6240677	-0.1368677	

3.47e+10	-0.5301498	-0.004626547	0.005749846	0.003377598	-0.04260981	0.2149983	0.002067038	-0.005611395	
0.005749846	0.003377598	-0.5374222	-0.008536324	0.002899369	-0.005539622	-0.04545221	0.2166229	
-0.04260981	0.2149983	0.002899369	-0.005539622	-0.6260926	-0.1278352	0.003705683	0.009718473	
0.002067038	-0.005611395	-0.04545221	0.2166229	0.003705683	0.009718473	-0.6281671	-0.1360441	

3.472e+10	-0.5320955	-0.005107907	0.006532999	-0.0005038568	-0.04368673	0.2158841	-0.00154438	-0.005731682	
0.006532999	-0.0005038568	-0.5400941	-0.004147706	-0.0008237425	-0.006180245	-0.044959	0.2188293	
-0.04368673	0.2158841	-0.0008237425	-0.006180245	-0.6255047	-0.1277152	0.008604646	0.005699395	
-0.00154438	-0.005731682	-0.044959	0.2188293	0.008604646	0.005699395	-0.6318526	-0.1331522	

3.474e+10	-0.5347463	-0.00382663	0.005030171	-0.004080625	-0.04400143	0.2178303	-0.004510827	-0.003776991	
0.005030171	-0.004080625	-0.5407084	0.001321202	-0.004196312	-0.004573057	-0.0432519	0.2208648	
-0.04400143	0.2178303	-0.004196312	-0.004573057	-0.6260577	-0.1280558	0.01023742	-0.0003671234	
-0.004510827	-0.003776991	-0.0432519	0.2208648	0.01023742	-0.0003671234	-0.6342788	-0.1289302	

3.476e+10	-0.5369692	-0.000937189	0.001812621	-0.006189857	-0.04310584	0.220119	-0.005817641	-0.000543783	
0.001812621	-0.006189857	-0.5389798	0.006585208	-0.00603439	-0.001376519	-0.04075942	0.2220806	
-0.04310584	0.220119	-0.00603439	-0.001376519	-0.6277665	-0.1278346	0.008067032	-0.00620438	
-0.005817641	-0.000543783	-0.04075942	0.2220806	0.008067032	-0.00620438	-0.6349283	-0.1238776	

3.478e+10	-0.53787	0.003285702	-0.002055547	-0.006125612	-0.04112509	0.2218911	-0.005102829	0.002833203	
-0.002055547	-0.006125612	-0.5353159	0.01055899	-0.005771295	0.002281523	-0.03811083	0.2220939	
-0.04112509	0.2218911	-0.005771295	0.002281523	-0.629925	-0.1264432	0.002943941	-0.009689651	
-0.005102829	0.002833203	-0.03811083	0.2220939	0.002943941	-0.009689651	-0.6335247	-0.1192477	

3.48e+10	-0.5369963	0.007592113	-0.005240574	-0.003829905	-0.038581	0.2226419	-0.002630337	0.005250372	
-0.005240574	-0.003829905	-0.5307712	0.01213757	-0.003503008	0.005193423	-0.03604717	0.2210704	
-0.038581	0.2226419	-0.003503008	0.005193423	-0.6316503	-0.1238104	-0.003238257	-0.009561523	
-0.002630337	0.005250372	-0.03604717	0.2210704	-0.003238257	-0.009561523	-0.6304781	-0.1159419	

3.482e+10	-0.5345047	0.01110295	-0.006510833	-4.659134e-05	-0.03623243	0.2223776	0.0008272064	0.005887371	
-0.006510833	-4.659134e-05	-0.5268106	0.01121908	7.62428e-05	0.006358343	-0.0351092	0.2196113	
-0.03623243	0.2223776	7.62428e-05	0.006358343	-0.6323755	-0.1207465	-0.008194073	-0.005844775	
0.0008272064	0.005887371	-0.0351092	0.2196113	-0.008194073	-0.005844775	-0.6268895	-0.1149427	

3.484e+10	-0.5310769	0.01316473	-0.005276548	0.003787396	-0.03454537	0.2214619	0.004113131	0.00441558	
-0.005276548	0.003787396	-0.5247148	0.00888411	0.003777276	0.005249093	-0.03529533	0.2185483	
-0.03454537	0.2214619	0.003777276	0.005249093	-0.6320723	-0.1176042	-0.0100207	7.6955e-05	
0.004113131	0.00441558	-0.03529533	0.2185483	-0.0100207	7.6955e-05	-0.6242964	-0.1160446	

3.486e+10	-0.5276633	0.01326442	-0.001996935	0.00610963	-0.03371837	0.2203248	0.005989577	0.001238092	
-0.001996935	0.00610963	-0.5249941	0.006139407	0.006212529	0.002121574	-0.03608031	0.2184403	
-0.03371837	0.2203248	0.006212529	0.002121574	-0.6308857	-0.1149926	-0.007995425	0.005920624	
0.005989577	0.001238092	-0.03608031	0.2184403	-0.007995425	0.005920624	-0.6237008	-0.1181878	

3.488e+10	-0.5254209	0.01164822	0.001951473	0.005999603	-0.03368331	0.2194298	0.005642088	-0.002500111	
0.001951473	0.005999603	-0.5272907	0.00450956	0.006353023	-0.001913373	-0.03669675	0.2193617	
-0.03368331	0.2194298	0.006353023	-0.001913373	-0.6291568	-0.1133165	-0.002944116	0.009394687	
0.005642088	-0.002500111	-0.03669675	0.2193617	-0.002944116	0.009394687	-0.6251779	-0.1200508	

3.49e+10	-0.5251551	0.009441674	0.00496778	0.003630675	-0.03424142	0.2192118	0.003139426	-0.005337354	
0.00496778	0.003630675	-0.530659	0.004723615	0.004067726	-0.005287202	-0.0366528	0.2209708	
-0.03424142	0.2192118	0.004067726	-0.005287202	-0.6274345	-0.1130063	0.003109523	0.009199906	
0.003139426	-0.005337354	-0.0366528	0.2209708	0.003109523	0.009199906	-0.6280455	-0.1206015	

3.492e+10	-0.5269834	0.007726533	0.005985581	8.608869e-05	-0.03488034	0.2200021	-0.0005409414	-0.006160697	
0.005985581	8.608869e-05	-0.533963	0.007083169	0.000237277	-0.006674484	-0.03572337	0.2228043	
-0.03488034	0.2200021	0.000237277	-0.006674484	-0.6266072	-0.1136479	0.00779028	0.005529309	
-0.0005409414	-0.006160697	-0.03572337	0.2228043	0.00779028	0.005529309	-0.6314062	-0.1194196	

3.494e+10	-0.5301417	0.007865387	0.004834004	-0.003268685	-0.03489184	0.2215999	-0.00398113	-0.004706031	
0.004834004	-0.003268685	-0.5361343	0.0111368	-0.003662011	-0.005579123	-0.03390885	0.2242913	
-0.03489184	0.2215999	-0.003662011	-0.005579123	-0.6272837	-0.1147886	0.009377491	-7.611388e-05	
-0.00398113	-0.004706031	-0.03390885	0.2242913	0.009377491	-7.611388e-05	-0.6344016	-0.1167779	

3.496e+10	-0.5333617	0.01024107	0.00207914	-0.005328321	-0.03388499	0.2233947	-0.005947215	-0.001577987	
0.00207914	-0.005328321	-0.5364782	0.01610973	-0.006204762	-0.002462905	-0.03155428	0.2249477	
-0.03388499	0.2233947	-0.006204762	-0.002462905	-0.6294478	-0.1151846	0.00743533	-0.005418955	
-0.005947215	-0.001577987	-0.03155428	0.2249477	0.00743533	-0.005418955	-0.6363043	-0.1128848	

3.498e+10	-0.535409	0.01430071	-0.001289155	-0.00549634	-0.03208058	0.224651	-0.005802236	0.00210038	
-0.001289155	-0.00549634	-0.5347647	0.02082401	-0.006522611	0.001540678	-0.02934213	0.224541	
-0.03208058	0.224651	-0.006522611	0.001540678	-0.6323057	-0.1141116	0.002860097	-0.008572785	
-0.005802236	0.00210038	-0.02934213	0.224541	0.002860097	-0.008572785	-0.6365741	-0.1083543	

3.5e+10	-0.535587	0.01917108	-0.00415829	-0.00376126	-0.03001964	0.2250466	-0.003596894	0.005078197	
-0.00415829	-0.00376126	-0.5314581	0.02422632	-0.004497669	0.005042755	-0.02788879	0.2233959	
-0.03001964	0.2250466	-0.004497669	0.005042755	-0.6348457	-0.1114835	-0.002588998	-0.00851605	
-0.003596894	0.005078197	-0.02788879	0.2233959	-0.002588998	-0.00851605	-0.6350858	-0.1043408	

3.502e+10	-0.5336968	0.02386168	-0.005546497	-0.0006928189	-0.02830277	0.224765	-3.123325e-05	0.006301123	
-0.005546497	-0.0006928189	-0.5274495	0.02579659	-0.000779412	0.006787094	-0.02753599	0.2222104	
-0.02830277	0.224765	-0.000779412	0.006787094	-0.6363036	-0.1077369	-0.00695698	-0.005375026	
-3.123325e-05	0.006301123	-0.02753599	0.2222104	-0.00695698	-0.005375026	-0.6324743	-0.1016457	

3.504e+10	-0.5301665	0.02732094	-0.004909468	0.002637953	-0.02716902	0.2242502	0.003667916	0.005228416	
-0.004909468	0.002637953	-0.5239171	0.02534885	0.003334937	0.00605071	-0.02802746	0.2217357	
-0.02716902	0.2242502	0.003334937	0.00605071	-0.6363166	-0.1036307	-0.008694361	-0.0003294447	
0.003667916	0.005228416	-0.02802746	0.2217357	-0.008694361	-0.0003294447	-0.6296957	-0.1009736	

3.506e+10	-0.5258943	0.02857347	-0.002424691	0.004975762	-0.02649684	0.2238372	0.006095702	0.00213779	
-0.002424691	0.004975762	-0.5218986	0.02333418	0.006293293	0.003003095	-0.02864711	0.2223018	
-0.02649684	0.2238372	0.006293293	0.003003095	-0.6348573	-0.1000972	-0.007175693	0.004760302	
0.006095702	0.00213779	-0.02864711	0.2223018	-0.007175693	0.004760302	-0.6278483	-0.1016892	

3.508e+10	-0.522169	0.02763988	0.0009439152	0.00537515	-0.02611419	0.2236808	0.006240585	-0.001843215	
0.0009439152	0.00537515	-0.5218956	0.02105273	0.006903435	-0.001243865	-0.0287454	0.2236805	
-0.02611419	0.2236808	0.006903435	-0.001243865	-0.6323224	-0.09766268	-0.002982685	0.007964836	
0.006240585	-0.001843215	-0.0287454	0.2236805	-0.002982685	0.007964836	-0.6275056	-0.1029829	

3.51e+10	-0.5202602	0.02498989	0.003827074	0.003714655	-0.02587764	0.2238593	0.003993212	-0.005159909	
0.003827074	0.003714655	-0.5237645	0.01957173	0.004890912	-0.005051968	-0.02801606	0.2253754	
-0.02587764	0.2238593	0.004890912	-0.005051968	-0.6294734	-0.09711016	0.002232744	0.008065773	
0.003993212	-0.005159909	-0.02801606	0.2253754	0.002232744	0.008065773	-0.6286355	-0.1041827	

3.512e+10	-0.5208712	0.02210418	0.005114052	0.0007700317	-0.02558766	0.2244059	0.0002301187	-0.006511535	
0.005114052	0.0007700317	-0.5267389	0.01977494	0.00102969	-0.006952058	-0.02646267	0.2268719	
-0.02558766	0.2244059	0.00102969	-0.006952058	-0.6275001	-0.09815169	0.006412284	0.005103485	
0.0002301187	-0.006511535	-0.02646267	0.2268719	0.006412284	0.005103485	-0.6309228	-0.1044486	

3.514e+10	-0.5236624	0.02066629	0.004473776	-0.002226059	-0.02502855	0.2252638	-0.003580623	-0.005413836	
0.004473776	-0.002226059	-0.5297227	0.02201673	-0.003188469	-0.006244245	-0.024339	0.2277834	
-0.02502855	0.2252638	-0.003188469	-0.006244245	-0.6273687	-0.1002636	0.007979727	0.0003721549	
-0.003580623	-0.005413836	-0.024339	0.2277834	0.007979727	0.0003721549	-0.6337521	-0.1033266	

3.516e+10	-0.5275073	0.02137131	0.002351207	-0.0042255	-0.02397396	0.2261227	-0.006026233	-0.002344685	
0.002351207	-0.0042255	-0.5316536	0.02581617	-0.006194711	-0.003246781	-0.02196707	0.2278033	
-0.02397396	0.2261227	-0.006194711	-0.003246781	-0.6293882	-0.1019386	0.006525605	-0.004213691	
-0.006026233	-0.002344685	-0.02196707	0.2278033	0.006525605	-0.004213691	-0.6363281	-0.1007845	

3.518e+10	-0.5309259	0.02448064	-0.0004000403	-0.004694185	-0.02260524	0.2266354	-0.006271122	0.001541496	
-0.0004000403	-0.004694185	-0.5318626	0.03038761	-0.006930776	0.0009087623	-0.01997027	0.2268928	
-0.02260524	0.2266354	-0.006930776	0.0009087623	-0.6328554	-0.1020468	0.002824576	-0.00701079	
-0.006271122	0.001541496	-0.01997027	0.2268928	0.002824576	-0.00701079	-0.6378442	-0.09714821	

3.52e+10	-0.5327088	0.02941	-0.002895154	-0.003620213	-0.02129674	0.226732	-0.004261278	0.004872764	
-0.002895154	-0.003620213	-0.5302024	0.0347513	-0.005163312	0.004737939	-0.01893663	0.225416	
-0.02129674	0.226732	-0.005163312	0.004737939	-0.6366042	-0.09980339	-0.001658819	-0.007196595	
-0.004261278	0.004872764	-0.01893663	0.225416	-0.001658819	-0.007196595	-0.6378646	-0.09294068	

3.522e+10	-0.5321781	0.0348808	-0.004396788	-0.001383771	-0.02031926	0.2266008	-0.0006894807	0.006474089	
-0.004396788	-0.001383771	-0.5270744	0.0379661	-0.001504659	0.006883672	-0.01909157	0.2241183	
-0.02031926	0.2266008	-0.001504659	0.006883672	-0.639319	-0.09588911	-0.005381457	-0.004871057	
-0.0006894807	0.006474089	-0.01909157	0.2241183	-0.005381457	-0.004871057	-0.6363802	-0.08955066	

3.524e+10	-0.5292929	0.03970483	-0.004421159	0.001337353	-0.0196597	0.2265787	0.003199018	0.005726316	
-0.004421159	0.001337353	-0.5233726	0.03935258	0.002765639	0.006535408	-0.02009206	0.2237597	
-0.0196597	0.2265787	0.002765639	0.006535408	-0.640191	-0.09088468	-0.007118623	-0.0008904568	
0.003199018	0.005726316	-0.02009206	0.2237597	-0.007118623	-0.0008904568	-0.6340818	-0.0874222	

3.526e+10	-0.5247571	0.04268188	-0.002870069	0.003644589	-0.01909114	0.226828	0.005967764	0.002831916	
-0.002870069	0.003644589	-0.5201454	0.03892734	0.006083446	0.003750029	-0.02112745	0.224719	
-0.01909114	0.226828	0.006083446	0.003750029	-0.6389368	-0.08616055	-0.006271352	0.003358443	
0.005967764	0.002831916	-0.02112745	0.224719	-0.006271352	0.003358443	-0.6318932	-0.08689569	

3.528e+10	-0.5199108	0.04292717	-0.000218731	0.004634741	-0.01840119	0.2272663	0.006536292	-0.001171237	
-0.000218731	0.004634741	-0.5183535	0.03724698	0.007171558	-0.0004844187	-0.02136308	0.2267157	
-0.01840119	0.2272663	0.007171558	-0.0004844187	-0.6359488	-0.08259533	-0.003104177	0.006330819	
0.006536292	-0.001171237	-0.02136308	0.2267157	-0.003104177	0.006330819	-0.6306429	-0.08739675	

3.53e+10	-0.5163021	0.04090588	0.002517289	0.003845796	-0.01755045	0.2277247	0.004648426	-0.004770576	
0.002517289	0.003845796	-0.5183806	0.03543054	0.005575509	-0.004584176	-0.02035952	0.2290268	
-0.01755045	0.2277247	0.005575509	-0.004584176	-0.6321414	-0.08131563	0.00119726	0.006857164	
0.004648426	-0.004770576	-0.02035952	0.2290268	0.00119726	0.006857164	-0.6306787	-0.0882994	

3.532e+10	-0.5152025	0.0375629	0.004202836	0.001605075	-0.01662582	0.228145	0.001012458	-0.006590282	
0.004202836	0.001605075	-0.5200003	0.03444722	0.001877439	-0.00698913	-0.01820091	0.2309038	
-0.01662582	0.228145	0.001877439	-0.00698913	-0.6289609	-0.0823576	0.004919225	0.004732388	
0.001012458	-0.006590282	-0.01820091	0.2309038	0.004919225	0.004732388	-0.6319099	-0.08880914	

3.534e+10	-0.516893	0.03460384	0.004217086	-0.001099648	-0.01562813	0.2285363	-0.002994301	-0.005956094	
0.004217086	-0.001099648	-0.5224467	0.03488405	-0.002533493	-0.006790583	-0.01530643	0.2317952	
-0.01562813	0.2285363	-0.002533493	-0.006790583	-0.6277829	-0.08499116	0.006582142	0.0008963986	
-0.002994301	-0.005956094	-0.01530643	0.2317952	0.006582142	0.0008963986	-0.6339437	-0.0884181	

3.536e+10	-0.5205427	0.03366199	0.002729233	-0.003192248	-0.0145076	0.2288707	-0.005885271	-0.003130572	
0.002729233	-0.003192248	-0.5247692	0.03697156	-0.006006985	-0.004070094	-0.01228639	0.2314241	
-0.0145076	0.2288707	-0.006006985	-0.004070094	-0.6292249	-0.08764799	0.00566518	-0.003028992	
-0.005885271	-0.003130572	-0.01228639	0.2314241	0.00566518	-0.003028992	-0.6361552	-0.08680311	

3.538e+10	-0.5246372	0.03539822	0.0004548503	-0.004030315	-0.01333193	0.2289922	-0.006624635	0.0008321877	
0.0004548503	-0.004030315	-0.5261788	0.0403025	-0.007268279	0.0001535179	-0.00992146	0.2298159	
-0.01333193	0.2289922	-0.007268279	0.0001535179	-0.632777	-0.08881839	0.002754536	-0.005549706	
-0.006624635	0.0008321877	-0.00992146	0.2298159	0.002754536	-0.005549706	-0.6378116	-0.08408274	

3.54e+10	-0.5276375	0.03958065	-0.001800198	-0.003516383	-0.01226865	0.2289014	-0.004960188	0.004513424	
-0.001800198	-0.003516383	-0.5261704	0.04427625	-0.005865583	0.004340303	-0.008887836	0.2275265	
-0.01226865	0.2289014	-0.005865583	0.004340303	-0.6371293	-0.08750245	-0.000901613	-0.005918317	
-0.004960188	0.004513424	-0.008887836	0.2275265	-0.000901613	-0.005918317	-0.6384316	-0.08076587	

3.542e+10	-0.5284653	0.04502673	-0.003391678	-0.001923611	-0.01148649	0.2287218	-0.001466957	0.006595224	
-0.003391678	-0.001923611	-0.5246865	0.04802723	-0.002292288	0.006972035	-0.009471014	0.2255012	
-0.01148649	0.2287218	-0.002292288	0.006972035	-0.6407153	-0.08378301	-0.004000887	-0.004223431	
-0.001466957	0.006595224	-0.009471014	0.2255012	-0.004000887	-0.004223431	-0.637862	-0.07764166	

3.544e+10	-0.5267603	0.05044289	-0.00388722	0.0002759118	-0.01094021	0.2286785	0.002642624	0.006290242	
-0.00388722	0.0002759118	-0.5220324	0.0508178	0.002189458	0.007062087	-0.01123487	0.2247293	
-0.01094021	0.2286785	0.002189458	0.007062087	-0.6423438	-0.07864231	-0.005575297	-0.001155603	
0.002642624	0.006290242	-0.01123487	0.2247293	-0.005575297	-0.001155603	-0.6364874	-0.07533324	

3.546e+10	-0.5229574	0.05450368	-0.003078881	0.002432426	-0.01048054	0.2288602	0.005865778	0.003625183	
-0.003078881	0.002432426	-0.5189548	0.05216451	0.005934176	0.004509021	-0.0131712	0.2257561	
-0.01048054	0.2288602	0.005934176	0.004509021	-0.6415536	-0.07332266	-0.005140463	0.002227673	
0.005865778	0.003625183	-0.0131712	0.2257561	-0.005140463	0.002227673	-0.6349363	-0.07413852	

3.548e+10	-0.5181812	0.05620099	-0.00113031	0.003781903	-0.009972461	0.2292332	0.006949032	-0.0004815851	
-0.00113031	0.003781903	-0.5163	0.0520797	0.007505795	0.0002015146	-0.01412487	0.2283235	
-0.009972461	0.2292332	0.007505795	0.0002015146	-0.6387165	-0.06916124	-0.002835634	0.004732374	
0.006949032	-0.0004815851	-0.01412487	0.2283235	-0.002835634	0.004732374	-0.6338993	-0.07379315	

3.55e+10	-0.513945	0.05537855	0.001282314	0.003722422	-0.009399513	0.2297278	0.005399469	-0.00449388	
0.001282314	0.003722422	-0.514779	0.05110957	0.006243853	-0.004252086	-0.01339066	0.2315331	
-0.009399513	0.2297278	0.006243853	-0.004252086	-0.6348723	-0.06740003	0.0004872939	0.0053857	
0.005399469	-0.00449388	-0.01339066	0.2315331	0.0004872939	0.0053857	-0.6337374	-0.07388642	

3.552e+10	-0.5115366	0.0529524	0.003168602	0.002229907	-0.008754187	0.2303937	0.001752755	-0.006848359	
0.003168602	0.002229907	-0.5146162	0.05000519	0.002582345	-0.007132093	-0.01092754	0.2343253	
-0.008754187	0.2303937	0.002582345	-0.007132093	-0.6315264	-0.06793666	0.003486916	0.003924648	
0.001752755	-0.006848359	-0.01092754	0.2343253	0.003486916	0.003924648	-0.6344515	-0.07363298	

3.554e+10	-0.5115755	0.05007028	0.003760447	-3.396164e-05	-0.00786216	0.2312764	-0.002604208	-0.006604405	
0.003760447	-3.396164e-05	-0.5155542	0.04955141	-0.002088852	-0.00730876	-0.007246724	0.2358387	
-0.00786216	0.2312764	-0.002088852	-0.00730876	-0.6299834	-0.06999602	0.004928565	0.001038073	
-0.002604208	-0.006604405	-0.007246724	0.2358387	0.004928565	0.001038073	-0.6356266	-0.07287005	

3.556e+10	-0.5136871	0.04837682	0.002938725	-0.002100276	-0.006489411	0.2321793	-0.0059971	-0.003842684	
0.002938725	-0.002100276	-0.5170822	0.05006262	-0.005975042	-0.004708653	-0.003206849	0.2355482	
-0.006489411	0.2321793	-0.005975042	-0.004708653	-0.6307883	-0.07231538	0.004351218	-0.001966845	
-0.0059971	-0.003842684	-0.003206849	0.2355482	0.004351218	-0.001966845	-0.6368214	-0.07120589	

3.558e+10	-0.5168416	0.0485829	0.001199163	-0.003240541	-0.004638388	0.2326838	-0.007138471	0.0003878553	
0.001199163	-0.003240541	-0.5185822	0.05166998	-0.007604339	-0.0003346721	0.0001181647	0.23346	
-0.004638388	0.2326838	-0.007604339	-0.0003346721	-0.6335107	-0.07341174	0.002240926	-0.003884686	
-0.007138471	0.0003878553	0.0001181647	0.23346	0.002240926	-0.003884686	-0.6375909	-0.06915195	

3.56e+10	-0.5197774	0.05096462	-0.0007418057	-0.003233706	-0.002662147	0.2325048	-0.005592922	0.004512919	
-0.0007418057	-0.003233706	-0.5195762	0.05424295	-0.006380027	0.004171793	0.001723822	0.2302235	
-0.002662147	0.2325048	-0.006380027	0.004171793	-0.6369717	-0.07246114	-0.0003661529	-0.004175075	
-0.005592922	0.004512919	0.001723822	0.2302235	-0.0003661529	-0.004175075	-0.6377307	-0.06680314	

3.562e+10	-0.5214676	0.05480845	-0.002296148	-0.002262729	-0.001051145	0.2316376	-0.001895563	0.006981646	
-0.002296148	-0.002262729	-0.5196726	0.05737239	-0.002747578	0.00713163	0.001145337	0.2270671	
-0.001051145	0.2316376	-0.002747578	0.00713163	-0.6398709	-0.06973823	-0.002480211	-0.003032385	
-0.001895563	0.006981646	0.001145337	0.2270671	-0.002480211	-0.003032385	-0.6372894	-0.06484587	

3.564e+10	-0.5213975	0.05922139	-0.003112383	-0.0006837324	-0.0001930362	0.2304199	0.002597695	0.00680376	
-0.003112383	-0.0006837324	-0.5186768	0.06047168	0.001951957	0.007414051	-0.001219201	0.2253367	
-0.0001930362	0.2304199	0.001951957	0.007414051	-0.6413027	-0.06570662	-0.003517977	-0.001079583	
0.002597695	0.00680376	-0.001219201	0.2253367	-0.003517977	-0.001079583	-0.6365592	-0.06331265	

3.566e+10	-0.5196732	0.06334756	-0.003007923	0.001100148	-0.0002081242	0.2293199	0.006151532	0.003961961	
-0.003007923	0.001100148	-0.5167846	0.06299544	0.005950738	0.004863863	-0.004174895	0.2258514	
-0.0002081242	0.2293199	0.005950738	0.004863863	-0.6410551	-0.06172658	-0.003341157	0.0009763896	
0.006151532	0.003961961	-0.004174895	0.2258514	-0.003341157	0.0009763896	-0.6359693	-0.0624694	

3.568e+10	-0.5167853	0.0662934	-0.001945811	0.002605758	-0.0009627222	0.228878	0.007306915	-0.0004697637	
-0.001945811	0.002605758	-0.5145077	0.06454133	0.007675139	0.0004232484	-0.006283729	0.2285336	
-0.0009627222	0.228878	0.007675139	0.0004232484	-0.6396061	-0.0585464	-0.002147532	0.002522449	
0.007306915	-0.0004697637	-0.006283729	0.2285336	-0.002147532	0.002522449	-0.6360028	-0.06202442	

3.57e+10	-0.5134239	0.06786705	-0.0001604277	0.003305009	-0.002011189	0.2295412	0.005571945	-0.004702661	
-0.0001604277	0.003305009	-0.5124514	0.06510116	0.006426684	-0.004171624	-0.006465889	0.2325001	
-0.002011189	0.2295412	0.006426684	-0.004171624	-0.6377351	-0.05669197	-0.000386397	0.003136992	
0.005571945	-0.004702661	-0.006465889	0.2325001	-0.000386397	0.003136992	-0.6367841	-0.0614275	

3.572e+10	-0.5102896	0.06799653	0.001765228	0.002846245	-0.002585156	0.2314256	0.001683113	-0.007030127	
0.001765228	0.002846245	-0.5109689	0.06518472	0.002720311	-0.007108893	-0.004346227	0.2364601	
-0.002585156	0.2314256	0.002720311	-0.007108893	-0.6361004	-0.05576345	0.001341142	0.002694035	
0.001683113	-0.007030127	-0.004346227	0.2364601	0.001341142	0.002694035	-0.6379577	-0.05996776	

3.574e+10	-0.5080245	0.0669729	0.003081602	0.001324279	-0.001859185	0.2341126	-0.002759762	-0.00659419	
0.003081602	0.001324279	-0.510157	0.06499065	-0.001951388	-0.007287768	-0.0002629811	0.2391699	
-0.001859185	0.2341126	-0.001951388	-0.007287768	-0.6350337	-0.05533489	0.002460639	0.00142644	
-0.002759762	-0.00659419	-0.0002629811	0.2391699	0.002460639	0.00142644	-0.6388505	-0.05769028	

3.576e+10	-0.50713	0.06532474	0.003253892	-0.0006667445	0.0005574044	0.2365693	-0.006038332	-0.003672807	
0.003253892	-0.0006667445	-0.5099911	0.06478862	-0.005787785	-0.004732189	0.004819331	0.2396615	
0.0005574044	0.2365693	-0.005787785	-0.004732189	-0.6346253	-0.0552993	0.002656685	-0.0001327643	
-0.006038332	-0.003672807	0.004819331	0.2396615	0.002656685	-0.0001327643	-0.6389374	-0.05511328	

3.578e+10	-0.5077383	0.06387219	0.002269363	-0.002340983	0.004256285	0.2376619	-0.006975843	0.0005539113	
0.002269363	-0.002340983	-0.5103766	0.06492811	-0.007403951	-0.0004723042	0.009486478	0.2376407	
0.004256285	0.2376619	-0.007403951	-0.0004723042	-0.6347843	-0.05520153	0.002028263	-0.00140454	
-0.006975843	0.0005539113	0.009486478	0.2376407	0.002028263	-0.00140454	-0.6381086	-0.05268633	

3.58e+10	-0.5095437	0.06337672	0.0005900478	-0.003141671	0.008086556	0.236782	-0.005286242	0.004497354	
0.0005900478	-0.003141671	-0.5111896	0.06566627	-0.006260565	0.003902925	0.01227569	0.2336878	
0.008086556	0.236782	-0.006260565	0.003902925	-0.635381	-0.05491824	0.0009751622	-0.002076745	
-0.005286242	0.004497354	0.01227569	0.2336878	0.0009751622	-0.002076745	-0.6367114	-0.05111674	

3.582e+10	-0.5119464	0.0643108	-0.00118533	-0.002933795	0.0107262	0.2342245	-0.001628627	0.006691045	
-0.00118533	-0.002933795	-0.5121363	0.06715124	-0.002800605	0.006791411	0.01228498	0.2292811	
0.0107262	0.2342245	-0.002800605	0.006791411	-0.6363245	-0.05421664	-0.0001225008	-0.002183566	
-0.001628627	0.006691045	0.01228498	0.2292811	-0.0001225008	-0.002183566	-0.6353901	-0.05045264	

3.584e+10	-0.5141418	0.06677537	-0.002589247	-0.001859878	0.01137399	0.2310702	0.002594123	0.00630975	
-0.002589247	-0.001859878	-0.5127226	0.06941394	0.001685989	0.00711836	0.009716233	0.2261614	
0.01137399	0.2310702	0.001685989	0.00711836	-0.637505	-0.0533087	-0.001118269	-0.001869232	
0.002594123	0.00630975	0.009716233	0.2261614	-0.001118269	-0.001869232	-0.6347356	-0.05073513	

3.586e+10	-0.5153177	0.07058974	-0.003268624	-0.0001730175	0.01007052	0.2286383	0.005739691	0.003533015	
-0.003268624	-0.0001730175	-0.5125925	0.07204017	0.005503481	0.004759704	0.005858242	0.225674	
0.01007052	0.2286383	0.005503481	0.004759704	-0.6388385	-0.0517364	-0.001954425	-0.001145737	
0.005739691	0.003533015	0.005858242	0.225674	-0.001954425	-0.001145737	-0.6351575	-0.05110356	

3.588e+10	-0.5148931	0.075023	-0.002929884	0.001727212	0.007626024	0.2279625	0.006621464	-0.0005024497	
-0.002929884	0.001727212	-0.5116739	0.07464515	0.007196192	0.000629813	0.00251158	0.2280462	
0.007626024	0.2279625	0.007196192	0.000629813	-0.640082	-0.04958877	-0.002404732	1.804765e-05	
0.006621464	-0.0005024497	0.00251158	0.2280462	-0.002404732	1.804765e-05	-0.6367014	-0.05111594	

3.59e+10	-0.512685	0.07909297	-0.001491082	0.003209327	0.005232265	0.2293303	0.004992687	-0.004210194	
-0.001491082	0.003209327	-0.5101694	0.07688266	0.006146357	-0.003665564	0.001188394	0.232387	
0.005232265	0.2293303	0.006146357	-0.003665564	-0.6409206	-0.04684134	-0.002130764	0.001390618	
0.004992687	-0.004210194	0.001188394	0.232387	-0.002130764	0.001390618	-0.6389107	-0.04994677	

3.592e+10	-0.5090875	0.08181603	0.0006657167	0.003595388	0.004048873	0.2324247	0.001579218	-0.006222738	
0.0006657167	0.003595388	-0.5083326	0.07851236	0.0028197	-0.006491992	0.002579555	0.237226	
0.004048873	0.2324247	0.0028197	-0.006491992	-0.6409846	-0.04381034	-0.001036905	0.002438062	
0.001579218	-0.006222738	0.002579555	0.237226	-0.001036905	0.002438062	-0.6410008	-0.0475221	

3.594e+10	-0.5049596	0.08278081	0.002704889	0.002575471	0.004880043	0.2363196	-0.00228604	-0.005887666	
0.002704889	0.002575471	-0.506357	0.07956504	-0.001465298	-0.006840827	0.006475316	0.241013	
0.004880043	0.2363196	-0.001465298	-0.006840827	-0.640079	-0.04083117	0.0005214457	0.002657831	
-0.00228604	-0.005887666	0.006475316	0.241013	0.0005214457	0.002657831	-0.6420797	-0.0437726	

3.596e+10	-0.5014983	0.08176404	0.003731087	0.0004974291	0.007960305	0.2397079	-0.005193602	-0.003431056	
0.003731087	0.0004974291	-0.5044775	0.07999165	-0.005103586	-0.004674937	0.01193563	0.2425665	
0.007960305	0.2397079	-0.005103586	-0.004674937	-0.6383243	-0.03859431	0.00192749	0.001934297	
-0.005193602	-0.003431056	0.01193563	0.2425665	0.00192749	0.001934297	-0.6416095	-0.03991697	

3.598e+10	-0.4996557	0.0794953	0.003305252	-0.001768845	0.01269121	0.2412764	-0.006146629	0.0001974611	
0.003305252	-0.001768845	-0.5030651	0.0797677	-0.006809036	-0.0008541451	0.01753395	0.2413038	
0.01269121	0.2412764	-0.006809036	-0.0008541451	-0.636191	-0.0372396	0.002680672	0.0005723867	
-0.006146629	0.0001974611	0.01753395	0.2413038	0.002680672	0.0005723867	-0.6396504	-0.03665799	

3.6e+10	-0.4998899	0.07702974	0.001665516	-0.003310215	0.0176717	0.2402409	-0.00485264	0.003678017	
0.001665516	-0.003310215	-0.5025063	0.07913972	-0.00601095	0.003225745	0.02160577	0.2374993	
0.0176717	0.2402409	-0.00601095	0.003225745	-0.6342978	-0.03723986	0.002602995	-0.0009603472	
-0.00485264	0.003678017	0.02160577	0.2374993	0.002602995	-0.0009603472	-0.6368186	-0.03482329	

3.602e+10	-0.5020379	0.07547802	-0.000490479	-0.003632435	0.02120407	0.2369331	-0.001805327	0.005757285	
-0.000490479	-0.003632435	-0.5029704	0.07876306	-0.003009384	0.006089025	0.02282084	0.2324525	
0.02120407	0.2369331	-0.003009384	0.006089025	-0.6333734	-0.03829496	0.001746945	-0.002263956	
-0.001805327	0.005757285	0.02282084	0.2324525	0.001746945	-0.002263956	-0.6341704	-0.03490051	

3.604e+10	-0.5053178	0.07579077	-0.002424887	-0.002738909	0.02216935	0.2327064	0.001856451	0.005677806	
-0.002424887	-0.002738909	-0.5042409	0.07905219	0.001093622	0.006671053	0.02090636	0.2281341	
0.02216935	0.2327064	0.001093622	0.006671053	-0.6339474	-0.03955135	0.0002586044	-0.002991945	
0.001856451	0.005677806	0.02090636	0.2281341	0.0002586044	-0.002991945	-0.6327617	-0.03626321	

3.606e+10	-0.5084215	0.0785261	-0.00357836	-0.0009421036	0.0205742	0.2293089	0.004752591	0.003501352	
-0.00357836	-0.0009421036	-0.5056757	0.08054358	0.004749984	0.004747166	0.01691767	0.2263186	
0.0205742	0.2293089	0.004749984	0.004747166	-0.6360354	-0.04012741	-0.001539948	-0.002780429	
0.004752591	0.003501352	0.01691767	0.2263186	-0.001539948	-0.002780429	-0.633227	-0.03806427	

3.608e+10	-0.5101337	0.08298915	-0.003570378	0.001255228	0.01749084	0.2279901	0.005825304	9.632553e-05	
-0.003570378	0.001255228	-0.5066227	0.08314425	0.006568847	0.001071723	0.0128005	0.2276704	
0.01749084	0.2279901	0.006568847	0.001071723	-0.6390153	-0.0394197	-0.003010265	-0.001461057	
0.005825304	9.632553e-05	0.0128005	0.2276704	-0.003010265	-0.001461057	-0.635462	-0.03920051	

3.61e+10	-0.5096068	0.08829919	-0.002279081	0.003153059	0.01437946	0.2291292	0.004746145	-0.003247077	
-0.002279081	0.003153059	-0.5066574	0.08633153	0.005898412	-0.00292402	0.01038581	0.2315672	
0.01437946	0.2291292	0.005898412	-0.00292402	-0.6418532	-0.03667184	-0.003421321	0.0006032711	
0.004746145	-0.003247077	0.01038581	0.2315672	-0.003421321	0.0006032711	-0.6387203	-0.03850637	

3.612e+10	-0.5067852	0.09301249	-2.96184e-05	0.00399289	0.01249658	0.232244	0.001979122	-0.005325967	
-2.96184e-05	0.00399289	-0.5055912	0.08960438	0.003065923	-0.005737625	0.01066171	0.2365198	
0.01249658	0.232244	0.003065923	-0.005737625	-0.6435391	-0.03271289	-0.002460021	0.002557233	
0.001979122	-0.005325967	0.01066171	0.2365198	-0.002460021	0.002557233	-0.6419113	-0.0360008	

3.614e+10	-0.5024105	0.09583992	0.002365259	0.003314624	0.01264224	0.2364122	-0.001436911	-0.00543465	
0.002365259	0.003314624	-0.5034509	0.09240053	-0.0008140172	-0.006377359	0.01360905	0.2409259	
0.01264224	0.2364122	-0.0008140172	-0.006377359	-0.643467	-0.02809438	-0.0004954291	0.003540404	
-0.001436911	-0.00543465	0.01360905	0.2409259	-0.0004954291	0.003540404	-0.6439337	-0.03183159	

3.616e+10	-0.4976837	0.09637938	0.00390599	0.001290648	0.01514785	0.2404333	-0.004265311	-0.003581559	
0.00390599	0.001290648	-0.5005401	0.09421616	-0.004302541	-0.004685539	0.01852184	0.2435467	
0.01514785	0.2404333	-0.004302541	-0.004685539	-0.6416538	-0.02420124	0.001646267	0.003165957	
-0.004265311	-0.003581559	0.01852184	0.2435467	0.001646267	0.003165957	-0.6440892	-0.02688273	

3.618e+10	-0.493916	0.09484506	0.003913531	-0.001266299	0.01968822	0.2430037	-0.005508033	-0.0004634906	
0.003913531	-0.001266299	-0.4974173	0.09479746	-0.006163961	-0.001336074	0.02421569	0.2435993	
0.01968822	0.2430037	-0.006163961	-0.001336074	-0.6386413	-0.02140909	0.003143335	0.001651338	
-0.005508033	-0.0004634906	0.02421569	0.2435993	0.003143335	0.001651338	-0.6422085	-0.02242642	

3.62e+10	-0.4920637	0.09199833	0.002403047	-0.003291295	0.02515656	0.2430616	-0.004735478	0.002784958	
0.002403047	-0.003291295	-0.4948799	0.09395589	-0.005771381	0.002449806	0.02917523	0.2409501	
0.02515656	0.2430616	-0.005771381	0.002449806	-0.6352387	-0.02051809	0.003522929	-0.0004020846	
-0.004735478	0.002784958	0.02917523	0.2409501	0.003522929	-0.0004020846	-0.6387787	-0.01929327	

3.622e+10	-0.4925968	0.08898723	5.093172e-05	-0.004013777	0.02984349	0.2403846	-0.002236258	0.004985204	
5.093172e-05	-0.004013777	-0.4937017	0.0922154	-0.003276775	0.005315922	0.03190754	0.2363661	
0.02984349	0.2403846	-0.003276775	0.005315922	-0.6325335	-0.02153591	0.002722933	-0.002318217	
-0.002236258	0.004985204	0.03190754	0.2363661	0.002722933	-0.002318217	-0.634877	-0.0186209	

3.624e+10	-0.4952106	0.08731899	-0.002216004	-0.003276719	0.03219712	0.2359635	0.001069861	0.005323663	
-0.002216004	-0.003276719	-0.494296	0.09054194	0.0004193523	0.006205547	0.03157257	0.231507	
0.03219712	0.2359635	0.0004193523	0.006205547	-0.6315451	-0.02370959	0.0009770328	-0.003514728	
0.001069861	0.005323663	0.03157257	0.231507	0.0009770328	-0.003514728	-0.6318846	-0.01996817	

3.626e+10	-0.498919	0.08788309	-0.003648203	-0.00144811	0.03163324	0.2315896	0.003935718	0.003676543	
-0.003648203	-0.00144811	-0.4963523	0.09002352	0.003932098	0.004771204	0.02856822	0.2283197	
0.03163324	0.2315896	0.003932098	0.004771204	-0.6328382	-0.02619185	-0.001228005	-0.00354027	
0.003935718	0.003676543	0.02856822	0.2283197	-0.001228005	-0.00354027	-0.6310019	-0.02269669	

3.628e+10	-0.5022128	0.09099592	-0.003841385	0.0008509112	0.02886596	0.2289474	0.005284751	0.0006953471	
-0.003841385	0.0008509112	-0.4989214	0.09120921	0.005923384	0.001572659	0.02449612	0.2280481	
0.02886596	0.2289474	0.005923384	0.001572659	-0.6360975	-0.02699404	-0.003127832	-0.002231061	
0.005284751	0.0006953471	0.02449612	0.2280481	-0.003127832	-0.002231061	-0.6325988	-0.02518662	

3.63e+10	-0.5036944	0.09599373	-0.002721759	0.002903453	0.02535998	0.228829	0.004653224	-0.002474371	
-0.002721759	0.002903453	-0.5008742	0.09427905	0.005671522	-0.002142185	0.02128654	0.2305996	
0.02535998	0.228829	0.005671522	-0.002142185	-0.6400839	-0.02570843	-0.003906005	2.72695e-05	
0.004653224	-0.002474371	0.02128654	0.2305996	-0.003906005	2.72695e-05	-0.6360946	-0.02610421	

3.632e+10	-0.5026654	0.1014464	-0.000589951	0.004000939	0.02254902	0.2310523	0.002332618	-0.004660772	
-0.000589951	0.004000939	-0.5013841	0.09845853	0.003343186	-0.004974811	0.02025163	0.2348284	
0.02254902	0.2310523	0.003343186	-0.004974811	-0.6433234	-0.02201569	-0.003160255	0.002329941	
0.002332618	-0.004660772	0.02025163	0.2348284	-0.003160255	0.002329941	-0.6402135	-0.02470642	

3.634e+10	-0.499352	0.1059584	0.001855313	0.003668757	0.02144356	0.2348531	-0.0007903034	-0.005097399	
0.001855313	0.003668757	-0.5001336	0.1027537	-0.0001441853	-0.005929347	0.02174017	0.2392543	
0.02144356	0.2348531	-0.0001441853	-0.005929347	-0.6446931	-0.01710708	-0.001192465	0.003720785	
-0.0007903034	-0.005097399	0.02174017	0.2392543	-0.001192465	0.003720785	-0.6435871	-0.02101264	

3.636e+10	-0.4947212	0.1084095	0.003691536	0.00192997	0.0225947	0.2392053	-0.003565011	-0.003659587	
0.003691536	0.00192997	-0.497239	0.1063265	-0.003507271	-0.004719102	0.02536637	0.2426075	
0.0225947	0.2392053	-0.003507271	-0.004719102	-0.6439098	-0.01191401	0.001171034	0.003677976	
-0.003565011	-0.003659587	0.02536637	0.2426075	0.001171034	0.003677976	-0.6452046	-0.01588114	

3.638e+10	-0.4900323	0.1086375	0.004153105	-0.0005991449	0.02606521	0.2428552	-0.00498019	-0.0008996675	
0.004153105	-0.0005991449	-0.4932781	0.1084542	-0.005550344	-0.001820568	0.03027435	0.2440292	
0.02606521	0.2428552	-0.005550344	-0.001820568	-0.6412808	-0.007947054	0.003015508	0.00231246	
-0.00498019	-0.0008996675	0.03027435	0.2440292	0.003015508	0.00231246	-0.6445651	-0.01046322	

3.64e+10	-0.4864698	0.1068683	0.003020715	-0.002917376	0.03120827	0.2445669	-0.004529042	0.002144738	
0.003020715	-0.002917376	-0.4891352	0.1086178	-0.005558964	0.001712285	0.03530836	0.2430992	
0.03120827	0.2445669	-0.005558964	0.001712285	-0.6375757	-0.005564039	0.003742659	0.0002109574	
-0.004529042	0.002144738	0.03530836	0.2430992	0.003742659	0.0002109574	-0.6418025	-0.005937	

3.642e+10	-0.4848157	0.104024	0.0007544622	-0.004111145	0.036682	0.2435835	-0.002400059	0.004335173	
0.0007544622	-0.004111145	-0.4859442	0.1069307	-0.003527468	0.004605402	0.03916284	0.2400463	
0.036682	0.2435835	-0.003527468	0.004605402	-0.6337878	-0.005309732	0.003208505	-0.001891991	
-0.002400059	0.004335173	0.03916284	0.2400463	0.003208505	-0.001891991	-0.6376318	-0.003227372	

3.644e+10	-0.4853872	0.1012259	-0.001744139	-0.003766028	0.04079087	0.2400996	0.0005811481	0.004850611	
-0.001744139	-0.003766028	-0.4846425	0.1041638	-0.0001831019	0.005781401	0.04076988	0.2358116	
0.04079087	0.2400996	-0.0001831019	0.005781401	-0.6311006	-0.007049755	0.001634269	-0.003368486	
0.0005811481	0.004850611	0.04076988	0.2358116	0.001634269	-0.003368486	-0.6332719	-0.003205304	

3.646e+10	-0.48797	0.09954473	-0.003565878	-0.002081227	0.04226651	0.235426	0.003247769	0.003526113	
-0.003565878	-0.002081227	-0.4856963	0.1015557	0.003215313	0.004769771	0.03980547	0.2319695	
0.04226651	0.235426	0.003215313	0.004769771	-0.6305839	-0.009795919	-0.0005272173	-0.003769004	
0.003247769	0.003526113	0.03980547	0.2319695	-0.0005272173	-0.003769004	-0.6301988	-0.005169667	

3.648e+10	-0.491517	0.1002683	-0.004118072	0.0003175913	0.04097108	0.2313196	0.004582066	0.0009469822	
-0.004118072	0.0003175913	-0.4885791	0.1005575	0.00534837	0.001961461	0.03702047	0.2299186	
0.04097108	0.2313196	0.00534837	0.001961461	-0.6326113	-0.01225721	-0.002621831	-0.002873285	
0.004582066	0.0009469822	0.03702047	0.2299186	-0.002621831	-0.002873285	-0.6295231	-0.008460693	

3.65e+10	-0.4945939	0.1034161	-0.003228966	0.002623174	0.03785914	0.2292347	0.00416756	-0.001826656	
-0.003228966	0.002623174	-0.4920123	0.1019804	0.005413586	-0.001512111	0.03386342	0.2303239	
0.03785914	0.2292347	0.005413586	-0.001512111	-0.636444	-0.01266484	-0.003873481	-0.0008700854	
0.00416756	-0.001826656	0.03386342	0.2303239	-0.003873481	-0.0008700854	-0.6315279	-0.01135413	

3.652e+10	-0.4959099	0.1082165	-0.001162022	0.004049785	0.03438147	0.2296405	0.002303961	-0.003776124	
-0.001162022	0.004049785	-0.4945964	0.1055809	0.003471338	-0.004313464	0.03172251	0.2327885	
0.03438147	0.2296405	0.003471338	-0.004313464	-0.6404919	-0.01062073	-0.003718427	0.001549355	
0.002303961	-0.003776124	0.03172251	0.2327885	-0.003718427	0.001549355	-0.6355286	-0.0124247	

3.654e+10	-0.4947882	0.1135034	0.001410614	0.004039379	0.03182119	0.2322401	-0.000243274	-0.004305433	
0.001410614	0.004039379	-0.4952483	0.1106104	0.0003248054	-0.005446223	0.03141031	0.2363217	
0.03182119	0.2322401	0.0003248054	-0.005446223	-0.643267	-0.006511957	-0.002153752	0.003442711	
-0.000243274	-0.004305433	0.03141031	0.2363217	-0.002153752	0.003442711	-0.6402063	-0.0109513	

3.656e+10	-0.4915461	0.1177376	0.00355449	0.002501011	0.03108377	0.236264	-0.002578883	-0.003345123	
0.00355449	0.002501011	-0.4936644	0.1156061	-0.002844953	-0.004570609	0.03307433	0.2398604	
0.03108377	0.236264	-0.002844953	-0.004570609	-0.6439786	-0.001348748	0.0002248831	0.004068189	
-0.002578883	-0.003345123	0.03307433	0.2398604	0.0002248831	0.004068189	-0.6441035	-0.006857712	

3.658e+10	-0.4870327	0.1202578	0.004403213	-6.545769e-05	0.03269379	0.2406695	-0.003952134	-0.00128794	
0.004403213	-6.545769e-05	-0.4900548	0.1197343	-0.004903039	-0.002063062	0.03639523	0.2424839	
0.03269379	0.2406695	-0.004903039	-0.002063062	-0.6426912	0.003365154	0.002516419	0.003211039	
-0.003952134	-0.00128794	0.03639523	0.2424839	0.002516419	0.003211039	-0.646039	-0.001127552	

3.66e+10	-0.4823971	0.1205434	0.003540535	-0.002680212	0.03663459	0.2441366	-0.003941527	0.00115333	
0.003540535	-0.002680212	-0.4851669	0.1219555	-0.005135909	0.001136723	0.0407231	0.2435083	
0.03663459	0.2441366	-0.005135909	0.001136723	-0.6399325	0.006925007	0.003907071	0.001212879	
-0.003941527	0.00115333	0.0407231	0.2435083	0.003907071	0.001212879	-0.6452992	0.005180905	

3.662e+10	-0.4787522	0.1188339	0.001256538	-0.004264951	0.04214741	0.2454374	-0.002575704	0.00315026	
0.001256538	-0.004264951	-0.4801645	0.1215895	-0.003495432	0.003854925	0.04513656	0.2425662	
0.04214741	0.2454374	-0.003495432	0.003854925	-0.6363964	0.008997442	0.003937338	-0.001220617	
-0.002575704	0.00315026	0.04513656	0.2425662	0.003937338	-0.001220617	-0.6418418	0.01064311	

3.664e+10	-0.4768777	0.1159857	-0.001512773	-0.004149549	0.04776235	0.2438974	-0.0003357646	0.004026324	
-0.001512773	-0.004149549	-0.4763419	0.1191186	-0.0006159613	0.005111722	0.04855315	0.2398245	
0.04776235	0.2438974	-0.0006159613	0.005111722	-0.6329267	0.008948387	0.002590188	-0.003283044	
-0.0003357646	0.004026324	0.04855315	0.2398245	0.002590188	-0.003283044	-0.6364457	0.0135539	

3.666e+10	-0.4773829	0.1129365	-0.003619976	-0.002417877	0.05173342	0.2398236	0.001997146	0.003485239	
-0.003619976	-0.002417877	-0.4751321	0.1151221	0.002428994	0.004475885	0.05004547	0.2360328	
0.05173342	0.2398236	0.002428994	0.004475885	-0.6305556	0.007483936	0.0002588936	-0.004260942	
0.001997146	0.003485239	0.05004547	0.2360328	0.0002588936	-0.004260942	-0.6307793	0.01332308	

3.668e+10	-0.4800337	0.1112658	-0.004266321	0.0001512198	0.05280779	0.2346512	0.003606431	0.001723735	
-0.004266321	0.0001512198	-0.4769564	0.1116935	0.004517029	0.002218445	0.04924394	0.2325125	
0.05280779	0.2346512	0.004517029	0.002218445	-0.6302314	0.004839925	-0.00230456	-0.003709642	
0.003606431	0.001723735	0.04924394	0.2325125	-0.00230456	-0.003709642	-0.6269426	0.009848802	

3.67e+10	-0.4837161	0.1120304	-0.003331976	0.002535529	0.05087877	0.2303172	0.003931045	-0.0006318471	
-0.003331976	0.002535529	-0.4809871	0.1105142	0.004906573	-0.0007889626	0.04671407	0.2306163	
0.05087877	0.2303172	0.004906573	-0.0007889626	-0.632224	0.002758615	-0.004118796	-0.001691761	
0.003931045	-0.0006318471	0.04671407	0.2306163	-0.004118796	-0.001691761	-0.6265807	0.004921254	

3.672e+10	-0.4867231	0.1154153	-0.001269515	0.003928151	0.04704075	0.2283552	0.002862101	-0.002751953	
-0.001269515	0.003928151	-0.4853233	0.1125812	0.003508563	-0.003431403	0.04379102	0.231006	
0.04704075	0.2283552	0.003508563	-0.003431403	-0.6357144	0.00266289	-0.004374014	0.001077599	
0.002862101	-0.002751953	0.04379102	0.231006	-0.004374014	0.001077599	-0.6298792	0.0009894128	

3.674e+10	-0.487675	0.1203261	0.001183404	0.003929783	0.04297741	0.2293378	0.0007779443	-0.003887934	
0.001183404	0.003929783	-0.4881491	0.1171942	0.0008830983	-0.004770348	0.0418513	0.2334178	
0.04297741	0.2293378	0.0008830983	-0.004770348	-0.6392312	0.004909039	-0.002902007	0.00346093	
0.0007779443	-0.003887934	0.0418513	0.2334178	-0.002902007	0.00346093	-0.63545	0.0001109069	

3.676e+10	-0.4861849	0.1253739	0.003219987	0.002553687	0.04026993	0.232823	-0.00158737	-0.003629892	
0.003219987	0.002553687	-0.4884387	0.1230499	-0.002003426	-0.004363783	0.04172411	0.2368225	
0.04026993	0.232823	-0.002003426	-0.004363783	-0.6415305	0.008734059	-0.0003128371	0.0044839	
-0.00158737	-0.003629892	0.04172411	0.2368225	-0.0003128371	0.0044839	-0.6412144	0.002685928	

3.678e+10	-0.4828052	0.1291866	0.004126372	0.0002357285	0.0400038	0.2377277	-0.003380956	-0.002058079	
0.004126372	0.0002357285	-0.4860739	0.1286078	-0.004112277	-0.002391481	0.04352531	0.2401475	
0.0400038	0.2377277	-0.004112277	-0.002391481	-0.6421261	0.01311426	0.0023361	0.003791491	
-0.003380956	-0.002058079	0.04352531	0.2401475	0.0023361	0.003791491	-0.645279	0.008109243	

3.68e+10	-0.4785122	0.1312653	0.003515177	-0.002219799	0.04260002	0.2425372	-0.003941424	0.000263171	
0.003515177	-0.002219799	-0.4815193	0.1328134	-0.004697484	0.0004118028	0.0468772	0.2424498	
0.04260002	0.2425372	-0.004697484	0.0004118028	-0.6411292	0.01757241	0.004054152	0.001730664	
-0.003941424	0.000263171	0.0468772	0.2424498	0.004054152	0.001730664	-0.6465205	0.0152361	

3.682e+10	-0.4742737	0.1314386	0.001553012	-0.003869481	0.04762036	0.2457181	-0.003060945	0.002478704	
0.001553012	-0.003869481	-0.4758157	0.1344629	-0.003571594	0.0030193	0.05104896	0.2431489	
0.04762036	0.2457181	-0.003571594	0.0030193	-0.6388559	0.02096979	0.004283897	-0.000889648	
-0.003060945	0.002478704	0.05104896	0.2431489	0.004283897	-0.000889648	-0.6445388	0.02216991	

3.684e+10	-0.4709215	0.1299787	-0.00102142	-0.004030694	0.0538513	0.2461175	-0.001066423	0.003776206	
-0.00102142	-0.004030694	-0.470268	0.1334271	-0.001163657	0.004493058	0.05513661	0.2420394	
0.0538513	0.2461175	-0.001163657	0.004493058	-0.6357268	0.02319994	0.003014852	-0.003161816	
-0.001066423	0.003776206	0.05513661	0.2420394	0.003014852	-0.003161816	-0.6397447	0.02737253	

3.686e+10	-0.4691524	0.1274659	-0.003168382	-0.002628574	0.05950835	0.2434114	0.001302481	0.003683609	
-0.003168382	-0.002628574	-0.4665635	0.1298281	0.001635094	0.00430804	0.05817924	0.2393506	
0.05950835	0.2434114	0.001635094	0.00430804	-0.6324286	0.02363223	0.0006880203	-0.004342027	
0.001302481	0.003683609	0.05817924	0.2393506	0.0006880203	-0.004342027	-0.6333868	0.02942661	

3.688e+10	-0.4694558	0.1249125	-0.004038296	-0.0002668075	0.06286272	0.2383806	0.003174051	0.002243696	
-0.004038296	-0.0002668075	-0.4659816	0.1252081	0.003799237	0.002545576	0.05942495	0.2358488	
0.06286272	0.2383806	0.003799237	0.002545576	-0.6299766	0.02254971	-0.00194451	-0.00400634	
0.003174051	0.002243696	0.05942495	0.2358488	-0.00194451	-0.00400634	-0.6274629	0.02783452	

3.69e+10	-0.4717067	0.123398	-0.003372491	0.002081267	0.06289817	0.2327717	0.003863299	-2.269468e-06	
-0.003372491	0.002081267	-0.4686905	0.1216481	0.004531653	-0.0001294064	0.0586439	0.2327146	
0.06289817	0.2327717	0.004531653	-0.0001294064	-0.6294018	0.02032956	-0.003966398	-0.00217334	
0.003863299	-2.269468e-06	0.0586439	0.2327146	-0.003966398	-0.00217334	-0.6241844	0.02332416	

3.692e+10	-0.4747735	0.1242003	-0.001539926	0.003567097	0.0598701	0.2286828	0.00313069	-0.002217719	
-0.001539926	0.003567097	-0.4733265	0.1210894	0.00357992	-0.002706883	0.05638983	0.23111	
0.0598701	0.2286828	0.00357992	-0.002706883	-0.6308955	0.01861433	-0.004545675	0.0005694167	
0.00313069	-0.002217719	0.05638983	0.23111	-0.004545675	0.0005694167	-0.6248808	0.01800025	

3.694e+10	-0.4771811	0.1271465	0.0007484834	0.003759108	0.05528716	0.227591	0.00126629	-0.003591822	
0.0007484834	0.003759108	-0.4778561	0.123671	0.001332011	-0.004234648	0.05387018	0.2315665	
0.05528716	0.227591	0.001332011	-0.004234648	-0.6336707	0.01847483	-0.003353316	0.003161111	
0.00126629	-0.003591822	0.05387018	0.2315665	-0.003353316	0.003161111	-0.6291755	0.01438786	

3.696e+10	-0.4778649	0.1313568	0.002733208	0.002655517	0.05115192	0.2297445	-0.001033252	-0.003634481	
0.002733208	0.002655517	-0.480458	0.1288282	-0.001353874	-0.004174231	0.05230954	0.2337894	
0.05115192	0.2297445	-0.001353874	-0.004174231	-0.6365323	0.02011504	-0.0008356425	0.004521936	
-0.001033252	-0.003634481	0.05230954	0.2337894	-0.0008356425	0.004521936	-0.6352989	0.01430601	

3.698e+10	-0.4765857	0.1356691	0.003761281	0.0006258869	0.04914445	0.2342606	-0.00291665	-0.00234924	
0.003761281	0.0006258869	-0.4802345	0.1350783	-0.003479582	-0.002586994	0.05242557	0.2368677	
0.04914445	0.2342606	-0.003479582	-0.002586994	-0.638613	0.02308206	0.001965701	0.004112678	
-0.00291665	-0.00234924	0.05242557	0.2368677	0.001965701	0.004112678	-0.6410262	0.01768155	

3.7e+10	-0.4739267	0.1390349	0.003452067	-0.001654102	0.05012994	0.2395407	-0.003699127	-0.0002320812	
0.003452067	-0.001654102	-0.4772906	0.1407459	-0.004280114	-9.189767e-05	0.0542959	0.2397589	
0.05012994	0.2395407	-0.004280114	-9.189767e-05	-0.6396185	0.02680796	0.003946675	0.002164593	
-0.003699127	-0.0002320812	0.0542959	0.2397589	0.003946675	0.002164593	-0.6446726	0.02375174	

3.702e+10	-0.4703852	0.1413013	0.001865718	-0.003361554	0.05398993	0.2438752	-0.003121318	0.001919497	
0.001865718	-0.003361554	-0.4721354	0.1447969	-0.00349748	0.002370643	0.05747951	0.2416479	
0.05398993	0.2438752	-0.00349748	0.002370643	-0.6394781	0.03060447	0.004414588	-0.0005121752	
-0.003121318	0.001919497	0.05747951	0.2416479	0.004414588	-0.0005121752	-0.6452506	0.03110649	

3.704e+10	-0.4666498	0.142046	-0.0004432164	-0.003829437	0.05973256	0.2459093	-0.001437666	0.003325435	
-0.0004432164	-0.003829437	-0.4659651	0.1460246	-0.0014647	0.003905047	0.06128597	0.2420932	
0.05973256	0.2459093	-0.0014647	0.003905047	-0.6381169	0.03433578	0.003287491	-0.002927607	
-0.001437666	0.003325435	0.06128597	0.2420932	0.003287491	-0.002927607	-0.6425902	0.0379518	

3.706e+10	-0.463289	0.1413764	-0.00260127	-0.002839783	0.06584445	0.2449651	0.0007195103	0.003513586	
-0.00260127	-0.002839783	-0.4603125	0.144165	0.001048564	0.003982162	0.06491738	0.2409791	
0.06584445	0.2449651	0.001048564	0.003982162	-0.635589	0.03742699	0.001010616	-0.004264897	
0.0007195103	0.003513586	0.06491738	0.2409791	0.001010616	-0.004264897	-0.6372187	0.04288258	

3.708e+10	-0.4609808	0.1396174	-0.003749157	-0.000763456	0.07068596	0.2412893	0.002580274	0.002450387	
-0.003749157	-0.000763456	-0.4568003	0.1400939	0.003118232	0.002609559	0.0676312	0.2385586	
0.07068596	0.2412893	0.003118232	0.002609559	-0.6323448	0.03889742	-0.001627206	-0.004074491	
0.002580274	0.002450387	0.0676312	0.2385586	-0.001627206	-0.004074491	-0.630547	0.04442392	

3.71e+10	-0.4604357	0.1372618	-0.003438835	0.001562096	0.07287686	0.2359518	0.00349885	0.0005289015	
-0.003438835	0.001562096	-0.456795	0.1350487	0.004000498	0.0003215492	0.06881076	0.2354822	
0.07287686	0.2359518	0.004000498	0.0003215492	-0.6293305	0.03871201	-0.003701449	-0.00238908	
0.00349885	0.0005289015	0.06881076	0.2354822	-0.003701449	-0.00238908	-0.6246797	0.04214828	

3.712e+10	-0.4616878	0.135532	-0.001848629	0.003216163	0.07183245	0.2307267	0.003155809	-0.00157006	
-0.001848629	0.003216163	-0.4600461	0.1315686	0.003402178	-0.002024566	0.06823228	0.2327028	
0.07183245	0.2307267	0.003402178	-0.002024566	-0.6275664	0.03706449	-0.004413464	0.0002289827	
0.003155809	-0.00157006	0.06823228	0.2327028	-0.004413464	0.0002289827	-0.6217407	0.03715601	

3.714e+10	-0.4640268	0.1355151	0.0003435228	0.003621946	0.0681535	0.2275425	0.001667163	-0.003090956	
0.0003435228	0.003621946	-0.4650126	0.1313224	0.001581544	-0.003567445	0.0663653	0.2312453	
0.0681535	0.2275425	0.001581544	-0.003567445	-0.6276298	0.03508996	-0.003421336	0.002781436	
0.001667163	-0.003090956	0.0663653	0.2312453	-0.003421336	0.002781436	-0.6228957	0.03166353	

3.716e+10	-0.4663609	0.1372575	0.002318031	0.002724929	0.06354563	0.2275642	-0.0004261019	-0.00346782	
0.002318031	0.002724929	-0.4695656	0.1344684	-0.0007609517	-0.003767113	0.06425897	0.2316319	
0.06354563	0.2275642	-0.0007609517	-0.003767113	-0.6294313	0.03364808	-0.001103437	0.004221057	
-0.0004261019	-0.00346782	0.06425897	0.2316319	-0.001103437	0.004221057	-0.6276181	0.02817068	

3.718e+10	-0.467709	0.1404084	0.00341807	0.0009051995	0.06008679	0.2306932	-0.002337157	-0.002560411	
0.00341807	0.0009051995	-0.4719781	0.1399855	-0.002750731	-0.002593971	0.06303461	0.2335842	
0.06008679	0.2306932	-0.002750731	-0.002593971	-0.6323031	0.03369093	0.001563114	0.00398532	
-0.002337157	-0.002560411	0.06303461	0.2335842	0.001563114	0.00398532	-0.6340166	0.028347	

3.72e+10	-0.4675855	0.1443842	0.003301518	-0.001199893	0.05924719	0.2355945	-0.003351971	-0.0007283969	
0.003301518	-0.001199893	-0.4713754	0.1465464	-0.003679148	-0.0005255859	0.06331069	0.2362127	
0.05924719	0.2355945	-0.003679148	-0.0005255859	-0.6354776	0.03552871	0.003506119	0.00226795	
-0.003351971	-0.0007283969	0.06331069	0.2362127	0.003506119	0.00226795	-0.6398752	0.03230271	

3.722e+10	-0.4660001	0.1482716	0.002013977	-0.002868365	0.06143947	0.2404754	-0.003121574	0.001321816	
0.002013977	-0.002868365	-0.4678972	0.1522999	-0.00325803	0.001655038	0.06509146	0.2386214	
0.06143947	0.2404754	-0.00325803	0.001655038	-0.6380776	0.0390265	0.004063175	-0.0001619296	
-0.003121574	0.001321816	0.06509146	0.2386214	0.004063175	-0.0001619296	-0.6434218	0.0387898	

3.724e+10	-0.4630099	0.1515139	-7.649554e-06	-0.003506292	0.06603034	0.2437549	-0.001776111	0.002843476	
-7.649554e-06	-0.003506292	-0.4622044	0.1559981	-0.001695961	0.00317492	0.06791401	0.240131	
0.06603034	0.2437549	-0.001695961	0.00317492	-0.6392586	0.04369237	0.003172733	-0.002389177	
-0.001776111	0.002843476	0.06791401	0.240131	0.003172733	-0.002389177	-0.6436162	0.04658664	

3.726e+10	-0.4589585	0.1534763	-0.002044454	-0.002852507	0.07177267	0.2445243	0.0001747495	0.003318903	
-0.002044454	-0.002852507	-0.4555961	0.1566965	0.000422516	0.003529702	0.07120871	0.240489	
0.07177267	0.2445243	0.000422516	0.003529702	-0.6383702	0.04889576	0.001247086	-0.003700514	
0.0001747495	0.003318903	0.07120871	0.240489	0.001247086	-0.003700514	-0.6403358	0.05365795	

3.728e+10	-0.4545536	0.1536811	-0.003321784	-0.001112098	0.07722293	0.2425852	0.002037064	0.002599272	
-0.003321784	-0.001112098	-0.4498302	0.1542745	0.002348426	0.002619662	0.07442076	0.2396297	
0.07722293	0.2425852	0.002348426	0.002619662	-0.6353539	0.05335216	-0.001048091	-0.003726204	
0.002037064	0.002599272	0.07442076	0.2396297	-0.001048091	-0.003726204	-0.6343477	0.05828836	

3.73e+10	-0.4509786	0.1518587	-0.003312147	0.001050675	0.08097175	0.2384257	0.003146619	0.00094445	
-0.003312147	0.001050675	-0.4467458	0.1494791	0.003395536	0.0007796776	0.07697158	0.2376561	
0.08097175	0.2384257	0.003395536	0.0007796776	-0.6309214	0.05575331	-0.002970865	-0.002472597	
0.003146619	0.00094445	0.07697158	0.2376561	-0.002970865	-0.002472597	-0.6272741	0.0591844	

3.732e+10	-0.4493397	0.1487789	-0.002022961	0.002754935	0.08199914	0.2332779	0.003093506	-0.001046432	
-0.002022961	0.002754935	-0.4473283	0.1443107	0.003184673	-0.001314253	0.07830932	0.2349956	
0.08199914	0.2332779	0.003184673	-0.001314253	-0.6263996	0.05557409	-0.003861595	-0.0003256247	
0.003093506	-0.001046432	0.07830932	0.2349956	-0.003861595	-0.0003256247	-0.6213719	0.05633058	

3.734e+10	-0.4501198	0.1458186	-2.591416e-05	0.003336499	0.08009243	0.228913	0.001892843	-0.002627003	
-2.591416e-05	0.003336499	-0.4511203	0.1410267	0.001807483	-0.002876688	0.07811784	0.2324445	
0.08009243	0.228913	0.001807483	-0.002876688	-0.6233415	0.05311045	-0.003340625	0.001976427	
0.001892843	-0.002627003	0.07811784	0.2324445	-0.003340625	0.001976427	-0.6187723	0.05087234	

3.736e+10	-0.4528252	0.1444279	0.001857739	0.002660729	0.07621076	0.2269666	1.038104e-05	-0.003197783	
0.001857739	0.002660729	-0.4563993	0.1411919	-0.0001909959	-0.003333733	0.07668737	0.2309613	
0.07621076	0.2269666	-0.0001909959	-0.003333733	-0.6228223	0.04967349	-0.001544815	0.003540993	
1.038104e-05	-0.003197783	0.07668737	0.2309613	-0.001544815	0.003540993	-0.6204809	0.04512978	

3.738e+10	-0.4561311	0.1454823	0.002966013	0.00109128	0.07225771	0.228172	-0.001818085	-0.002565873	
0.002966013	0.00109128	-0.4608959	0.1448778	-0.002040691	-0.00255816	0.07495777	0.231108	
0.07225771	0.228172	-0.002040691	-0.00255816	-0.6249922	0.04677401	0.0008140743	0.003720887	
-0.001818085	-0.002565873	0.07495777	0.231108	0.0008140743	0.003720887	-0.6257493	0.04189132	

3.74e+10	-0.4587034	0.1486878	0.002997884	-0.0007656001	0.07010292	0.2318118	-0.002908313	-0.001023038	
0.002997884	-0.0007656001	-0.4629401	0.1509545	-0.003072887	-0.0008997394	0.07394861	0.2326084	
0.07010292	0.2318118	-0.003072887	-0.0008997394	-0.6290902	0.04586634	0.00276627	0.002490935	
-0.002908313	-0.001023038	0.07394861	0.2326084	0.00276627	0.002490935	-0.6325168	0.04245527	

3.742e+10	-0.4595131	0.1533943	0.002014279	-0.002291434	0.07064653	0.2363161	-0.002908568	0.0008142762	
0.002014279	-0.002291434	-0.4617706	0.1576494	-0.002971731	0.0009966346	0.07419767	0.2347534	
0.07064653	0.2363161	-0.002971731	0.0009966346	-0.6337527	0.04776334	0.003594617	0.0004304648	
-0.002908568	0.0008142762	0.07419767	0.2347534	0.003594617	0.0004304648	-0.6384209	0.0468827	

3.744e+10	-0.4581477	0.1584688	0.0003622295	-0.00300827	0.07368941	0.240023	-0.001890217	0.00228488	
0.0003622295	-0.00300827	-0.4575941	0.163302	-0.001842025	0.002464975	0.07566768	0.2367415	
0.07368941	0.240023	-0.001842025	0.002464975	-0.6374368	0.05207084	0.003116582	-0.001642909	
-0.001890217	0.00228488	0.07566768	0.2367415	0.003116582	-0.001642909	-0.6416124	0.05399047	

3.746e+10	-0.4546173	0.1627766	-0.001414088	-0.002675263	0.07828784	0.2419073	-0.0002525037	0.002912475	
-0.001414088	-0.002675263	-0.4513263	0.1665031	-0.0001132258	0.003031486	0.07801765	0.2381041	
0.07828784	0.2419073	-0.0001132258	0.003031486	-0.6388895	0.05825593	0.001618706	-0.003043061	
-0.0002525037	0.002912475	0.07801765	0.2381041	0.001618706	-0.003043061	-0.6411819	0.06207765	

3.748e+10	-0.4494638	0.1652814	-0.002699249	-0.00137415	0.08326373	0.2415415	0.001435734	0.002513439	
-0.002699249	-0.00137415	-0.444495	0.1664552	0.001617542	0.002529182	0.08085532	0.2386025	
0.08326373	0.2415415	0.001617542	0.002529182	-0.6374712	0.06463955	-0.0003550286	-0.003380709	
0.001435734	0.002513439	0.08085532	0.2386025	-0.0003550286	-0.003380709	-0.6372252	0.06899976	

3.75e+10	-0.4438867	0.1651682	-0.002989881	0.0004543122	0.0874582	0.2391071	0.00259631	0.001232264	
-0.002989881	0.0004543122	-0.4390514	0.1631945	0.002751337	0.001135649	0.0838092	0.2381218	
0.0874582	0.2391071	0.002751337	0.001135649	-0.6333862	0.06970271	-0.002175913	-0.002586727	
0.00259631	0.001232264	0.0838092	0.2381218	-0.002175913	-0.002586727	-0.6307265	0.07320066	

3.752e+10	-0.4393538	0.1626091	-0.002134369	0.002104774	0.08994141	0.2352745	0.002812275	-0.0004815193	
-0.002134369	0.002104774	-0.4365576	0.1581178	0.002874446	-0.0006521614	0.08641236	0.2365934	
0.08994141	0.2352745	0.002874446	-0.0006521614	-0.6276436	0.07217683	-0.003257919	-0.0009065634	
0.002812275	-0.0004815193	0.08641236	0.2365934	-0.003257919	-0.0009065634	-0.623494	0.07357469	

3.754e+10	-0.4374314	0.158348	-0.0004808301	0.002901631	0.09013473	0.2311479	0.001996107	-0.001998338	
-0.0004808301	0.002901631	-0.4378607	0.1529935	0.001939752	-0.002166524	0.08806007	0.2342552	
0.09013473	0.2311479	0.001939752	-0.002166524	-0.621986	0.07130625	-0.003199586	0.001119852	
0.001996107	-0.001998338	0.08806007	0.2342552	-0.003199586	0.001119852	-0.6178099	0.07006289	

3.756e+10	-0.4386888	0.1542286	0.001265086	0.00256376	0.08816501	0.2280937	0.0004637176	-0.002743993	
0.001265086	0.00256376	-0.4421166	0.1502505	0.0003214736	-0.002836944	0.08829971	0.2317802	
0.08816501	0.2280937	0.0003214736	-0.002836944	-0.6183527	0.06772064	-0.001962739	0.002760821	
0.0004637176	-0.002743993	0.08829971	0.2317802	-0.001962739	0.002760821	-0.6156939	0.06427748	

3.758e+10	-0.4423798	0.1523236	0.002426785	0.00132637	0.08508446	0.2272543	-0.001182294	-0.002458821	
0.002426785	0.00132637	-0.447471	0.1510255	-0.00134268	-0.002447383	0.08729451	0.2301189	
0.08508446	0.2272543	-0.00134268	-0.002447383	-0.6181084	0.06289416	1.008449e-05	0.003359285	
-0.001182294	-0.002458821	0.08729451	0.2301189	1.008449e-05	0.003359285	-0.6179747	0.05863345	

3.76e+10	-0.4468254	0.1534183	0.002666309	-0.0002695597	0.08246312	0.2288245	-0.00232422	-0.001305358	
0.002666309	-0.0002695597	-0.451661	0.1552549	-0.002441549	-0.001207219	0.08585417	0.2298597	
0.08246312	0.2288245	-0.002441549	-0.001207219	-0.6213388	0.05917149	0.001925159	0.002680623	
-0.00232422	-0.001305358	0.08585417	0.2298597	0.001925159	0.002680623	-0.623701	0.05566383	

3.762e+10	-0.4501253	0.1574553	0.002011333	-0.001672095	0.0815794	0.2319415	-0.002592101	0.0002422873	
0.002011333	-0.001672095	-0.453064	0.1616853	-0.002631573	0.0003857815	0.0848881	0.2308683	
0.0815794	0.2319415	-0.002631573	0.0003857815	-0.6267786	0.05825483	0.003041066	0.001056929	
-0.002592101	0.0002422873	0.0848881	0.2308683	0.003041066	0.001056929	-0.6306339	0.05683733	

3.764e+10	-0.4510189	0.1631775	0.0007332072	-0.002473205	0.08282631	0.2352767	-0.001962898	0.001627894	
0.0007332072	-0.002473205	-0.451144	0.1683169	-0.001914012	0.001769294	0.08490532	0.2325554	
0.08282631	0.2352767	-0.001914012	0.001769294	-0.6324349	0.06089656	0.003020295	-0.0008346507	
-0.001962898	0.001627894	0.08490532	0.2325554	0.003020295	-0.0008346507	-0.6363022	0.06194152	

3.766e+10	-0.4490408	0.1691412	-0.0007669121	-0.00245322	0.08578163	0.2376948	-0.0006995068	0.002412432	
-0.0007669121	-0.00245322	-0.446264	0.1735426	-0.0005742024	0.002503084	0.08594711	0.2343038	
0.08578163	0.2376948	-0.0005742024	0.002503084	-0.6363798	0.06654934	0.00198415	-0.002329144	
-0.0006995068	0.002412432	0.08594711	0.2343038	0.00198415	-0.002329144	-0.6389408	0.06941119	

3.768e+10	-0.4444772	0.1738308	-0.002024111	-0.001601417	0.0896079	0.2385876	0.0007693186	0.002367438	
-0.002024111	-0.001601417	-0.4396352	0.1759305	0.0009329713	0.002366426	0.08782731	0.2357197	
0.0896079	0.2385876	0.0009329713	0.002366426	-0.6373678	0.07374597	0.0003465769	-0.002988068	
0.0007693186	0.002367438	0.08782731	0.2357197	0.0003465769	-0.002988068	-0.6378359	0.0775255	

3.77e+10	-0.4382971	0.1760166	-0.002594008	-0.0001577475	0.0934399	0.2378438	0.001963664	0.001512443	
-0.002594008	-0.0001577475	-0.4329458	0.1750094	0.002100824	0.001404734	0.09034313	0.2365233	
0.0934399	0.2378438	0.002100824	0.001404734	-0.6349724	0.0807787	-0.001360014	-0.002653132	
0.001963664	0.001512443	0.09034313	0.2365233	-0.001360014	-0.002653132	-0.6332822	0.08416042	

3.772e+10	-0.4319838	0.175147	-0.002211781	0.001381537	0.09653069	0.2357528	0.002468257	0.000124596	
-0.002211781	0.001381537	-0.4281083	0.1711444	0.002508761	-5.662947e-05	0.09324395	0.2364594	
0.09653069	0.2357528	0.002508761	-5.662947e-05	-0.6297248	0.08592568	-0.002604355	-0.001438868	
0.002468257	0.000124596	0.09324395	0.2364594	-0.002604355	-0.001438868	-0.6264797	0.0877115	

3.774e+10	-0.427342	0.1714439	-0.0009779473	0.002402377	0.09831485	0.2328232	0.002082203	-0.001307531	
-0.0009779473	0.002402377	-0.4264961	0.1658553	0.001991538	-0.001479909	0.09606142	0.2352857	
0.09831485	0.2328232	0.001991538	-0.001479909	-0.6230362	0.08778381	-0.002968514	0.0002790391	
0.002082203	-0.001307531	0.09606142	0.2352857	-0.002968514	0.0002790391	-0.6193571	0.08737569	

3.776e+10	-0.4258915	0.1663051	0.0006055285	0.00247665	0.0984892	0.2298258	0.0009394141	-0.002245191	
0.0006055285	0.00247665	-0.4285374	0.161162	0.0007530362	-0.002318158	0.09810034	0.2330981	
0.0984892	0.2298258	0.0007530362	-0.002318158	-0.6169287	0.08582544	-0.002287234	0.001923303	
0.0009394141	-0.002245191	0.09810034	0.2330981	-0.002287234	0.001923303	-0.6140839	0.08346399	

3.778e+10	-0.4280122	0.1618177	0.001879733	0.001618482	0.09722226	0.2276921	-0.0005154943	-0.002338763	
0.001879733	0.001618482	-0.4331044	0.1591798	-0.0007048866	-0.002272907	0.09876853	0.230522	
0.09722226	0.2276921	-0.0007048866	-0.002272907	-0.6135133	0.08109738	-0.0007670014	0.002882603	
-0.0005154943	-0.002338763	0.09876853	0.230522	-0.0007670014	0.002882603	-0.6125542	0.07760083	

3.78e+10	-0.4326106	0.1600275	0.002389767	0.0002460437	0.09526654	0.2271516	-0.001724722	-0.001589856	
0.002389767	0.0002460437	-0.4382009	0.1607925	-0.001827542	-0.001421678	0.09809693	0.2285577	
0.09526654	0.2271516	-0.001827542	-0.001421678	-0.6140917	0.07561858	0.00102543	0.002771801	
-0.001724722	-0.001589856	0.09809693	0.2285577	0.00102543	0.002771801	-0.6153613	0.07217946	

3.782e+10	-0.4375533	0.1618559	0.002054804	-0.001105473	0.09370234	0.228277	-0.002270393	-0.0003247421	
0.002054804	-0.001105473	-0.4416738	0.1656624	-0.00224968	-0.0001328676	0.09676142	0.227834	
0.09370234	0.228277	-0.00224968	-0.0001328676	-0.6183966	0.07187907	0.002390491	0.001650629	
-0.002270393	-0.0003247421	0.09676142	0.227834	0.002390491	0.001650629	-0.6213611	0.06980663	

3.784e+10	-0.4408457	0.1666696	0.001074774	-0.00201804	0.09340715	0.2304493	-0.00201986	0.0009851515	
0.001074774	-0.00201804	-0.4422077	0.172054	-0.001891258	0.001127416	0.09565373	0.2283988	
0.09340715	0.2304493	-0.001891258	0.001127416	-0.6246809	0.07150474	0.0028411	-1.212193e-06	
-0.00201986	0.0009851515	0.09565373	0.2283988	0.0028411	-1.212193e-06	-0.6281983	0.07146309	

3.786e+10	-0.4412623	0.1730177	-0.0002188777	-0.002256208	0.09460878	0.2327136	-0.001110194	0.001915186	
-0.0002188777	-0.002256208	-0.439391	0.1783289	-0.0009194629	0.001959281	0.09530061	0.2297811	
0.09460878	0.2327136	-0.0009194629	0.001959281	-0.6306058	0.07508356	0.00229834	-0.001560778	
-0.001110194	0.001915186	0.09530061	0.2297811	0.00229834	-0.001560778	-0.6334049	0.07709913	

3.788e+10	-0.4385004	0.1792166	-0.001440205	-0.001757083	0.09698362	0.2343011	0.0001425089	0.00219067	
-0.001440205	-0.001757083	-0.4339452	0.1826812	0.0003339354	0.002114595	0.09590494	0.2315007	
0.09698362	0.2343011	0.0003339354	0.002114595	-0.6341704	0.08168914	0.001025721	-0.002528577	
0.0001425089	0.00219067	0.09590494	0.2315007	0.001025721	-0.002528577	-0.6353791	0.08477767	

3.79e+10	-0.4330928	0.1837478	-0.002200417	-0.0006442808	0.09993166	0.2348314	0.001339641	0.001733105	
-0.002200417	-0.0006442808	-0.4272475	0.1840903	0.001460488	0.001546044	0.0974375	0.2331375	
0.09993166	0.2348314	0.001460488	0.001546044	-0.6343445	0.08937711	-0.0005362674	-0.00264529	
0.001339641	0.001733105	0.0974375	0.2331375	-0.0005362674	-0.00264529	-0.6336105	0.09265967	

3.792e+10	-0.4262954	0.1853585	-0.002194153	0.0007422529	0.1028709	0.2342798	0.002085786	0.0006779545	
-0.002194153	0.0007422529	-0.421171	0.1821697	0.002069475	0.0004340324	0.09985432	0.2343318	
0.1028709	0.2342798	0.002069475	0.0004340324	-0.6310021	0.09644419	-0.001902427	-0.0019011	
0.002085786	0.0006779545	0.09985432	0.2343318	-0.001902427	-0.0019011	-0.628644	0.09866785	

3.794e+10	-0.4198408	0.1835985	-0.001356794	0.001890267	0.1053331	0.2328101	0.002103304	-0.0006285015	
-0.001356794	0.001890267	-0.4173449	0.1779266	0.001923661	-0.0008280216	0.1029178	0.2345978	
0.1053331	0.2328101	0.001923661	-0.0008280216	-0.6249736	0.1011117	-0.002643995	-0.0005254435	
0.002103304	-0.0006285015	0.1029178	0.2345978	-0.002643995	-0.0005254435	-0.6217743	0.1015966	

3.796e+10	-0.4155566	0.1790529	1.190431e-05	0.002312069	0.1069775	0.230748	0.001362029	-0.001713778	
1.190431e-05	0.002312069	-0.416868	0.1728429	0.001073728	-0.001757807	0.1060797	0.2335805	
0.1069775	0.230748	0.001073728	-0.001757807	-0.6179061	0.1020721	-0.002498619	0.001050836	
0.001362029	-0.001713778	0.1060797	0.2335805	-0.002498619	0.001050836	-0.6149218	0.1008075	

3.798e+10	-0.4147849	0.1734232	0.001339558	0.001830139	0.1075715	0.228539	0.0001330669	-0.002166317	
0.001339558	0.001830139	-0.419502	0.1691492	-0.0001320007	-0.00200536	0.1084754	0.2313074	
0.1075715	0.228539	-0.0001320007	-0.00200536	-0.6119677	0.09922675	-0.001476242	0.002291558	
0.0001330669	-0.002166317	0.1084754	0.2313074	-0.001476242	0.002291558	-0.6102473	0.09643533	

3.8e+10	-0.417634	0.1690744	0.002090045	0.0006928758	0.1071263	0.226781	-0.001112409	-0.001828154	
0.002090045	0.0006928758	-0.4239987	0.1683011	-0.001216316	-0.001523652	0.1093875	0.2284628	
0.1071263	0.226781	-0.001216316	-0.001523652	-0.6091735	0.09397846	9.100219e-05	0.002730284	
-0.001112409	-0.001828154	0.1093875	0.2284628	9.100219e-05	0.002730284	-0.6093565	0.09063408	

3.802e+10	-0.4226868	0.1678658	0.00204298	-0.000599771	0.1060765	0.2260484	-0.001918613	-0.0008618563	
0.00204298	-0.000599771	-0.4283019	0.1708752	-0.00180607	-0.0005545848	0.1088113	0.2261438	
0.1060765	0.2260484	-0.00180607	-0.0005545848	-0.6106062	0.08831607	0.001626655	0.002181371	
-0.001918613	-0.0008618563	0.1088113	0.2261438	0.001626655	0.002181371	-0.6125951	0.08576756	

3.804e+10	-0.4277522	0.1703098	0.001318428	-0.001591669	0.1051329	0.2264998	-0.002037243	0.0003559221	
0.001318428	-0.001591669	-0.4306536	0.1759219	-0.001758515	0.0005326018	0.1073966	0.2250808	
0.1051329	0.2264998	-0.001758515	0.0005326018	-0.6155769	0.08508986	0.002552573	0.000860772	
-0.002037243	0.0003559221	0.1073966	0.2250808	0.002552573	0.000860772	-0.6186618	0.0840862	

3.806e+10	-0.430678	0.1757564	0.000215959	-0.002014457	0.1049685	0.2277988	-0.001477081	0.001410543	
0.000215959	-0.002014457	-0.4299653	0.1819783	-0.001143451	0.001388597	0.1060298	0.2253963	
0.1049685	0.2277988	-0.001143451	0.001388597	-0.6220954	0.08554833	0.002558508	-0.0007182006	
-0.001477081	0.001410543	0.1060298	0.2253963	0.002558508	-0.0007182006	-0.6251507	0.08652441	

3.808e+10	-0.4304316	0.1824415	-0.0009230043	-0.001785993	0.1058284	0.2292963	-0.000447567	0.001981174	
-0.0009230043	-0.001785993	-0.4262763	0.1872997	-0.0001781348	0.001764732	0.1053663	0.2267332	
0.1058284	0.2292963	-0.0001781348	0.001764732	-0.6277453	0.08990036	0.001702161	-0.001997135	
-0.000447567	0.001981174	0.1053663	0.2267332	0.001702161	-0.001997135	-0.6297293	0.0923166	

3.81e+10	-0.4269039	0.1885541	-0.001764586	-0.000974104	0.1075482	0.2304384	0.000726651	0.001900522	
-0.001764586	-0.000974104	-0.4206107	0.1903551	0.0008307374	0.001549449	0.1057108	0.2285906	
0.1075482	0.2304384	0.0008307374	0.001549449	-0.6306777	0.09684523	0.0003120453	-0.002585034	
0.000726651	0.001900522	0.1057108	0.2285906	0.0003120453	-0.002585034	-0.6309748	0.09993659	

3.812e+10	-0.4208981	0.1925245	-0.002023114	0.0001919531	0.1097346	0.2309341	0.001676113	0.00118101	
-0.002023114	0.0001919531	-0.4145762	0.1903332	0.001548704	0.0008047278	0.1071718	0.2304814	
0.1097346	0.2309341	0.001548704	0.0008047278	-0.6300591	0.1046446	-0.001163176	-0.002326865	
0.001676113	0.00118101	0.1071718	0.2304814	-0.001163176	-0.002326865	-0.628593	0.1074474	

3.814e+10	-0.4138303	0.1933241	-0.001558253	0.001327116	0.112044	0.2307456	0.002071551	3.211036e-05	
-0.001558253	0.001327116	-0.4097363	0.187765	0.001712816	-0.0002185296	0.1097232	0.2318803	
0.112044	0.2307456	0.001712816	-0.0002185296	-0.6260352	0.1112884	-0.00226727	-0.001306372	
0.002071551	3.211036e-05	0.1097232	0.2318803	-0.00226727	-0.001306372	-0.6233209	0.1128271	

3.816e+10	-0.4075545	0.190739	-0.0004977923	0.001984726	0.1142118	0.2299371	0.001738506	-0.001162203	
-0.0004977923	0.001984726	-0.4074115	0.1836966	0.001255841	-0.001138967	0.1130429	0.2321835	
0.1142118	0.2299371	0.001255841	-0.001138967	-0.6196357	0.1152902	-0.002640404	0.0001735241	
0.001738506	-0.001162203	0.1130429	0.2321835	-0.002640404	0.0001735241	-0.6165377	0.1150478	

3.818e+10	-0.4038137	0.1857336	0.0007450494	0.001879192	0.116005	0.2285892	0.0007634793	-0.001958122	
0.0007450494	0.001879192	-0.4079792	0.1797702	0.0003689759	-0.001606266	0.1163821	0.2309982	
0.116005	0.2285892	0.0003689759	-0.001606266	-0.6126803	0.1154349	-0.002120905	0.00164455	
0.0007634793	-0.001958122	0.1163821	0.2309982	-0.002120905	0.00164455	-0.6102075	0.113536	

3.82e+10	-0.403839	0.1800541	0.001656	0.001072012	0.1171802	0.2268866	-0.000496862	-0.002039757	
0.001656	0.001072012	-0.4107537	0.1776639	-0.0005811918	-0.001478467	0.1188123	0.2285187	
0.1171802	0.2268866	-0.0005811918	-0.001478467	-0.6071991	0.1122089	-0.000834272	0.002590684	
-0.000496862	-0.002039757	0.1188123	0.2285187	-0.000834272	0.002590684	-0.6062159	0.1091847	

3.822e+10	-0.407355	0.1760251	0.001907794	-6.497479e-05	0.1175364	0.2251805	-0.001562612	-0.001380538	
0.001907794	-6.497479e-05	-0.4143402	0.178186	-0.001252782	-0.0008716791	0.1196741	0.2255585	
0.1175364	0.2251805	-0.001252782	-0.0008716791	-0.605126	0.1068089	0.0007947994	0.002633998	
-0.001562612	-0.001380538	0.1196741	0.2255585	0.0007947994	0.002633998	-0.6060121	0.1036964	

3.824e+10	-0.412632	0.175492	0.001492399	-0.00108445	0.1171596	0.2240009	-0.002049485	-0.0002501929	
0.001492399	-0.00108445	-0.4170331	0.1813311	-0.001470758	-4.673433e-05	0.1190201	0.2231766	
0.1171596	0.2240009	-0.001470758	-4.673433e-05	-0.607185	0.101499	0.002165781	0.001720026	
-0.002049485	-0.0002501929	0.1190201	0.2231766	0.002165781	0.001720026	-0.6096724	0.09950993	

3.826e+10	-0.4173902	0.178635	0.0006320594	-0.001678542	0.1165339	0.2237071	-0.001821777	0.0009334544	
0.0006320594	-0.001678542	-0.4176689	0.1858708	-0.001230449	0.0007305869	0.1175753	0.2220985	
0.1165339	0.2237071	-0.001230449	0.0007305869	-0.6124317	0.09886324	0.002759583	0.0001868231	
-0.001821777	0.0009334544	0.1175753	0.2220985	0.002759583	0.0001868231	-0.6157092	0.09851042	

3.828e+10	-0.4196476	0.184562	-0.0003759585	-0.001722857	0.1162163	0.2242327	-0.0009918421	0.001783453	
-0.0003759585	-0.001722857	-0.4157758	0.1906204	-0.0006366891	0.001253356	0.1162075	0.2223885	
0.1162163	0.2242327	-0.0006366891	0.001253356	-0.6187818	0.09999914	0.002381104	-0.001396874	
-0.0009918421	0.001783453	0.1162075	0.2223885	0.002381104	-0.001396874	-0.6216756	0.1015805	

3.83e+10	-0.4186308	0.1911341	-0.001245938	-0.001236838	0.1165671	0.2251885	0.0001636039	0.002044565	
-0.001245938	-0.001236838	-0.4119701	0.1939462	0.0001338135	0.001386156	0.1155817	0.2237054	
0.1165671	0.2251885	0.0001338135	0.001386156	-0.6238329	0.1049536	0.001197984	-0.002488559	
0.0001636039	0.002044565	0.1155817	0.2237054	0.001197984	-0.002488559	-0.6254071	0.1078018	

3.832e+10	-0.4143797	0.1968506	-0.001729466	-0.0003543793	0.11758	0.2261388	0.001291009	0.001629199	
-0.001729466	-0.0003543793	-0.4072375	0.1953777	0.0008569571	0.001089194	0.1159896	0.2254977	
0.11758	0.2261388	0.0008569571	0.001089194	-0.6260071	0.1120726	-0.0003862841	-0.002753436	
0.001291009	0.001629199	0.1159896	0.2254977	-0.0003862841	-0.002753436	-0.6257067	0.1154032	

3.834e+10	-0.407967	0.2000376	-0.001653576	0.0006714474	0.1191323	0.2268847	0.002022606	0.0006348545	
-0.001653576	0.0006714474	-0.4029606	0.1946253	0.001305484	0.0004485713	0.1175313	0.2272454	
0.1191323	0.2268847	0.001305484	0.0004485713	-0.6247029	0.1193945	-0.001874945	-0.002107352	
0.002022606	0.0006348545	0.1175313	0.2272454	-0.001874945	-0.002107352	-0.6226123	0.1220388	

3.836e+10	-0.4009583	0.1999978	-0.001000622	0.001500937	0.1210581	0.2272463	0.002069141	-0.000643515	
-0.001000622	0.001500937	-0.3999905	0.1925884	0.001332244	-0.0003303881	0.1200289	0.2283792	
0.1210581	0.2272463	0.001332244	-0.0003303881	-0.62025	0.1254023	-0.002790984	-0.0007181608	
0.002069141	-0.000643515	0.1200289	0.2283792	-0.002790984	-0.0007181608	-0.6169586	0.1265312	

3.838e+10	-0.395251	0.1967204	2.797032e-05	0.001814784	0.1232669	0.2271145	0.001345608	-0.001752744	
2.797032e-05	0.001814784	-0.3988647	0.1900778	0.0009362953	-0.0009896893	0.1230832	0.2284757	
0.1232669	0.2271145	0.0009362953	-0.0009896893	-0.6138882	0.1285834	-0.002782075	0.001004901	
0.001345608	-0.001752744	0.1230832	0.2284757	-0.002782075	0.001004901	-0.6103869	0.1277389	

3.84e+10	-0.392425	0.1914833	0.001054367	0.001475497	0.1255244	0.226275	7.592916e-05	-0.002237012	
0.001054367	0.001475497	-0.3992774	0.1882263	0.0002633111	-0.001328966	0.1260293	0.2273442	
0.1255244	0.226275	0.0002633111	-0.001328966	-0.607436	0.1281176	-0.001758821	0.002478565	
7.592916e-05	-0.002237012	0.1260293	0.2273442	-0.001758821	0.002478565	-0.6049126	0.1253815	

3.842e+10	-0.3932689	0.1861493	0.001691747	0.0006136396	0.127391	0.2246777	-0.001246951	-0.001869017	
0.001691747	0.0006136396	-0.4006292	0.1875832	-0.000476458	-0.001272314	0.1282028	0.2252747	
0.127391	0.2246777	-0.000476458	-0.001272314	-0.602753	0.1247144	-8.206509e-06	0.003113889	
-0.001246951	-0.001869017	0.1282028	0.2252747	-8.206509e-06	0.003113889	-0.6022584	0.1207804	

3.844e+10	-0.3970903	0.1829771	0.001725044	-0.0004352222	0.1283807	0.2226489	-0.002091074	-0.0007972492	
0.001725044	-0.0004352222	-0.4020668	0.1884274	-0.00109001	-0.000850078	0.1292292	0.2228514	
0.1283807	0.2226489	-0.00109001	-0.000850078	-0.6013868	0.1197324	0.001835779	0.002586058	
-0.002091074	-0.0007972492	0.1292292	0.2228514	0.001835779	0.002586058	-0.6033161	0.1160712	

3.846e+10	-0.4021028	0.1832488	0.001184358	-0.001302963	0.1283426	0.2208338	-0.002155242	0.0005401598	
0.001184358	-0.001302963	-0.4029286	0.1903774	-0.001420523	-0.0001535657	0.1291945	0.2207537	
0.1283426	0.2208338	-0.001420523	-0.0001535657	-0.6037432	0.1151702	0.003031052	0.001047345	
-0.002155242	0.0005401598	0.1291945	0.2207537	0.003031052	0.001047345	-0.6075431	0.1132597	

3.848e+10	-0.4061614	0.1868993	0.0002804209	-0.001731945	0.1276387	0.2198433	-0.001465064	0.001658868	
0.0002804209	-0.001731945	-0.4027698	0.1930614	-0.001340223	0.0006606339	0.1284715	0.2194041	
0.1276387	0.2198433	-0.001340223	0.0006606339	-0.6087426	0.1133733	0.003093975	-0.0009084944	
-0.001465064	0.001658868	0.1284715	0.2194041	0.003093975	-0.0009084944	-0.6130588	0.1139558	

3.85e+10	-0.407581	0.1927497	-0.0007092708	-0.001619603	0.1268931	0.2198474	-0.0002789906	0.002204416	
-0.0007092708	-0.001619603	-0.4015075	0.1957416	-0.0007990976	0.001352816	0.1275137	0.2189674	
0.1268931	0.2198474	-0.0007990976	0.001352816	-0.6143932	0.1150915	0.002013794	-0.002533047	
-0.0002789906	0.002204416	0.1275137	0.2189674	0.002013794	-0.002533047	-0.6175808	0.118145	

3.852e+10	-0.4057055	0.1990166	-0.001506733	-0.0009935076	0.1266271	0.220612	0.001026184	0.002004046	
-0.001506733	-0.0009935076	-0.3991996	0.1980776	9.634004e-05	0.00165029	0.1267271	0.2194005	
0.1266271	0.220612	9.634004e-05	0.00165029	-0.6186254	0.1199125	0.0002023185	-0.003246502	
0.001026184	0.002004046	0.1267271	0.2194005	0.0002023185	-0.003246502	-0.6194833	0.1243473	

3.854e+10	-0.4010152	0.2038868	-0.0018628	6.502399e-07	0.1270896	0.2217763	0.002025943	0.001083753	
-0.0018628	6.502399e-07	-0.3962577	0.1995569	0.001065242	0.001369103	0.1264657	0.2205894	
0.1270896	0.2217763	0.001065242	0.001369103	-0.6200669	0.1266049	-0.001705885	-0.002803482	
0.002025943	0.001083753	0.1264657	0.2205894	-0.001705885	-0.002803482	-0.6181961	0.1308379	

3.856e+10	-0.3946724	0.2060667	-0.001601587	0.001085171	0.1283415	0.2229946	0.002331577	-0.0002936826	
-0.001601587	0.001085171	-0.3931887	0.1999076	0.001731377	0.0005321118	0.1270707	0.2222825	
0.1283415	0.2229946	0.001731377	0.0005321118	-0.6183539	0.133354	-0.003041198	-0.001333727	
0.002331577	-0.0002936826	0.1270707	0.2222825	-0.003041198	-0.001333727	-0.6143218	0.135742	

3.858e+10	-0.3882314	0.205211	-0.0007190558	0.001875161	0.1303347	0.2238745	0.001747269	-0.00163684	
-0.0007190558	0.001875161	-0.3904434	0.1993702	0.001783154	-0.0005905504	0.1287865	0.2239846	
0.1303347	0.2238745	0.001783154	-0.0005905504	-0.6140892	0.138391	-0.003294058	0.0006749747	
0.001747269	-0.00163684	0.1287865	0.2239846	-0.003294058	0.0006749747	-0.6092092	0.1380735	

3.86e+10	-0.383403	0.2016326	0.0005208025	0.002005273	0.1329269	0.2240793	0.0004400717	-0.002376498	
0.0005208025	0.002005273	-0.3884988	0.1981209	0.001139034	-0.001562006	0.1316123	0.2250741	
0.1329269	0.2240793	0.001139034	-0.001562006	-0.6083421	0.1410061	-0.002314852	0.002486722	
0.0004400717	-0.002376498	0.1316123	0.2250741	-0.002314852	0.002486722	-0.6044381	0.1377688	

3.862e+10	-0.3814531	0.1966298	0.001631234	0.001347317	0.1356919	0.2232705	-0.001055225	-0.00216737	
0.001631234	0.001347317	-0.3876109	0.1966462	1.903885e-05	-0.001976108	0.1350991	0.2249139	
0.1356919	0.2232705	1.903885e-05	-0.001976108	-0.6026275	0.1406794	-0.0004382217	0.0033908	
-0.001055225	-0.00216737	0.1350991	0.2249139	-0.0004382217	0.0033908	-0.6012958	0.1356181	

3.864e+10	-0.3827116	0.1921492	0.002133107	0.0001369661	0.137988	0.2214112	-0.002102	-0.001111543	
0.002133107	0.0001369661	-0.3876648	0.1956538	-0.001150005	-0.001650949	0.1384166	0.2232171	
0.137988	0.2214112	-0.001150005	-0.001650949	-0.5986317	0.1375449	0.001620024	0.003018548	
-0.002102	-0.001111543	0.1384166	0.2232171	0.001620024	0.003018548	-0.6005282	0.1325842	

3.866e+10	-0.3864472	0.1898206	0.00181925	-0.001132031	0.13918	0.2189239	-0.002310081	0.0003123352	
0.00181925	-0.001132031	-0.3885004	0.1953954	-0.001924139	-0.0006961488	0.1406463	0.2202781	
0.13918	0.2189239	-0.001924139	-0.0006961488	-0.5974638	0.13333	0.003066352	0.001515686	
-0.002310081	0.0003123352	0.1406463	0.2202781	0.003066352	0.001515686	-0.6020036	0.1303778	

3.868e+10	-0.3908369	0.1907928	0.0008381239	-0.001972199	0.1390778	0.2166277	-0.001684387	0.001548331	
0.0008381239	-0.001972199	-0.3894117	0.1963649	-0.002009848	0.0005498323	0.1412016	0.2169337	
0.1390778	0.2166277	-0.002009848	0.0005498323	-0.5995011	0.1295072	0.003366507	-0.0005314678	
-0.001684387	0.001548331	0.1412016	0.2169337	0.003366507	-0.0005314678	-0.6049514	0.1298008	

3.87e+10	-0.3940129	0.1946477	-0.0004340097	-0.002106862	0.1380801	0.2152718	-0.0005077301	0.002204486	
-0.0004340097	-0.002106862	-0.3898213	0.1983668	-0.001349662	0.001641352	0.1401037	0.2142232	
0.1380801	0.2152718	-0.001349662	0.001641352	-0.6038064	0.1281227	0.002438814	-0.002360818	
-0.0005077301	0.002204486	0.1401037	0.2142232	0.002438814	-0.002360818	-0.6080666	0.1315797	

3.872e+10	-0.3945491	0.2001662	-0.001568662	-0.001508503	0.136917	0.2151486	0.0008237414	0.002103994	
-0.001568662	-0.001508503	-0.3891349	0.2009335	-0.0001502475	0.002163289	0.1379898	0.2129981	
0.136917	0.2151486	-0.0001502475	0.002163289	-0.6086792	0.129823	0.0006450781	-0.003322354	
0.0008237414	0.002103994	0.1379898	0.2129981	0.0006450781	-0.003322354	-0.6101736	0.1350488	

3.874e+10	-0.392071	0.2056673	-0.002192145	-0.000356228	0.1362688	0.2160565	0.001886895	0.001272535	
-0.002192145	-0.000356228	-0.3871914	0.2033662	0.001162001	0.001879972	0.1358389	0.2135944	
0.1362688	0.2160565	0.001162001	0.001879972	-0.6123013	0.1341751	-0.001368246	-0.003091992	
0.001886895	0.001272535	0.1358389	0.2135944	-0.001368246	-0.003091992	-0.6104637	0.1393664	

3.876e+10	-0.3872098	0.2095382	-0.0020515	0.0009939435	0.1365543	0.2175428	0.00230077	-4.448636e-05	
-0.0020515	0.0009939435	-0.3843707	0.2049763	0.002075776	0.0008543019	0.1347067	0.2157853	
0.1365543	0.2175428	0.002075776	0.0008543019	-0.6135004	0.1401723	-0.002891725	-0.001756123	
0.00230077	-4.448636e-05	0.1347067	0.2157853	-0.002891725	-0.001756123	-0.6089753	0.1433946	

3.878e+10	-0.3811947	0.210865	-0.001115856	0.00205772	0.137883	0.2190817	0.001859909	-0.001389113	
-0.001115856	0.00205772	-0.3813517	0.2054226	0.002202326	-0.0005367878	0.1353275	0.218755	
0.137883	0.2190817	0.002202326	-0.0005367878	-0.6120039	0.1461386	-0.003379706	0.0002144097	
0.001859909	-0.001389113	0.1353275	0.218755	-0.003379706	0.0002144097	-0.6063726	0.146249	

3.88e+10	-0.3755672	0.2093816	0.0003216802	0.002370473	0.1401852	0.220157	0.0006888596	-0.002220817	
0.0003216802	0.002370473	-0.378714	0.2049407	0.001469122	-0.001735336	0.1379176	0.2213843	
0.1401852	0.220157	0.001469122	-0.001735336	-0.6082039	0.1509659	-0.002650584	0.00210988	
0.0006888596	-0.002220817	0.1379176	0.2213843	-0.002650584	0.00210988	-0.6034788	0.147782	

3.882e+10	-0.3717075	0.2057865	0.001692583	0.001735485	0.1431321	0.2202947	-0.000746192	-0.002181933	
0.001692583	0.001735485	-0.3768758	0.2039461	0.0001734575	-0.002259953	0.1419807	0.222582	
0.1431321	0.2202947	0.0001734575	-0.002259953	-0.603043	0.1534896	-0.0009718495	0.003245516	
-0.000746192	-0.002181933	0.1419807	0.222582	-0.0009718495	0.003245516	-0.6010095	0.1480671	

3.884e+10	-0.370606	0.2013064	0.002401937	0.0003856525	0.1461487	0.219207	-0.001849792	-0.001307788	
0.002401937	0.0003856525	-0.375972	0.2027788	-0.001163596	-0.001927394	0.1464916	0.221728	
0.1461487	0.219207	-0.001163596	-0.001927394	-0.5977805	0.1534839	0.001048696	0.003224872	
-0.001849792	-0.001307788	0.1464916	0.221728	0.001048696	0.003224872	-0.5992942	0.1477554	

3.886e+10	-0.3722226	0.1977477	0.00215083	-0.001108985	0.1484863	0.2169643	-0.002212197	3.861015e-06	
0.00215083	-0.001108985	-0.3757527	0.2020683	-0.002046728	-0.0009005819	0.1501769	0.2188849	
0.1484863	0.2169643	-0.002046728	-0.0009005819	-0.593899	0.1509415	0.002704344	0.002064338	
-0.002212197	3.861015e-06	0.1501769	0.2188849	0.002704344	0.002064338	-0.5985038	0.1471174	

3.888e+10	-0.3755665	0.1965084	0.001076326	-0.002138177	0.1495078	0.2141551	-0.001772462	0.00123327	
0.001076326	-0.002138177	-0.3760082	0.2019519	-0.002186689	0.0004286151	0.1520206	0.2148336	
0.1495078	0.2141551	-0.002186689	0.0004286151	-0.5925039	0.1471787	0.003419078	0.0001617061	
-0.001772462	0.00123327	0.1520206	0.2148336	0.003419078	0.0001617061	-0.5985869	0.1466948	

3.89e+10	-0.3790461	0.1980763	-0.0003625662	-0.002337448	0.1491009	0.2117168	-0.0007588468	0.001979962	
-0.0003625662	-0.002337448	-0.3762895	0.2026957	-0.001555305	0.001600472	0.1516325	0.210848	
0.1491009	0.2117168	-0.001555305	0.001600472	-0.5940626	0.1437189	0.002924668	-0.001830731	
-0.0007588468	0.001979962	0.1516325	0.210848	0.002924668	-0.001830731	-0.5993189	0.146985	

3.892e+10	-0.3810181	0.201909	-0.001628229	-0.001687848	0.1477871	0.210428	0.0004736032	0.002048464	
-0.001628229	-0.001687848	-0.376143	0.204144	-0.0003655355	0.002214737	0.14943	0.2082069	
0.1477871	0.210428	-0.0003655355	0.002214737	-0.5978691	0.142212	0.001363825	-0.003201622	
0.0004736032	0.002048464	0.14943	0.2082069	0.001363825	-0.003201622	-0.6002846	0.1479996	

3.894e+10	-0.3804996	0.2067664	-0.002296421	-0.0004484591	0.1464705	0.2105552	0.001542889	0.001430934	
-0.002296421	-0.0004484591	-0.3753451	0.2058362	0.0009789344	0.002040086	0.1465327	0.2077157	
0.1464705	0.2105552	0.0009789344	0.002040086	-0.6023567	0.1436127	-0.0007231993	-0.003431827	
0.001542889	0.001430934	0.1465327	0.2077157	-0.0007231993	-0.003431827	-0.6009885	0.1497319	

3.896e+10	-0.377502	0.2110652	-0.002145326	0.0009565071	0.1459195	0.2117516	0.002094591	0.0003058291	
-0.002145326	0.0009565071	-0.3738001	0.2074567	0.001990349	0.001110318	0.1442813	0.2093587	
0.1459195	0.2117516	0.001990349	0.001110318	-0.6058547	0.1475794	-0.002577198	-0.002412543	
0.002094591	0.0003058291	0.1442813	0.2093587	-0.002577198	-0.002412543	-0.601148	0.1518906	

3.898e+10	-0.3727782	0.2136649	-0.001205663	0.002037042	0.1465118	0.2133833	0.001901735	-0.0009557663	
-0.001205663	0.002037042	-0.3717893	0.2086384	0.002275767	-0.0002467089	0.1437685	0.2123852	
0.1465118	0.2133833	0.002275767	-0.0002467089	-0.6071276	0.1532887	-0.00351364	-0.0005025679	
0.001901735	-0.0009557663	0.1437685	0.2123852	-0.00351364	-0.0005025679	-0.6008175	0.1540402	

3.9e+10	-0.367648	0.2138903	0.0002114679	0.002376008	0.1482371	0.2147937	0.0009999739	-0.001879886	
0.0002114679	0.002376008	-0.3697271	0.2091815	0.001714729	-0.001518131	0.1454145	0.2155696	
0.1482371	0.2147937	0.001714729	-0.001518131	-0.6058023	0.1591553	-0.00318634	0.00160535	
0.0009999739	-0.001879886	0.1454145	0.2155696	-0.00318634	0.00160535	-0.60016	0.1561063	

3.902e+10	-0.3632984	0.2120394	0.001575055	0.001804756	0.1507827	0.2154601	-0.0002714124	-0.00209721	
0.001575055	0.001804756	-0.3676903	0.2093868	0.0005250227	-0.002222735	0.1489075	0.2176939	
0.1507827	0.2154601	0.0005250227	-0.002222735	-0.6020945	0.1640369	-0.001713668	0.003156184	
-0.0002714124	-0.00209721	0.1489075	0.2176939	-0.001713668	0.003156184	-0.5991971	0.1582028	

3.904e+10	-0.3608448	0.208838	0.002333008	0.0005270498	0.1536641	0.2150637	-0.001409881	-0.001536461	
0.002333008	0.0005270498	-0.3659267	0.2092291	-0.0008394027	-0.002114696	0.1533684	0.2179703	
0.1536641	0.2150637	-0.0008394027	-0.002114696	-0.5969298	0.1665535	0.000391816	0.00360497	
-0.001409881	-0.001536461	0.1533684	0.2179703	0.000391816	0.00360497	-0.597964	0.1600003	

3.906e+10	-0.3605689	0.2056649	0.002178298	-0.0009423627	0.1562525	0.2135624	-0.001997775	-0.0004516838	
0.002178298	-0.0009423627	-0.3643869	0.2089398	-0.001888975	-0.001258838	0.1576202	0.216167	
0.1562525	0.2135624	-0.001888975	-0.001258838	-0.5916703	0.166311	0.002409656	0.002776197	
-0.001997775	-0.0004516838	0.1576202	0.216167	0.002409656	0.002776197	-0.5963773	0.1615851	

3.908e+10	-0.3621055	0.203703	0.001195604	-0.002014989	0.157963	0.2113149	-0.001874575	0.0007357705	
0.001195604	-0.002014989	-0.363228	0.2085281	-0.002273567	3.254083e-05	0.1605981	0.2127498	
0.157963	0.2113149	-0.002273567	3.254083e-05	-0.5878173	0.1637898	0.003627126	0.0009106672	
-0.001874575	0.0007357705	0.1605981	0.2127498	0.003627126	0.0009106672	-0.5945725	0.1626566	

3.91e+10	-0.3642866	0.2037598	-0.0001990368	-0.002298097	0.1585026	0.2089557	-0.001139146	0.001635967	
-0.0001990368	-0.002298097	-0.3624459	0.2081632	-0.001868451	0.001322448	0.1616019	0.2086591	
0.1585026	0.2089557	-0.001868451	0.001322448	-0.5866968	0.1599519	0.003553128	-0.001373889	
-0.001139146	0.001635967	0.1616019	0.2086591	0.003553128	-0.001373889	-0.5928985	0.1630888	

3.912e+10	-0.3658814	0.2056591	-0.001468014	-0.001734702	0.1580956	0.2072298	-4.521282e-05	0.001993887	
-0.001468014	-0.001734702	-0.3619657	0.2080555	-0.0007962966	0.002173631	0.1605794	0.2051334	
0.1580956	0.2072298	-0.0007962966	0.002173631	-0.5885537	0.156712	0.002129495	-0.003237658	
-4.521282e-05	0.001993887	0.1605794	0.2051334	0.002129495	-0.003237658	-0.5917039	0.1629824	

3.914e+10	-0.3660447	0.2086189	-0.002172483	-0.0005699403	0.157347	0.2064802	0.001081656	0.001699954	
-0.002172483	-0.0005699403	-0.36168	0.2083114	0.0005951768	0.00226997	0.1581739	0.2032053	
0.157347	0.2064802	0.0005951768	0.00226997	-0.5924456	0.1556462	-0.0001630699	-0.003925114	
0.001081656	0.001699954	0.1581739	0.2032053	-0.0001630699	-0.003925114	-0.5912594	0.1626379	

3.916e+10	-0.3646025	0.2116078	-0.002090648	0.0007733543	0.1568872	0.2066164	0.001878738	0.0008104735	
-0.002090648	0.0007733543	-0.3613765	0.2089773	0.001815525	0.00153799	0.1555779	0.2033771	
0.1568872	0.2066164	0.001815525	0.00153799	-0.5965977	0.1576279	-0.002450628	-0.003119791	
0.001878738	0.0008104735	0.1555779	0.2033771	-0.002450628	-0.003119791	-0.5915765	0.1625031	

3.918e+10	-0.3619507	0.2138013	-0.001260613	0.001827363	0.1570451	0.2071995	0.002037268	-0.0004073822	
-0.001260613	0.001827363	-0.3608347	0.2100108	0.002399217	0.000212394	0.1539988	0.2053384	
0.1570451	0.2071995	0.002399217	0.000212394	-0.5994627	0.1618597	-0.003836773	-0.001108879	
0.002037268	-0.0004073822	0.1539988	0.2053384	-0.003836773	-0.001108879	-0.5925702	0.1628873	

3.92e+10	-0.3586959	0.2149303	2.480626e-05	0.002213761	0.1578487	0.207845	0.001455304	-0.001517153	
2.480626e-05	0.002213761	-0.3598877	0.2113138	0.002102653	-0.001224265	0.1542411	0.2081637	
0.1578487	0.207845	0.002102653	-0.001224265	-0.5999347	0.1675048	-0.003783997	0.00133924	
0.001455304	-0.001517153	0.1542411	0.2081637	-0.003783997	0.00133924	-0.5938268	0.1642364	

3.922e+10	-0.3556751	0.214811	0.001297921	0.001784142	0.159106	0.2082827	0.0003268236	-0.002093746	
0.001297921	0.001784142	-0.3585236	0.2126219	0.001018743	-0.00223233	0.156358	0.2106898	
0.159106	0.2082827	0.001018743	-0.00223233	-0.5979684	0.1727078	-0.002313747	0.0033056	
0.0003268236	-0.002093746	0.156358	0.2106898	-0.002313747	0.0033056	-0.5948485	0.1666444	

3.924e+10	-0.3532452	0.2140172	0.002080974	0.0006951132	0.1606227	0.2084298	-0.0009328753	-0.001916072	
0.002080974	0.0006951132	-0.3566771	0.2138052	-0.0004586367	-0.00242959	0.1598212	0.2120206	
0.1606227	0.2084298	-0.0004586367	-0.00242959	-0.5940268	0.1765228	3.409519e-05	0.004061257	
-0.0009328753	-0.001916072	0.1598212	0.2120206	3.409519e-05	0.004061257	-0.5950855	0.1697392	

3.926e+10	-0.3516517	0.212884	0.002081909	-0.0006363842	0.162315	0.2083077	-0.001868415	-0.001052368	
0.002081909	-0.0006363842	-0.354432	0.2145671	-0.0017882	-0.001735915	0.1637872	0.2117096	
0.162315	0.2083077	-0.0017882	-0.001735915	-0.5892446	0.1781279	0.002406517	0.003313138	
-0.001868415	-0.001052368	0.1637872	0.2117096	0.002406517	0.003313138	-0.5940582	0.1732647	

3.928e+10	-0.3506706	0.2119556	0.001314821	-0.001709057	0.1641402	0.2078673	-0.002155361	0.0001953947	
0.001314821	-0.001709057	-0.351965	0.2147561	-0.002483276	-0.0003937566	0.1673621	0.2097785	
0.1641402	0.2078673	-0.002483276	-0.0003937566	-0.5850911	0.1773182	0.003922418	0.001303066	
-0.002155361	0.0001953947	0.1673621	0.2097785	0.003922418	0.001303066	-0.5918353	0.1762088	

3.93e+10	-0.3500967	0.2113585	8.336325e-05	-0.002132171	0.1660228	0.2070081	-0.001686133	0.00140284	
8.336325e-05	-0.002132171	-0.3496625	0.2141895	-0.002281049	0.001118462	0.1697839	0.2066469	
0.1660228	0.2070081	-0.002281049	0.001118462	-0.5826494	0.1750249	0.003980218	-0.001247706	
-0.001686133	0.00140284	0.1697839	0.2066469	0.003980218	-0.001247706	-0.5887445	0.1780889	

3.932e+10	-0.3497851	0.2110039	-0.001150787	-0.001768675	0.1677297	0.2056276	-0.0005955651	0.002150453	
-0.001150787	-0.001768675	-0.3479345	0.2130475	-0.001233915	0.002255661	0.1705865	0.203081	
0.1677297	0.2056276	-0.001233915	0.002255661	-0.5823967	0.1725138	0.002509175	-0.003372455	
-0.0005955651	0.002150453	0.1705865	0.203081	0.002509175	-0.003372455	-0.5855388	0.1784586	

3.934e+10	-0.3495916	0.2110536	-0.001936247	-0.0007728761	0.1689517	0.203807	0.0007599346	0.002144324	
-0.001936247	-0.0007728761	-0.3471646	0.2116608	0.0002996281	0.002588818	0.1697387	0.2000145	
0.1689517	0.203807	0.0002996281	0.002588818	-0.5840799	0.1707969	4.522004e-05	-0.004226458	
0.0007599346	0.002144324	0.1697387	0.2000145	4.522004e-05	-0.004226458	-0.5830563	0.1774796	

3.936e+10	-0.3495271	0.2114311	-0.002002705	0.0004734194	0.169446	0.2018449	0.001895169	0.001337836	
-0.002002705	0.0004734194	-0.3472738	0.2107309	0.001770481	0.001963973	0.1677947	0.1983194	
0.169446	0.2018449	0.001770481	0.001963973	-0.5866086	0.1710919	-0.002460649	-0.003450977	
0.001895169	0.001337836	0.1677947	0.1983194	-0.002460649	-0.003450977	-0.582012	0.1757198	

3.938e+10	-0.3494167	0.2123652	-0.001353397	0.001514223	0.1691306	0.2001887	0.002361769	-1.203324e-05	
-0.001353397	0.001514223	-0.3479622	0.2107334	0.002620385	0.0005739239	0.1656754	0.1983635	
0.1691306	0.2001887	0.002620385	0.0005739239	-0.5891205	0.1729408	-0.004021052	-0.001337626	
0.002361769	-1.203324e-05	0.1656754	0.1983635	-0.004021052	-0.001337626	-0.582732	0.1740522	

3.94e+10	-0.3489686	0.2138482	-0.0002492549	0.001992067	0.1682807	0.1993096	0.001942202	-0.001408039	
-0.0002492549	0.001992067	-0.3485992	0.211785	0.002493951	-0.001080366	0.164425	0.1999323	
0.1682807	0.1993096	0.002493951	-0.001080366	-0.5905815	0.1762845	-0.004025633	0.001283195	
0.001942202	-0.001408039	0.164425	0.1999323	-0.004025633	0.001283195	-0.5848372	0.1735698	

3.942e+10	-0.3478611	0.215683	0.0009160684	0.001769315	0.1673498	0.1994397	0.0007638885	-0.002307758	
0.0009160684	0.001769315	-0.34849	0.213806	0.001401181	-0.002363239	0.1646737	0.2022484	
0.1673498	0.1994397	0.001401181	-0.002363239	-0.5904636	0.1804102	-0.002489945	0.003385933	
0.0007638885	-0.002307758	0.1646737	0.2022484	-0.002489945	0.003385933	-0.5874056	0.1750016	

3.944e+10	-0.3458557	0.2174599	0.001753199	0.0009385213	0.1669514	0.2005806	-0.0007394957	-0.002345381	
0.001753199	0.0009385213	-0.3473143	0.2161841	-0.0002569569	-0.002757353	0.1665113	0.2043887	
0.1669514	0.2005806	-0.0002569569	-0.002757353	-0.5887769	0.184173	-3.198392e-05	0.004174277	
-0.0007394957	-0.002345381	0.1665113	0.2043887	-3.198392e-05	0.004174277	-0.5894599	0.1779684	

3.946e+10	-0.3431169	0.2185896	0.001983352	-0.0002234501	0.1676754	0.2023321	-0.001993226	-0.001483001	
0.001983352	-0.0002234501	-0.3450401	0.2182096	-0.001837049	-0.002091069	0.1695858	0.2055924	
0.1676754	0.2023321	-0.001837049	-0.002091069	-0.5859957	0.1869024	0.002395712	0.003380581	
-0.001993226	-0.001483001	0.1695858	0.2055924	0.002395712	0.003380581	-0.5900086	0.1822997	

3.948e+10	-0.3400107	0.2187861	0.001509364	-0.001327222	0.169804	0.203957	-0.002505491	-3.236131e-05	
0.001509364	-0.001327222	-0.3418638	0.2194726	-0.002721555	-0.0006178226	0.1732238	0.2053968	
0.169804	0.203957	-0.002721555	-0.0006178226	-0.5829225	0.1881665	0.003887671	0.00134053	
-0.002505491	-3.236131e-05	0.1732238	0.2053968	0.003887671	0.00134053	-0.5887477	0.1867618	

3.95e+10	-0.3371331	0.2179343	0.0004712246	-0.001968998	0.1731485	0.2045964	-0.002061738	0.001454396	
0.0004712246	-0.001968998	-0.3383209	0.2195403	-0.002572344	0.001092425	0.1766849	0.2037262	
0.1731485	0.2045964	-0.002572344	0.001092425	-0.5802388	0.1883071	0.003915682	-0.001161439	
-0.002061738	0.001454396	0.1766849	0.2037262	0.003915682	-0.001161439	-0.5857891	0.1904474	

3.952e+10	-0.3350419	0.2162509	-0.0007642157	-0.001884867	0.1769315	0.2035651	-0.0008187486	0.002400937	
-0.0007642157	-0.001884867	-0.3352399	0.2182068	-0.001454863	0.002391889	0.1792115	0.2008107	
0.1769315	0.2035651	-0.001454863	0.002391889	-0.5784125	0.1877144	0.002501371	-0.003201609	
-0.0008187486	0.002400937	0.1792115	0.2008107	0.002501371	-0.003201609	-0.5816743	0.1925957	

3.954e+10	-0.3340994	0.2142411	-0.001719618	-0.001084998	0.1800475	0.2008143	0.0007516596	0.002434084	
-0.001719618	-0.001084998	-0.333187	0.2160436	0.0002119128	0.002801998	0.1802317	0.1973028	
0.1800475	0.2008143	0.0002119128	0.002801998	-0.5775581	0.1868802	0.0001766184	-0.004046848	
0.0007516596	0.002434084	0.1802317	0.1973028	0.0001766184	-0.004046848	-0.5773793	0.1927403	

3.956e+10	-0.3344335	0.2125656	-0.002018162	0.0001195475	0.1815245	0.1969989	0.002045439	0.001532914	
-0.002018162	0.0001195475	-0.3327334	0.213611	0.001817357	0.002166226	0.1796173	0.1941185	
0.1815245	0.1969989	0.001817357	0.002166226	-0.5776393	0.1862385	-0.002208992	-0.003389879	
0.002045439	0.001532914	0.1796173	0.1941185	-0.002208992	-0.003389879	-0.5741508	0.1908832	

3.958e+10	-0.3356313	0.2120953	-0.001559578	0.001255278	0.1809477	0.1933176	0.002561942	3.636502e-05	
-0.001559578	0.001255278	-0.3336486	0.2120667	0.002763019	0.0006966889	0.1777568	0.1921616	
0.1809477	0.1933176	0.002763019	0.0006966889	-0.5784372	0.1862728	-0.003770702	-0.001457262	
0.002561942	3.636502e-05	0.1777568	0.1921616	-0.003770702	-0.001457262	-0.572974	0.1879411	

3.96e+10	-0.3370059	0.2130463	-0.0005480314	0.001903687	0.1787509	0.1909907	0.00209441	-0.001481114	
-0.0005480314	0.001903687	-0.3353154	0.2119776	0.002662198	-0.001072194	0.1755537	0.1919596	
0.1787509	0.1909907	0.002662198	-0.001072194	-0.5796162	0.1872109	-0.003896545	0.001032422	
0.00209441	-0.001481114	0.1755537	0.1919596	-0.003896545	0.001032422	-0.5741825	0.1854559	

3.962e+10	-0.3374639	0.2154025	0.0006325301	0.001862946	0.1760535	0.1907673	0.0008195196	-0.002430241	
0.0006325301	0.001862946	-0.336637	0.213554	0.001518322	-0.002449852	0.1741144	0.1934007	
0.1760535	0.1907673	0.001518322	-0.002449852	-0.5805642	0.189085	-0.002525604	0.003107755	
0.0008195196	-0.002430241	0.1741144	0.1934007	-0.002525604	0.003107755	-0.5772163	0.1845463	

3.964e+10	-0.3364418	0.218321	0.001580167	0.001168536	0.1741469	0.1925497	-0.0007701126	-0.002441	
0.001580167	0.001168536	-0.3367685	0.2162846	-0.0002305919	-0.002872259	0.1741839	0.1957541	
0.1741469	0.1925497	-0.0002305919	-0.002872259	-0.580812	0.1916355	-0.00021179	0.003955334	
-0.0007701126	-0.002441	0.1741839	0.1957541	-0.00021179	0.003955334	-0.5807385	0.1860076	

3.966e+10	-0.3339535	0.2207876	0.001973161	5.401595e-05	0.1740654	0.1955384	-0.002053338	-0.001510535	
0.001973161	5.401595e-05	-0.3353513	0.2192806	-0.00187872	-0.002165796	0.175974	0.1980163	
0.1740654	0.1955384	-0.00187872	-0.002165796	-0.5802264	0.1942536	0.002116815	0.003278744	
-0.002053338	-0.001510535	0.175974	0.1980163	0.002116815	0.003278744	-0.5833119	0.1897547	

3.968e+10	-0.330425	0.2222039	0.001655284	-0.001101351	0.1762222	0.1985048	-0.002533081	-9.726382e-06	
0.001655284	-0.001101351	-0.3324185	0.2217794	-0.002770493	-0.0006335098	0.1791499	0.1993087	
0.1762222	0.1985048	-0.002770493	-0.0006335098	-0.5789602	0.1967559	0.003569787	0.001405745	
-0.002533081	-9.726382e-06	0.1791499	0.1993087	0.003569787	0.001405745	-0.5839962	0.1948359	

3.97e+10	-0.3266384	0.2222333	0.0007131952	-0.001871299	0.1802306	0.2001523	-0.002038041	0.001469882	
0.0007131952	-0.001871299	-0.3285257	0.2230145	-0.002588044	0.001101759	0.1829719	0.199078	
0.1802306	0.2001523	-0.002588044	0.001101759	-0.5773589	0.1986879	0.003661942	-0.0009053574	
-0.002038041	0.001469882	0.1829719	0.199078	0.003661942	-0.0009053574	-0.5824091	0.2000848	

3.972e+10	-0.323211	0.2209759	-0.0005180556	-0.001944265	0.185045	0.1996276	-0.0007800284	0.002365511	
-0.0005180556	-0.001944265	-0.3243915	0.2226148	-0.001444314	0.002382968	0.1865512	0.1972034	
0.185045	0.1996276	-0.001444314	0.002382968	-0.575418	0.2003817	0.002437826	-0.002809346	
-0.0007800284	0.002365511	0.1865512	0.1972034	0.002437826	-0.002809346	-0.5787699	0.2042713	

3.974e+10	-0.320809	0.218677	-0.001562581	-0.001270328	0.189313	0.1968078	0.0007471543	0.002353761	
-0.001562581	-0.001270328	-0.3208624	0.2206876	0.0002110604	0.002761245	0.1890761	0.1940446	
0.189313	0.1968078	0.0002110604	0.002761245	-0.57329	0.2014375	0.0003788727	-0.003666276	
0.0007471543	0.002353761	0.1890761	0.1940446	0.0003788727	-0.003666276	-0.5737945	0.2064656	

3.976e+10	-0.3199083	0.2159434	-0.002002459	-0.0001066968	0.1917476	0.1923241	0.001968678	0.001458022	
-0.002002459	-0.0001066968	-0.3188855	0.2176105	0.001775931	0.002116397	0.189965	0.1903168	
0.1917476	0.1923241	0.001775931	0.002116397	-0.571165	0.2018115	-0.001795454	-0.00320208	
0.001968678	0.001458022	0.189965	0.1903168	-0.001795454	-0.00320208	-0.5686818	0.2061968	

3.978e+10	-0.3205892	0.2137256	-0.001667088	0.001079726	0.191665	0.1875481	0.002430252	2.68652e-05	
-0.001667088	0.001079726	-0.318824	0.2145641	0.002679407	0.0006769495	0.1891237	0.1870229	
0.191665	0.1875481	0.002679407	0.0006769495	-0.5695389	0.2014606	-0.003316995	-0.001565812	
0.002430252	2.68652e-05	0.1891237	0.1870229	-0.003316995	-0.001565812	-0.5649843	0.2036297	

3.98e+10	-0.3223661	0.2129651	-0.0007132471	0.001825617	0.1893076	0.1840358	0.001966525	-0.001392635	
-0.0007132471	0.001825617	-0.3204612	0.2126722	0.002564455	-0.001031684	0.1870197	0.1850973	
0.1893076	0.1840358	0.002564455	-0.001031684	-0.5688375	0.2006541	-0.003600058	0.0006717817	
0.001966525	-0.001392635	0.1870197	0.1850973	-0.003600058	0.0006717817	-0.5639098	0.1998017	

3.982e+10	-0.324164	0.2140716	0.000471015	0.00187422	0.1858244	0.1829346	0.0007647114	-0.002259502	
0.000471015	0.00187422	-0.322781	0.212754	0.001448598	-0.002343649	0.1846735	0.1850865	
0.1858244	0.1829346	0.001448598	-0.002343649	-0.569069	0.2001776	-0.002493158	0.002649378	
0.0007647114	-0.002259502	0.1846735	0.1850865	-0.002493158	0.002649378	-0.5656866	0.1965502	

3.984e+10	-0.324903	0.2166834	0.001448645	0.001245107	0.1829032	0.1844355	-0.0007010673	-0.002249485	
0.001448645	0.001245107	-0.3244692	0.2148429	-0.0002265435	-0.002721186	0.1832565	0.1867699	
0.1829032	0.1844355	-0.0002265435	-0.002721186	-0.570054	0.2003005	-0.0004370722	0.003559668	
-0.0007010673	-0.002249485	0.1832565	0.1867699	-0.0004370722	0.003559668	-0.5694203	0.1955115	

3.986e+10	-0.3240271	0.2197954	0.001886927	0.0001832095	0.1819546	0.1876905	-0.001860838	-0.001388036	
0.001886927	0.0001832095	-0.3246559	0.2180775	-0.001770773	-0.002024163	0.1835812	0.189289	
0.1819546	0.1876905	-0.001770773	-0.002024163	-0.5712611	0.2015091	0.001707547	0.003063451	
-0.001860838	-0.001388036	0.1835812	0.189289	0.001707547	0.003063451	-0.5735198	0.1973668	

3.988e+10	-0.3214665	0.222594	0.001641047	-0.0009339502	0.1835627	0.1911969	-0.002282131	-3.505377e-05	
0.001641047	-0.0009339502	-0.3228661	0.221568	-0.002572014	-0.0005772703	0.1857389	0.191487	
0.1835627	0.1911969	-0.002572014	-0.0005772703	-0.5723616	0.2035837	0.003087706	0.001447833	
-0.002282131	-3.505377e-05	0.1857389	0.191487	0.003087706	0.001447833	-0.5764943	0.2015466	

3.99e+10	-0.3177502	0.2243143	0.0007975077	-0.001708314	0.1873424	0.193498	-0.001841181	0.001279654	
0.0007975077	-0.001708314	-0.3194641	0.2241901	-0.002370713	0.001015109	0.1891883	0.1924656	
0.1873424	0.193498	-0.002370713	0.001015109	-0.5728413	0.2065744	0.003258975	-0.0005835053	
-0.001841181	0.001279654	0.1891883	0.1924656	0.003258975	-0.0005835053	-0.5772233	0.2072443	

3.992e+10	-0.3135087	0.224533	-0.0003431905	-0.001853495	0.192222	0.1936295	-0.0007429664	0.002076166	
-0.0003431905	-0.001853495	-0.3149126	0.2253722	-0.001313409	0.00215933	0.1930512	0.1917683	
0.192222	0.1936295	-0.001313409	0.00215933	-0.5721958	0.2100736	0.002281997	-0.002278416	
-0.0007429664	0.002076166	0.1930512	0.1917683	0.002281997	-0.002278416	-0.5752458	0.2131324	

3.994e+10	-0.3095003	0.2231366	-0.001361057	-0.001303839	0.1968417	0.1914068	0.0005907603	0.002091883	
-0.001361057	-0.001303839	-0.3102689	0.2245147	0.0001740096	0.002481607	0.1964115	0.1894936	
0.1968417	0.1914068	0.0001740096	0.002481607	-0.5701437	0.2135083	0.0005762283	-0.003108747	
0.0005907603	0.002091883	0.1964115	0.1894936	0.0005762283	-0.003108747	-0.5709603	0.2175719	

3.996e+10	-0.3066021	0.220316	-0.001863874	-0.0002539934	0.1999606	0.1873425	0.001675873	0.001343155	
-0.001863874	-0.0002539934	-0.3065198	0.2218833	0.001560671	0.001903105	0.1985302	0.1861195	
0.1999606	0.1873425	0.001560671	0.001903105	-0.5668207	0.2159945	-0.001273085	-0.002854033	
0.001675873	0.001343155	0.1985302	0.1861195	-0.001273085	-0.002854033	-0.5651696	0.2197824	

3.998e+10	-0.3055798	0.2168434	-0.001642956	0.0008905675	0.2008251	0.1825575	0.002120288	0.000113053	
-0.001642956	0.0008905675	-0.3046932	0.2181389	0.002359403	0.0006363066	0.1990161	0.1824478	
0.2008251	0.1825575	0.002359403	0.0006363066	-0.5629744	0.2167823	-0.00266028	-0.001608586	
0.002120288	0.000113053	0.1990161	0.1824478	-0.00266028	-0.001608586	-0.559493	0.2189251	

4e+10	-0.3065764	0.2139502	-0.0007871825	0.001668311	0.1993357	0.1784459	0.001762323	-0.001134652	
-0.0007871825	0.001668311	-0.3051651	0.2145532	0.002269096	-0.0008614049	0.1978846	0.1793993	
0.1993357	0.1784459	0.002269096	-0.0008614049	-0.5595669	0.2159189	-0.003091429	0.0002221387	
0.001762323	-0.001134652	0.1978846	0.1793993	-0.003091429	0.0002221387	-0.5555621	0.2155999	

4.002e+10	-0.3089936	0.2127627	0.0003412311	0.001776831	0.1962856	0.1762902	0.0007499043	-0.001921126	
0.0003412311	0.001776831	-0.3074948	0.2125227	0.001310328	-0.002012879	0.1957376	0.1778516	
0.1962856	0.1762902	0.001310328	-0.002012879	-0.5576742	0.2137361	-0.002366083	0.001971346	
0.0007499043	-0.001921126	0.1957376	0.1778516	-0.002366083	0.001971346	-0.5546531	0.2111362	

4.004e+10	-0.3114378	0.2138852	0.001286115	0.001212567	0.1931489	0.1766538	-0.0005079913	-0.001955805	
0.001286115	0.001212567	-0.3103829	0.2128421	-0.0001327633	-0.002357665	0.193605	0.1781537	
0.1931489	0.1766538	-0.0001327633	-0.002357665	-0.5578637	0.2112443	-0.0007457314	0.002942782	
-0.0005079913	-0.001955805	0.193605	0.1781537	-0.0007457314	0.002942782	-0.5569744	0.2074689	

4.006e+10	-0.3126663	0.2168235	0.001710233	0.0002357113	0.1914214	0.1790663	-0.001517795	-0.001260097	
0.001710233	0.0002357113	-0.3122979	0.2154399	-0.001463739	-0.001780717	0.1926185	0.179953	
0.1914214	0.1790663	-0.001463739	-0.001780717	-0.5599087	0.2097869	0.001095619	0.002752889	
-0.001517795	-0.001260097	0.1926185	0.179953	0.001095619	0.002752889	-0.5614035	0.2063338	

4.008e+10	-0.3119186	0.2205239	0.001501672	-0.0007761662	0.1919829	0.1822614	-0.001916614	-0.0001410837	
0.001501672	-0.0007761662	-0.3123509	0.2191982	-0.002164257	-0.0005685897	0.1934002	0.1822766	
0.1919829	0.1822614	-0.002164257	-0.0005685897	-0.5629947	0.2102711	0.00241206	0.001552501	
-0.001916614	-0.0001410837	0.1934002	0.1822766	0.00241206	0.001552501	-0.5660638	0.2084953	

4.01e+10	-0.3091147	0.2239262	0.0007703376	-0.001473144	0.1947235	0.1847922	-0.001604877	0.0009646889	
0.0007703376	-0.001473144	-0.3101381	0.223021	-0.002027735	0.0007674306	0.1958274	0.1840164	
0.1947235	0.1847922	-0.002027735	0.0007674306	-0.5658676	0.2130339	0.002765661	-0.000106217	
-0.001604877	0.0009646889	0.1958274	0.1840164	0.002765661	-0.000106217	-0.5692264	0.2133914	

4.012e+10	-0.3048023	0.2259537	-0.0002131312	-0.001629218	0.1988295	0.1856387	-0.0007442467	0.001671605	
-0.0002131312	-0.001629218	-0.3060778	0.2257425	-0.001184907	0.001740922	0.1992495	0.1844231	
0.1988295	0.1856387	-0.001184907	0.001740922	-0.5672535	0.2176346	0.002150222	-0.001594975	
-0.0007442467	0.001671605	0.1992495	0.1844231	0.002150222	-0.001594975	-0.5697278	0.2197254	

4.014e+10	-0.2998242	0.2260158	-0.001105943	-0.001198499	0.2031448	0.1844655	0.0003401387	0.001763497	
-0.001105943	-0.001198499	-0.3010122	0.2264996	1.870256e-05	0.002056715	0.2027893	0.1832792	
0.2031448	0.1844655	1.870256e-05	0.002056715	-0.5663655	0.2229831	0.0008708258	-0.002459273	
0.0003401387	0.001763497	0.2027893	0.1832792	0.0008708258	-0.002459273	-0.5671938	0.2259432	

4.016e+10	-0.2951701	0.2240463	-0.001587499	-0.0003293332	0.2066	0.1815281	0.001271994	0.00123097	
-0.001587499	-0.0003293332	-0.2959854	0.2250725	0.001167824	0.001651026	0.2056556	0.1808001	
0.2066	0.1815281	0.001167824	0.001651026	-0.5631503	0.2276418	-0.0006350137	-0.002487629	
0.001271994	0.00123097	0.2056556	0.1808001	-0.0006350137	-0.002487629	-0.5621884	0.2304557	

4.018e+10	-0.2921359	0.2203001	-0.001466272	0.0006608151	0.2084639	0.1775547	0.001727048	0.0002672254	
-0.001466272	0.0006608151	-0.2923231	0.2216442	0.001880787	0.0006760497	0.2073054	0.1775254	
0.2084639	0.1775547	0.001880787	0.0006760497	-0.5581448	0.2305067	-0.001904221	-0.001695407	
0.001727048	0.0002672254	0.2073054	0.1775254	-0.001904221	-0.001695407	-0.5557996	0.2322681	

4.02e+10	-0.2914187	0.2160323	-0.0007784614	0.001379857	0.2083793	0.1735103	0.001537953	-0.0007756972	
-0.0007784614	0.001379857	-0.2908893	0.2172965	0.001905779	-0.0005299881	0.2074681	0.1741481	
0.2083793	0.1735103	0.001905779	-0.0005299881	-0.5525829	0.2308105	-0.002525955	-0.0003204461	
0.001537953	-0.0007756972	0.2074681	0.1741481	-0.002525955	-0.0003204461	-0.5497692	0.2308759	

4.022e+10	-0.2932116	0.21264	0.000185725	0.0015343	0.2066255	0.1704864	0.0007810335	-0.001498244	
0.000185725	0.0015343	-0.2920508	0.213436	0.001224552	-0.001521023	0.2062901	0.1715027	
0.2066255	0.1704864	0.001224552	-0.001521023	-0.5482085	0.2283095	-0.002250907	0.001183758	
0.0007810335	-0.001498244	0.2062901	0.1715027	-0.002250907	0.001183758	-0.5459234	0.226799	

4.024e+10	-0.2964558	0.211538	0.001017409	0.001093216	0.2040187	0.1693074	-0.0002336721	-0.00163044	
0.001017409	0.001093216	-0.2950405	0.21154	0.0001014726	-0.001913211	0.2043362	0.1702706	
0.2040187	0.1693074	0.0001014726	-0.001913211	-0.5463506	0.2242975	-0.00113922	0.002254294	
-0.0002336721	-0.00163044	0.2043362	0.1702706	-0.00113922	0.002254294	-0.5454425	0.221814	

4.026e+10	-0.299455	0.2132052	0.001406062	0.0002877282	0.2017865	0.1701368	-0.001101933	-0.001156335	
0.001406062	0.0002877282	-0.2982531	0.2124278	-0.001007976	-0.001570688	0.2025664	0.1706856	
0.2017865	0.1701368	-0.001007976	-0.001570688	-0.5476235	0.2204764	0.0003801637	0.002455141	
-0.001101933	-0.001156335	0.2025664	0.1706856	0.0003801637	0.002455141	-0.5483099	0.2180882	

4.028e+10	-0.3007344	0.2168965	0.001266619	-0.0005462787	0.2010674	0.1723721	-0.001515117	-0.0003013755	
0.001266619	-0.0005462787	-0.3001675	0.2156128	-0.001677627	-0.0006730417	0.2019586	0.1723609	
0.2010674	0.1723721	-0.001677627	-0.0006730417	-0.5513443	0.218738	0.001687843	0.001732983	
-0.001515117	-0.0003013755	0.2019586	0.1723609	0.001687843	0.001732983	-0.5532401	0.2172581	

4.03e+10	-0.299572	0.2211865	0.000712036	-0.001126896	0.2023259	0.1748342	-0.001370913	0.00059609	
0.000712036	-0.001126896	-0.2997958	0.2198194	-0.001701328	0.0003968507	0.2030001	0.1743427	
0.2023259	0.1748342	-0.001701328	0.0003968507	-0.5559146	0.2199899	0.00229769	0.0004387234	
-0.001370913	0.00059609	0.2030001	0.1743427	0.00229769	0.0004387234	-0.5581761	0.2198714	

4.032e+10	-0.2960548	0.2247993	-4.162498e-05	-0.001297833	0.2052127	0.1763862	-0.0007699839	0.00123032	
-4.162498e-05	-0.001297833	-0.2969487	0.2237669	-0.001138956	0.001251257	0.2054657	0.1756456	
0.2052127	0.1763862	-0.001138956	0.001251257	-0.5594142	0.2242029	0.002071382	-0.0009018663	
-0.0007699839	0.00123032	0.2054657	0.1756456	0.002071382	-0.0009018663	-0.5611784	0.2253648	

4.034e+10	-0.2909668	0.226593	-0.0007500178	-0.001031932	0.2088957	0.1763806	5.678059e-05	0.001415562	
-0.0007500178	-0.001031932	-0.2922862	0.226149	-0.0002300838	0.001631759	0.2087043	0.1756769	
0.2088957	0.1763806	-0.0002300838	0.001631759	-0.5604147	0.2303	0.001183218	-0.001844751	
5.678059e-05	0.001415562	0.2087043	0.1756769	0.001183218	-0.001844751	-0.5611936	0.2321098	

4.036e+10	-0.2854455	0.2259981	-0.001188574	-0.0004229983	0.2124554	0.174749	0.0008303542	0.001115224	
-0.001188574	-0.0004229983	-0.2867735	0.2263176	0.0007131054	0.001450819	0.2119286	0.1743032	
0.2124554	0.174749	0.0007131054	0.001450819	-0.5584055	0.2365691	-2.985451e-05	-0.002143392	
0.0008303542	0.001115224	0.2119286	0.1743032	-2.985451e-05	-0.002143392	-0.5580689	0.238382	

4.038e+10	-0.2807523	0.2230806	-0.001207006	0.0003288414	0.2150866	0.1718367	0.001297112	0.0004393512	
-0.001207006	0.0003288414	-0.2817155	0.2240866	0.001389439	0.0007850829	0.2144569	0.1717755	
0.2150866	0.1718367	0.001389439	0.0007850829	-0.5537068	0.2414483	-0.001190759	-0.00174952	
0.001297112	0.0004393512	0.2144569	0.1717755	-0.001190759	-0.00174952	-0.5524536	0.2427402	

4.04e+10	-0.2781181	0.2185431	-0.0007863924	0.0009549887	0.2163458	0.1683175	0.001294885	-0.0003771794	
-0.0007863924	0.0009549887	-0.2783924	0.21994	0.001573893	-0.0001443683	0.2158135	0.1685938	
0.2163458	0.1683175	0.001573893	-0.0001443683	-0.5474207	0.2436129	-0.001950803	-0.0007905527	
0.001294885	-0.0003771794	0.2158135	0.1685938	-0.001950803	-0.0007905527	-0.5457166	0.2439965	

4.042e+10	-0.2781774	0.213839	-8.315501e-05	0.001211349	0.2160631	0.1649658	0.0008238535	-0.001034539	
-8.315501e-05	0.001211349	-0.2776329	0.215199	0.001192143	-0.001011905	0.2158088	0.1654463	
0.2160631	0.1649658	0.001192143	-0.001011905	-0.5412327	0.2425587	-0.002054336	0.0004389116	
0.0008238535	-0.001034539	0.2158088	0.1654463	-0.002054336	0.0004389116	-0.5396997	0.2418716	

4.044e+10	-0.2807516	0.2105645	0.000617847	0.001005436	0.2145673	0.1625882	7.189272e-05	-0.001285091	
0.000617847	0.001005436	-0.2795372	0.2114123	0.0003806481	-0.001491493	0.2145977	0.1630775	
0.2145673	0.1625882	0.0003806481	-0.001491493	-0.5369975	0.2387499	-0.001436728	0.001520892	
7.189272e-05	-0.001285091	0.2145977	0.1630775	-0.001436728	0.001520892	-0.5361374	0.2373595	

4.046e+10	-0.2844192	0.2100753	0.001044426	0.000451401	0.2125608	0.161758	-0.0006571114	-0.001054873	
0.001044426	0.000451401	-0.2829736	0.2100781	-0.0005413702	-0.001403723	0.212813	0.1621201	
0.2125608	0.161758	-0.0005413702	-0.001403723	-0.5360981	0.2337699	-0.000306755	0.002046437	
-0.0006571114	-0.001054873	0.212813	0.1621201	-0.000306755	0.002046437	-0.5362402	0.232163	

4.048e+10	-0.2874307	0.2123772	0.00107418	-0.0002094026	0.2110479	0.162517	-0.001095386	-0.0004728814	
0.00107418	-0.0002094026	-0.2862598	0.2115892	-0.001215152	-0.0008104058	0.2114131	0.1626983	
0.2110479	0.162517	-0.001215152	-0.0008104058	-0.5386751	0.2297644	0.0008982004	0.001817131	
-0.001095386	-0.0004728814	0.2114131	0.1626983	0.0008982004	0.001817131	-0.5396676	0.2286308	

4.05e+10	-0.2883343	0.2164875	0.0007497172	-0.0007450994	0.2108627	0.1642585	-0.001122763	0.0002151942	
0.0007497172	-0.0007450994	-0.2877964	0.2152209	-0.001411816	2.834076e-05	0.2112428	0.1642586	
0.2108627	0.1642585	-0.001411816	2.834076e-05	-0.5434507	0.2286689	0.001717535	0.0009624172	
-0.001122763	0.0002151942	0.2112428	0.1642586	0.001717535	0.0009624172	-0.5448393	0.2283583	

4.052e+10	-0.2865348	0.2209006	0.0002110942	-0.001008341	0.2123023	0.166006	-0.0007827377	0.0007697315	
0.0002110942	-0.001008341	-0.2867192	0.2196102	-0.001110681	0.0007939973	0.2126361	0.1658548	
0.2123023	0.166006	-0.001110681	0.0007939973	-0.5483843	0.2309702	0.001899332	-0.000149414	
-0.0007827377	0.0007697315	0.2126361	0.1658548	0.001899332	-0.000149414	-0.5495512	0.2315746	

4.054e+10	-0.2823965	0.2242262	-0.0003711558	-0.0009451352	0.2149824	0.1668777	-0.0002241851	0.001036022	
-0.0003711558	-0.0009451352	-0.283201	0.2232577	-0.0004612773	0.001242328	0.2152282	0.1665934	
0.2149824	0.1668777	-0.0004612773	0.001242328	-0.5514077	0.2363336	0.001466794	-0.00112608	
-0.0002241851	0.001036022	0.2152282	0.1665934	0.001466794	-0.00112608	-0.5519912	0.2373824	

4.056e+10	-0.2769379	0.2253825	-0.000827313	-0.0005814453	0.2181734	0.1664203	0.0003667505	0.0009633497	
-0.000827313	-0.0005814453	-0.2781107	0.2249686	0.0003030459	0.001258117	0.2182833	0.1660285	
0.2181734	0.1664203	0.0003030459	0.001258117	-0.5515094	0.2428998	0.0006216738	-0.001701379	
0.0003667505	0.0009633497	0.2182833	0.1660285	0.0006216738	-0.001701379	-0.5513773	0.2439915	

4.058e+10	-0.2713001	0.2241202	-0.001014374	-2.142522e-05	0.2211358	0.1646495	0.0008151152	0.000595548	
-0.001014374	-2.142522e-05	-0.2725324	0.224339	0.0009379278	0.0008584892	0.2210438	0.1642035	
0.2211358	0.1646495	0.0009379278	0.0008584892	-0.5484473	0.249133	-0.0003745224	-0.00175897	
0.0008151152	0.000595548	0.2210438	0.1642035	-0.0003745224	-0.00175897	-0.5477459	0.2498531	

4.06e+10	-0.2669288	0.220509	-0.000853025	0.0005603327	0.2232408	0.1619202	0.0009922987	5.218652e-05	
-0.000853025	0.0005603327	-0.2679002	0.2213115	0.001240713	0.0001778855	0.2228984	0.1615236	
0.2232408	0.1619202	0.001240713	0.0001778855	-0.5429168	0.253397	-0.001262513	-0.001299632	
0.0009922987	5.218652e-05	0.2228984	0.1615236	-0.001262513	-0.001299632	-0.541989	0.2535402	

4.062e+10	-0.2649004	0.215586	-0.0003770339	0.0009513087	0.2241844	0.1587843	0.0008462916	-0.000494315	
-0.0003770339	0.0009513087	-0.2653302	0.2167838	0.001103623	-0.0005509437	0.2236032	0.1586013	
0.2241844	0.1587843	0.001103623	-0.0005509437	-0.5363102	0.2546588	-0.001799728	-0.0004244427	
0.0008462916	-0.000494315	0.2236032	0.1586013	-0.001799728	-0.0004244427	-0.5355333	0.2542899	

4.064e+10	-0.265742	0.2108511	0.0002438841	0.0009876334	0.2238927	0.1558936	0.0004277913	-0.000865722	
0.0002438841	0.0009876334	-0.2654574	0.2121395	0.0005749238	-0.001059231	0.2232188	0.1560905	
0.2238927	0.1558936	0.0005749238	-0.001059231	-0.5303571	0.2527402	-0.001787973	0.0006504155	
0.0004277913	-0.000865722	0.2232188	0.1560905	-0.001787973	0.0006504155	-0.5300537	0.2520282	

4.066e+10	-0.268828	0.2079988	0.0007595822	0.0006507188	0.2226475	0.1538639	-0.0001155261	-0.0009425163	
0.0007595822	0.0006507188	-0.2678805	0.2089902	-0.0001306493	-0.001157651	0.2221571	0.154501	
0.2226475	0.1538639	-0.0001306493	-0.001157651	-0.5268433	0.248363	-0.001152034	0.001586804	
-0.0001155261	-0.0009425163	0.2221571	0.154501	-0.001152034	0.001586804	-0.5270558	0.2476766	

4.068e+10	-0.2726341	0.2080678	0.0009698382	9.134028e-05	0.2210645	0.1531465	-0.0006000403	-0.0007158611	
0.0009698382	9.134028e-05	-0.2712971	0.2083994	-0.0007297741	-0.0008424743	0.2210596	0.1540298	
0.2210645	0.1531465	-0.0007297741	-0.0008424743	-0.526747	0.2433913	-4.37272e-05	0.002010425	
-0.0006000403	-0.0007158611	0.2210596	0.1540298	-4.37272e-05	0.002010425	-0.5272316	0.2430571	

4.07e+10	-0.2753797	0.2108485	0.0008236121	-0.0004615471	0.2199783	0.1537445	-0.000880917	-0.0002758938	
0.0008236121	-0.0004615471	-0.2740143	0.2104106	-0.001022663	-0.0002818804	0.2205598	0.1545007	
0.2199783	0.1537445	-0.001022663	-0.0002818804	-0.5298577	0.2399082	0.001138528	0.001695266	
-0.000880917	-0.0002758938	0.2205598	0.1545007	0.001138528	0.001695266	-0.5302913	0.239993	

4.072e+10	-0.2756661	0.2152191	0.0004120932	-0.0008187509	0.2201003	0.1551026	-0.0008883505	0.0002391964	
0.0004120932	-0.0008187509	-0.2747338	0.2141056	-0.0009661359	0.0003022132	0.2210586	0.1553568	
0.2201003	0.1551026	-0.0009661359	0.0003022132	-0.534746	0.2394275	0.001916185	0.0007344037	
-0.0008883505	0.0002391964	0.2210586	0.1553568	0.001916185	0.0007344037	-0.5349179	0.2397287	

4.074e+10	-0.2732651	0.2194753	-0.0001062925	-0.0008902067	0.2216015	0.15634	-0.0006242806	0.0006834349	
-0.0001062925	-0.0008902067	-0.273033	0.2180374	-0.0006343845	0.0007411957	0.2225529	0.1559606	
0.2216015	0.15634	-0.0006343845	0.0007411957	-0.5393184	0.2423793	0.001987305	-0.000490741	
-0.0006242806	0.0006834349	0.2225529	0.1559606	0.001987305	-0.000490741	-0.5392885	0.2425921	

4.076e+10	-0.2686934	0.2222825	-0.0005720369	-0.0006769142	0.2240956	0.1567386	-0.0001565932	0.0009253436	
-0.0005720369	-0.0006769142	-0.2692974	0.2208887	-0.000146524	0.0009411626	0.2246547	0.1558485	
0.2240956	0.1567386	-0.000146524	0.0009411626	-0.5418116	0.2479463	0.001355884	-0.001520582	
-0.0001565932	0.0009253436	0.2246547	0.1558485	0.001355884	-0.001520582	-0.5417662	0.2479255	

4.078e+10	-0.2630008	0.2228043	-0.0008500569	-0.0002471252	0.2269259	0.155956	0.0003831735	0.000876549	
-0.0008500569	-0.0002471252	-0.2642768	0.2219118	0.0003657558	0.0008681046	0.2268615	0.1548821	
0.2269259	0.155956	0.0003657558	0.0008681046	-0.5413202	0.2544952	0.0002722331	-0.002015599	
0.0003831735	0.000876549	0.2268615	0.1548821	0.0002722331	-0.002015599	-0.5412931	0.2544824	

4.08e+10	-0.2575676	0.2207621	-0.0008473096	0.0002731837	0.2294252	0.1540744	0.0008224498	0.0005280236	
-0.0008473096	0.0002731837	-0.2591967	0.2206717	0.0007685316	0.0005430439	0.2287299	0.1532081	
0.2294252	0.1540744	0.0007685316	0.0005430439	-0.5377858	0.2604391	-0.0009017206	-0.001833346	
0.0008224498	0.0005280236	0.2287299	0.1532081	-0.0009017206	-0.001833346	-0.5378852	0.2603714	

4.082e+10	-0.2537245	0.2166246	-0.0005439238	0.0007119377	0.2311253	0.1514574	0.0009968685	-2.571045e-05	
-0.0005439238	0.0007119377	-0.2552376	0.2174548	0.0009447289	4.978892e-05	0.2300182	0.1511397	
0.2311253	0.1514574	0.0009447289	4.978892e-05	-0.5320617	0.2641177	-0.00179252	-0.001028248	
0.0009968685	-2.571045e-05	0.2300182	0.1511397	-0.00179252	-0.001028248	-0.5321692	0.2641711	

4.084e+10	-0.2524814	0.2114818	-3.145679e-05	0.0008954276	0.2318066	0.148623	0.0008185419	-0.0005956009	
-3.145679e-05	0.0008954276	-0.2533235	0.2130916	0.0008299978	-0.0004696093	0.2306785	0.1490271	
0.2318066	0.148623	0.0008299978	-0.0004696093	-0.5254735	0.2648604	-0.002093242	0.0001632714	
0.0008185419	-0.0005956009	0.2306785	0.1490271	-0.002093242	0.0001632714	-0.5254524	0.2650799	

4.086e+10	-0.2539622	0.2070527	0.0004908619	0.0007366847	0.2314722	0.1460933	0.0003359812	-0.0009631825	
0.0004908619	0.0007366847	-0.2537502	0.2089524	0.000449126	-0.000851051	0.2307816	0.147126	
0.2314722	0.1460933	0.000449126	-0.000851051	-0.5197706	0.262555	-0.001652873	0.001349012	
0.0003359812	-0.0009631825	0.2307816	0.147126	-0.001652873	0.001349012	-0.5196343	0.2627139	

4.088e+10	-0.257344	0.2048474	0.0008059545	0.0003056062	0.230425	0.1443773	-0.0002710797	-0.0009841486	
0.0008059545	0.0003056062	-0.2560694	0.2063269	-8.311869e-05	-0.0009689414	0.230503	0.1456616	
0.230425	0.1443773	-8.311869e-05	-0.0009689414	-0.5166267	0.258031	-0.0005803021	0.002078409	
-0.0002710797	-0.0009841486	0.230503	0.1456616	-0.0005803021	0.002078409	-0.5164117	0.2580363	

4.09e+10	-0.2610214	0.2055511	0.0008042203	-0.0002026927	0.2292387	0.1437845	-0.0007759388	-0.0006580439	
0.0008042203	-0.0002026927	-0.2590433	0.2060523	-0.0006017029	-0.000781045	0.2300822	0.1447728	
0.2292387	0.1437845	-0.0006017029	-0.000781045	-0.5169129	0.2531212	0.000731433	0.002036427	
-0.0007759388	-0.0006580439	0.2300822	0.1447728	0.000731433	0.002036427	-0.5166794	0.2530068	

4.092e+10	-0.2632219	0.2087019	0.0005303501	-0.0005914793	0.2285943	0.1442267	-0.001007937	-0.0001116334	
0.0005303501	-0.0005914793	-0.2612716	0.2079738	-0.0009456727	-0.0003369249	0.2298609	0.1445048	
0.2285943	0.1442267	-0.0009456727	-0.0003369249	-0.5202492	0.2499319	0.001759841	0.001232483	
-0.001007937	-0.0001116334	0.2298609	0.1445048	0.001759841	0.001232483	-0.5201381	0.2496551	

4.094e+10	-0.2628203	0.2130556	0.0001184659	-0.0007559033	0.2290046	0.1451682	-0.0009003409	0.0004668918	
0.0001184659	-0.0007559033	-0.2616203	0.2113273	-0.0009989829	0.0002365178	0.2301656	0.1446402	
0.2290046	0.1451682	-0.0009989829	0.0002365178	-0.5251694	0.2498182	0.002117685	7.892229e-06	
-0.0009003409	0.0004668918	0.2301656	0.1446402	0.002117685	7.892229e-06	-0.5252459	0.2495175	

4.096e+10	-0.2598364	0.216872	-0.0002964295	-0.0006859933	0.2305297	0.1458813	-0.0004936027	0.0008915835	
-0.0002964295	-0.0006859933	-0.2597842	0.2147595	-0.0007262615	0.0007639836	0.2311469	0.1448071	
0.2305297	0.1458813	-0.0007262615	0.0007639836	-0.5295247	0.2531378	0.001727657	-0.001163653	
-0.0004936027	0.0008915835	0.2311469	0.1448071	0.001727657	-0.001163653	-0.5297835	0.2529208	

4.098e+10	-0.2549619	0.2189923	-0.0006122289	-0.0004212454	0.2327969	0.1457899	8.390145e-05	0.001025774	
-0.0006122289	-0.0004212454	-0.2560811	0.2171726	-0.0001923494	0.001069033	0.2326793	0.1445992	
0.2327969	0.1457899	-0.0001923494	0.001069033	-0.5316737	0.2588553	0.0007868836	-0.0019013	
8.390145e-05	0.001025774	0.2326793	0.1445992	0.0007868836	-0.0019013	-0.5319707	0.258885	

4.1e+10	-0.2493702	0.2186918	-0.0007506851	-2.726398e-05	0.2351934	0.1446976	0.0006498158	0.0008173696	
-0.0007506851	-2.726398e-05	-0.2513362	0.217791	0.0004468822	0.001030364	0.2344499	0.1438062	
0.2351934	0.1446976	0.0004468822	0.001030364	-0.5307212	0.2654179	-0.0003801358	-0.002015668	
0.0006498158	0.0008173696	0.2344499	0.1438062	-0.0003801358	-0.002015668	-0.5309895	0.2655521	

4.102e+10	-0.2443775	0.215979	-0.0006569367	0.0003962895	0.2371836	0.1427736	0.001013566	0.0003177296	
-0.0006569367	0.0003962895	-0.2465883	0.2163282	0.0009817592	0.0006255219	0.2361007	0.1424588	
0.2371836	0.1427736	0.0009817592	0.0006255219	-0.526784	0.271079	-0.001430277	-0.001492522	
0.001013566	0.0003177296	0.2361007	0.1424588	-0.001430277	-0.001492522	-0.5268316	0.2713361	

4.104e+10	-0.2412941	0.2114603	-0.0003299925	0.0007125355	0.2384803	0.1403803	0.001032583	-0.0003165004	
-0.0003299925	0.0007125355	-0.2429942	0.2130252	0.001205758	-4.229564e-05	0.2374151	0.1407091	
0.2384803	0.1403803	0.001205758	-4.229564e-05	-0.520769	0.2743381	-0.002050605	-0.0004696513	
0.001032583	-0.0003165004	0.2374151	0.1407091	-0.002050605	-0.0004696513	-0.5205899	0.274592	

4.106e+10	-0.2408048	0.2064676	0.000138058	0.0007868198	0.2389581	0.1379125	0.0006766137	-0.0008586502	
0.000138058	0.0007868198	-0.2412946	0.2087949	0.0009952059	-0.000749887	0.2382678	0.1387642	
0.2389581	0.1379125	0.0009952059	-0.000749887	-0.5140821	0.2746096	-0.002012171	0.0007675686	
0.0006766137	-0.0008586502	0.2382678	0.1387642	-0.002012171	0.0007675686	-0.513801	0.27469	

4.108e+10	-0.242922	0.2025387	0.0005691814	0.0005665846	0.2387231	0.1357679	6.664401e-05	-0.001097478	
0.0005691814	0.0005665846	-0.2419423	0.2047468	0.000388275	-0.0012178	0.2386103	0.1368526	
0.2387231	0.1357679	0.000388275	-0.0012178	-0.5086101	0.2718007	-0.001260887	0.001811479	
6.664401e-05	-0.001097478	0.2386103	0.1368526	-0.001260887	0.001811479	-0.5083719	0.2716734	

4.11e+10	-0.2464009	0.2011029	0.0007855777	0.0001356886	0.2380127	0.134283	-0.0005675997	-0.0009416638	
0.0007855777	0.0001356886	-0.2443009	0.2023188	-0.0003965397	-0.001238045	0.2385068	0.1352375	
0.2380127	0.134283	-0.0003965397	-0.001238045	-0.5059579	0.2669871	-5.074369e-06	0.002253794	
-0.0005675997	-0.0009416638	0.2385068	0.1352375	-5.074369e-06	0.002253794	-0.5059096	0.2667358	

4.112e+10	-0.2496257	0.2024316	0.0007128478	-0.0003280995	0.2372234	0.1336467	-0.0009963239	-0.0004593116	
0.0007128478	-0.0003280995	-0.2472627	0.2021661	-0.001048591	-0.0007878772	0.238147	0.134167	
0.2372234	0.1336467	-0.001048591	-0.0007878772	-0.5068253	0.2621524	0.001304995	0.001877152	
-0.0009963239	-0.0004593116	0.238147	0.134167	0.001304995	0.001877152	-0.5069345	0.2619847	

4.114e+10	-0.2510168	0.2058209	0.0004036865	-0.0006583954	0.2369226	0.1337934	-0.001083928	0.0001720652	
0.0004036865	-0.0006583954	-0.249294	0.2042629	-0.001315561	-4.410138e-05	0.2379607	0.1337231	
0.2369226	0.1337934	-0.001315561	-4.410138e-05	-0.5105878	0.2593722	0.002159226	0.0008003933	
-0.001083928	0.0001720652	0.2379607	0.1337231	0.002159226	0.0008003933	-0.5108477	0.25928	

4.116e+10	-0.2498641	0.2098095	-2.221302e-05	-0.000766018	0.2374612	0.1342834	-0.0008137846	0.0007464805	
-2.221302e-05	-0.000766018	-0.2493058	0.2076401	-0.001110245	0.0007124913	0.2382942	0.1336807	
0.2374612	0.1342834	-0.001110245	0.0007124913	-0.5154892	0.2599408	0.00223799	-0.0005670052	
-0.0008137846	0.0007464805	0.2382942	0.1336807	0.00223799	-0.0005670052	-0.5156671	0.2601434	

4.118e+10	-0.2463813	0.2128959	-0.0004378215	-0.000633948	0.2388983	0.1345244	-0.000271376	0.001086007	
-0.0004378215	-0.000633948	-0.2470687	0.2108675	-0.0005191132	0.001219402	0.2392826	0.1335935	
0.2388983	0.1345244	-0.0005191132	0.001219402	-0.5194692	0.2637698	0.001538904	-0.001729049	
-0.000271376	0.001086007	0.2392826	0.1335935	0.001538904	-0.001729049	-0.5195286	0.2640281	

4.12e+10	-0.2413967	0.2140961	-0.0007269241	-0.0002957646	0.240853	0.1340626	0.0003824749	0.00107679	
-0.0007269241	-0.0002957646	-0.2430154	0.2128189	0.0002554475	0.001313796	0.2407153	0.1330739	
0.240853	0.1340626	0.0002554475	0.001313796	-0.5209045	0.2697806	0.0003205738	-0.002309659	
0.0003824749	0.00107679	0.2407153	0.1330739	0.0003205738	-0.002309659	-0.5207543	0.2700487	

4.122e+10	-0.236216	0.2129139	-0.0007898697	0.0001634304	0.2428438	0.1327934	0.0009418494	0.0006988416	
-0.0007898697	0.0001634304	-0.2382312	0.2127042	0.0009624967	0.00096055	0.2422082	0.1319959	
0.2428438	0.1327934	0.0009624967	0.00096055	-0.519235	0.2760821	-0.001027035	-0.002134021	
0.0009418494	0.0006988416	0.2422082	0.1319959	-0.001027035	-0.002134021	-0.518905	0.2762553	

4.124e+10	-0.2320821	0.2096287	-0.0005734207	0.0006008898	0.2444321	0.1308877	0.001205223	4.852897e-05	
-0.0005734207	0.0006008898	-0.2338747	0.2105078	0.001363809	0.0002574725	0.2434561	0.1305072	
0.2444321	0.1308877	0.001363809	0.0002574725	-0.5147006	0.2812068	-0.002089065	-0.001233994	
0.001205223	4.852897e-05	0.2434561	0.1305072	-0.002089065	-0.001233994	-0.5143268	0.2811192	

4.126e+10	-0.2300199	0.2050843	-0.0001218796	0.000841934	0.2454211	0.1286796	0.001046721	-0.0006627583	
-0.0001218796	0.000841934	-0.2310489	0.2067994	0.001298221	-0.0005733686	0.2443298	0.1288641	
0.2454211	0.1286796	0.001298221	-0.0005733686	-0.5084571	0.2837014	-0.002497406	0.0001531854	
0.001046721	-0.0006627583	0.2443298	0.1288641	-0.002497406	0.0001531854	-0.5082329	0.2833437	

4.128e+10	-0.2304039	0.2006403	0.0003997889	0.0007622612	0.2457641	0.1265009	0.0004900914	-0.001168049	
0.0003997889	0.0007622612	-0.2303614	0.2026626	0.0007547322	-0.001237275	0.2448662	0.1272792	
0.2457641	0.1265009	0.0007547322	-0.001237275	-0.5020601	0.2831273	-0.002035165	0.001596921	
0.0004900914	-0.001168049	0.2448662	0.1272792	-0.002035165	0.001596921	-0.5021589	0.2826057	

4.13e+10	-0.2326891	0.197754	0.0007687333	0.0003804827	0.2455795	0.1246651	-0.0002715061	-0.001258956	
0.0007687333	0.0003804827	-0.2315966	0.1994156	-9.113294e-05	-0.001471881	0.2452226	0.1258921	
0.2455795	0.1246651	-9.113294e-05	-0.001471881	-0.4973187	0.2797675	-0.0007710955	0.002555603	
-0.0002715061	-0.001258956	0.2452226	0.1258921	-0.0007710955	0.002555603	-0.4977458	0.2794362	

4.132e+10	-0.2357231	0.197165	0.000832488	-0.0001344803	0.2451005	0.123396	-0.0009524141	-0.0008915652	
0.000832488	-0.0001344803	-0.2339042	0.1979445	-0.0009291491	-0.001171454	0.2455155	0.1247027	
0.2451005	0.123396	-0.0009291491	-0.001171454	-0.4955948	0.2749389	0.0008766614	0.00259386	
-0.0009524141	-0.0008915652	0.2455155	0.1247027	0.0008766614	0.00259386	-0.496246	0.2749604	

4.134e+10	-0.2380251	0.1988082	0.0005937291	-0.0005705604	0.2447077	0.122797	-0.0013063	-0.0001991921	
0.0005937291	-0.0005705604	-0.2360404	0.198483	-0.001447812	-0.0004393271	0.2458697	0.1236918	
0.2447077	0.122797	-0.001447812	-0.0004393271	-0.4971119	0.2708092	0.002261272	0.001627404	
-0.0013063	-0.0001991921	0.2458697	0.1236918	0.002261272	0.001627404	-0.4976705	0.2712261	

4.136e+10	-0.2384415	0.2018556	0.0001726584	-0.0007873921	0.2447966	0.1226866	-0.001212331	0.0005787718	
0.0001726584	-0.0007873921	-0.2369424	0.2005155	-0.001460816	0.0004625566	0.2463385	0.1227554	
0.2447966	0.1226866	-0.001460816	0.0004625566	-0.5010858	0.2689051	0.002814352	1.642778e-05	
-0.001212331	0.0005787718	0.2463385	0.1227554	0.002814352	1.642778e-05	-0.5012002	0.2696429	

4.138e+10	-0.2367011	0.2049646	-0.0002824736	-0.0007459693	0.2455764	0.1226701	-0.0006944629	0.001185579	
-0.0002824736	-0.0007459693	-0.2361918	0.2030136	-0.0009623163	0.001224644	0.2469232	0.1218012	
0.2455764	0.1226701	-0.0009623163	0.001224644	-0.5055259	0.2703794	0.002327247	-0.001613386	
-0.0006944629	0.001185579	0.2469232	0.1218012	0.002327247	-0.001613386	-0.5051599	0.2709779	

4.14e+10	-0.2331485	0.2069989	-0.0006451828	-0.0004748013	0.2469181	0.1223081	9.545756e-05	0.001411476	
-0.0006451828	-0.0004748013	-0.2337714	0.2050842	-0.0001097148	0.001588516	0.2475491	0.1207752	
0.2469181	0.1223081	-0.0001097148	0.001588516	-0.5085328	0.2747333	0.001003721	-0.002669648	
9.545756e-05	0.001411476	0.2475491	0.1207752	0.001003721	-0.002669648	-0.5077876	0.275018	

4.142e+10	-0.2287143	0.20724	-0.0008143523	-4.581452e-05	0.2484578	0.1213528	0.0009090757	0.001148573	
-0.0008143523	-4.581452e-05	-0.2302789	0.2059654	0.000827777	0.001413794	0.2480932	0.1196766	
0.2484578	0.1213528	0.000827777	0.001413794	-0.5089196	0.2804753	-0.0006859377	-0.002803196	
0.0009090757	0.001148573	0.2480932	0.1196766	-0.0006859377	-0.002803196	-0.5081212	0.2802666	

4.144e+10	-0.2244695	0.2055443	-0.0007226212	0.0004251469	0.2498558	0.1198879	0.001457668	0.0004378207	
-0.0007226212	0.0004251469	-0.226464	0.205345	0.00153576	0.0007177361	0.2485605	0.1186798	
0.2498558	0.1198879	0.00153576	0.0007177361	-0.5063226	0.2861137	-0.002187649	-0.001965623	
0.001457668	0.0004378207	0.2485605	0.1186798	-0.002187649	-0.001965623	-0.5057844	0.2854603	

4.146e+10	-0.2213347	0.202319	-0.0003666016	0.0007826107	0.2508575	0.1181301	0.001498004	-0.0005070756	
-0.0003666016	0.0007826107	-0.2231867	0.2032267	0.001732328	-0.0003051569	0.2490463	0.1178673	
0.2508575	0.1181301	0.001732328	-0.0003051569	-0.5014096	0.2900727	-0.002990937	-0.0003911093	
0.001498004	-0.0005070756	0.2490463	0.1178673	-0.002990937	-0.0003911093	-0.5013218	0.289205	

4.148e+10	-0.2200108	0.1983769	0.0001540987	0.0008734913	0.2514722	0.1163403	0.0009490165	-0.001333966	
0.0001540987	0.0008734913	-0.2210202	0.2001981	0.001277947	-0.00130063	0.2497688	0.1172023	
0.2514722	0.1163403	0.001277947	-0.00130063	-0.4955025	0.2914075	-0.002757131	0.00142672	
0.0009490165	-0.001333966	0.2497688	0.1172023	-0.002757131	0.00142672	-0.4959337	0.2906136	

4.15e+10	-0.2205953	0.1948233	0.0006428074	0.0006325457	0.2517821	0.1147066	-2.135678e-05	-0.001683065	
0.0006428074	0.0006325457	-0.2204166	0.1969367	0.0002814755	-0.001860731	0.2508551	0.116459	
0.2517821	0.1147066	0.0002814755	-0.001860731	-0.4901506	0.2899897	-0.00147226	0.002834221	
-2.135678e-05	-0.001683065	0.2508551	0.116459	-0.00147226	0.002834221	-0.4910621	0.2894886	

4.152e+10	-0.2224964	0.1926645	0.0008956414	0.0001436621	0.2519162	0.1132949	-0.00103248	-0.001372638	
0.0008956414	0.0001436621	-0.2211797	0.1943111	-0.0008909439	-0.001711487	0.2522078	0.1153154	
0.2519162	0.1132949	-0.0008909439	-0.001711487	-0.4867913	0.2865131	0.0004566984	0.003242596	
-0.00103248	-0.001372638	0.2522078	0.1153154	0.0004566984	0.003242596	-0.4877602	0.2867397	

4.154e+10	-0.2247008	0.1923879	0.0008141824	-0.0003956619	0.2520211	0.1121543	-0.001666054	-0.00050841	
0.0008141824	-0.0003956619	-0.2227239	0.1929975	-0.001759921	-0.0008740153	0.2534882	0.113651	
0.2520211	0.1121543	-0.001759921	-0.0008740153	-0.4860545	0.2826634	0.00230299	0.002420576	
-0.001666054	-0.00050841	0.2534882	0.113651	0.00230299	0.002420576	-0.4867793	0.283426	

4.156e+10	-0.2261448	0.1937611	0.0004471727	-0.0007838818	0.2522419	0.1112362	-0.001666941	0.0005684472	
0.0004471727	-0.0007838818	-0.2242426	0.1931516	-0.001964853	0.0003277461	0.2543362	0.1115664	
0.2522419	0.1112362	-0.001964853	0.0003277461	-0.4879283	0.2797785	0.003332612	0.0006462852	
-0.001666941	0.0005684472	0.2543362	0.1115664	0.003332612	0.0006462852	-0.4880515	0.2808688	

4.158e+10	-0.2260714	0.1960365	-6.514868e-05	-0.0009033438	0.2526494	0.1104323	-0.001037499	0.001448096	
-6.514868e-05	-0.0009033438	-0.2248398	0.1945564	-0.001423672	0.001428651	0.2545294	0.109465	
0.2526494	0.1104323	-0.001423672	0.001428651	-0.4911759	0.2792536	0.003138422	-0.001415338	
-0.001037499	0.001448096	0.2545294	0.109465	0.003138422	-0.001415338	-0.4907312	0.2801352	

4.16e+10	-0.2243262	0.1982578	-0.0005630379	-0.0007271735	0.2532727	0.1096009	-7.002216e-06	0.001807186	
-0.0005630379	-0.0007271735	-0.2241319	0.19642	-0.0003371898	0.002018429	0.2542116	0.1077389	
0.2532727	0.1096009	-0.0003371898	0.002018429	-0.4943116	0.2812647	0.001785688	-0.003006365	
-7.002216e-06	0.001807186	0.2542116	0.1077389	0.001785688	-0.003006365	-0.4934263	0.2817879	

4.162e+10	-0.2212385	0.1995539	-0.0008974658	-0.0002995913	0.2539981	0.1086487	0.001060554	0.001505439	
-0.0008974658	-0.0002995913	-0.221954	0.1979624	0.0009093673	0.001876684	0.2537005	0.1066354	
0.2539981	0.1086487	0.0009093673	0.001876684	-0.4958607	0.2853629	-0.0002592722	-0.003556963	
0.001060554	0.001505439	0.2537005	0.1066354	-0.0002592722	-0.003556963	-0.4948492	0.2853559	

4.164e+10	-0.2174788	0.1994223	-0.0009446467	0.0002699812	0.2547189	0.1075922	0.001778229	0.0006214728	
-0.0009446467	0.0002699812	-0.2188411	0.198433	0.001872417	0.001024141	0.2533694	0.1061322	
0.2547189	0.1075922	0.001872417	0.001024141	-0.4951745	0.2901687	-0.002305517	-0.002838962	
0.001778229	0.0006214728	0.2533694	0.1061322	-0.002305517	-0.002838962	-0.4943031	0.2896581	

4.166e+10	-0.2139081	0.1977347	-0.0006423793	0.0007966783	0.2554556	0.1065086	0.001849907	-0.000551622	
-0.0006423793	0.0007966783	-0.2155578	0.1975223	0.002173447	-0.0002687565	0.2535707	0.1060397	
0.2554556	0.1065086	0.002173447	-0.0002687565	-0.4923402	0.2943095	-0.003625362	-0.001026558	
0.001849907	-0.000551622	0.2535707	0.1060397	-0.003625362	-0.001026558	-0.4917896	0.2933982	

4.168e+10	-0.2113505	0.1947556	-5.446503e-05	0.001060502	0.256232	0.1053916	0.00119277	-0.001574268	
-5.446503e-05	0.001060502	-0.2129635	0.1953503	0.001639769	-0.001535113	0.2544182	0.1060083	
0.256232	0.1053916	0.001639769	-0.001535113	-0.488006	0.2969457	-0.003664767	0.001307128	
0.00119277	-0.001574268	0.2544182	0.1060083	-0.003664767	0.001307128	-0.4879847	0.2957669	

4.17e+10	-0.2102661	0.1912604	0.0006030998	0.0009091489	0.257088	0.1041679	2.070367e-05	-0.002010493	
0.0006030998	0.0009091489	-0.2114444	0.1926696	0.0004201829	-0.002257428	0.2558739	0.105657	
0.257088	0.1041679	0.0004201829	-0.002257428	-0.4832427	0.2975255	-0.002279817	0.003307252	
2.070367e-05	-0.002010493	0.2558739	0.105657	-0.002279817	0.003307252	-0.4839427	0.2963281	

4.172e+10	-0.2107911	0.1881382	0.001041883	0.0003749572	0.2579689	0.1027261	-0.001196093	-0.001642058	
0.001041883	0.0003749572	-0.2110868	0.1901302	-0.00102119	-0.002101191	0.2577141	0.104673	
0.2579689	0.1027261	-0.00102119	-0.002101191	-0.4792613	0.2961134	0.0001065591	0.004135527	
-0.001196093	-0.001642058	0.2577141	0.104673	0.0001065591	0.004135527	-0.4806049	0.2954389	

4.174e+10	-0.2124023	0.1862718	0.001064286	-0.0003187746	0.2586549	0.101069	-0.001943894	-0.0006088068	
0.001064286	-0.0003187746	-0.2115391	0.1882758	-0.002096006	-0.001097163	0.2595176	0.102918	
0.2586549	0.101069	-0.002096006	-0.001097163	-0.4768561	0.2935933	0.002597301	0.003358697	
-0.001943894	-0.0006088068	0.2595176	0.102918	0.002597301	0.003358697	-0.4785183	0.2938111	

4.176e+10	-0.2142214	0.1860885	0.0006723001	-0.0008800959	0.2590164	0.09935967	-0.001924463	0.0006547658	
0.0006723001	-0.0008800959	-0.2122734	0.1873418	-0.002361215	0.0003613167	0.2608429	0.1004888	
0.2590164	0.09935967	-0.002361215	0.0003613167	-0.4764781	0.2909576	0.004174666	0.001194149	
-0.001924463	0.0006547658	0.2608429	0.1004888	0.004174666	0.001194149	-0.4778019	0.2922241	

4.178e+10	-0.2153061	0.1872947	3.814045e-05	-0.001103241	0.2591028	0.09783961	-0.00117582	0.001652096	
3.814045e-05	-0.001103241	-0.2128001	0.1872129	-0.001707635	0.001699904	0.2613716	0.09774362	
0.2591028	0.09783961	-0.001707635	0.001699904	-0.4778826	0.289302	0.00415069	-0.001541237	
-0.00117582	0.001652096	0.2613716	0.09774362	0.00415069	-0.001541237	-0.4781575	0.2912961	

4.18e+10	-0.2148859	0.1892476	-0.0006026457	-0.0009287026	0.2590829	0.09664041	-3.190916e-07	0.0020314	
-0.0006026457	-0.0009287026	-0.212814	0.1876208	-0.0003839392	0.00240292	0.2609835	0.09518631	
0.2590829	0.09664041	-0.0003839392	0.00240292	-0.4799976	0.2895531	0.002474554	-0.003765716	
-3.190916e-07	0.0020314	0.2609835	0.09518631	0.002474554	-0.003765716	-0.4789506	0.2914356	

4.182e+10	-0.2129507	0.1908686	-0.001037916	-0.0004216652	0.2592009	0.09574765	0.001184853	0.001670335	
-0.001037916	-0.0004216652	-0.2121308	0.1882724	0.001116998	0.002195262	0.2599385	0.09334283	
0.2592009	0.09574765	0.001116998	0.002195262	-0.4816894	0.2916066	-0.000238713	-0.004574776	
0.001184853	0.001670335	0.2599385	0.09334283	-0.000238713	-0.004574776	-0.479627	0.2925358	

4.184e+10	-0.2098694	0.1915028	-0.001113525	0.0002578965	0.2595894	0.09498082	0.001961488	0.0006805681	
-0.001113525	0.0002578965	-0.210805	0.1888127	0.002229067	0.001130381	0.2587283	0.09251078	
0.2595894	0.09498082	0.002229067	0.001130381	-0.4820418	0.2948173	-0.002948325	-0.003602149	
0.001961488	0.0006805681	0.2587283	0.09251078	-0.002948325	-0.003602149	-0.4797545	0.2943396	

4.186e+10	-0.2065771	0.1906239	-0.0007723125	0.0008794143	0.2602677	0.09416937	0.002020633	-0.0006065266	
-0.0007723125	0.0008794143	-0.2089561	0.1889388	0.002504072	-0.0004178745	0.2580328	0.09264325	
0.2602677	0.09416937	0.002504072	-0.0004178745	-0.4806972	0.2982772	-0.004579915	-0.001170811	
0.002020633	-0.0006065266	0.2580328	0.09264325	-0.004579915	-0.001170811	-0.4791912	0.2964169	

4.188e+10	-0.2038371	0.188491	-0.0001064719	0.001192055	0.2611162	0.09313853	0.001292419	-0.001706531	
-0.0001064719	0.001192055	-0.2068139	0.1885164	0.001787128	-0.001855804	0.2583459	0.09324971	
0.2611162	0.09313853	0.001787128	-0.001855804	-0.4780755	0.3009437	-0.004443668	0.001803483	
0.001292419	-0.001706531	0.2583459	0.09324971	-0.004443668	0.001803483	-0.4779102	0.2985155	

4.19e+10	-0.2022355	0.1856396	0.000636076	0.001036722	0.2619653	0.09187756	2.932521e-05	-0.002162301	
0.000636076	0.001036722	-0.2046419	0.1874541	0.0003206241	-0.002587007	0.2597723	0.09365698	
0.2619653	0.09187756	0.0003206241	-0.002587007	-0.4748316	0.3023846	-0.002534063	0.004144952	
2.932521e-05	-0.002162301	0.2597723	0.09365698	-0.002534063	0.004144952	-0.476138	0.3003045	

4.192e+10	-0.2019303	0.1828425	0.001139122	0.000452483	0.2627139	0.09045453	-0.001264435	-0.001768099	
0.001139122	0.000452483	-0.2027984	0.1857654	-0.001310368	-0.002275123	0.2620073	0.09322964	
0.2627139	0.09045453	-0.001310368	-0.002275123	-0.4715681	0.3026252	0.0004334183	0.004894949	
-0.001264435	-0.001768099	0.2620073	0.09322964	0.0004334183	0.004894949	-0.4739227	0.3016895	

4.194e+10	-0.2025695	0.1808002	0.001181826	-0.0003193015	0.2633206	0.08898571	-0.002067662	-0.0006806124	
0.001181826	-0.0003193015	-0.201547	0.1836511	-0.002420458	-0.001026426	0.2644262	0.09165366	
0.2633206	0.08898571	-0.002420458	-0.001026426	-0.4689757	0.3018868	0.003293262	0.003713858	
-0.002067662	-0.0006806124	0.2644262	0.09165366	0.003293262	0.003713858	-0.4714503	0.3025495	

4.196e+10	-0.203557	0.1798388	0.0007533791	-0.0009523363	0.2638484	0.08753547	-0.002074529	0.0006636629	
0.0007533791	-0.0009523363	-0.2010518	0.1814731	-0.002539126	0.0006344876	0.2663519	0.0890064	
0.2638484	0.08753547	-0.002539126	0.0006344876	-0.4673634	0.3007335	0.004901122	0.001035419	
-0.002074529	0.0006636629	0.2663519	0.0890064	0.004901122	0.001035419	-0.4690183	0.3027253	

4.198e+10	-0.2042458	0.1798136	4.634678e-05	-0.001198804	0.2643507	0.08607131	-0.001299518	0.001755557	
4.634678e-05	-0.001198804	-0.2012788	0.1796482	-0.001638248	0.002009407	0.2672441	0.08573581	
0.2643507	0.08607131	-0.001638248	0.002009407	-0.4668281	0.2996983	0.004593973	-0.002102412	
-0.001299518	0.001755557	0.2672441	0.08573581	0.004593973	-0.002102412	-0.4669582	0.3023201	

4.2e+10	-0.2041325	0.1804107	-0.0006543969	-0.000987562	0.26482	0.08455051	-3.082357e-05	0.002199184	
-0.0006543969	-0.000987562	-0.2019197	0.1785806	-0.0001206044	0.002558359	0.2668867	0.08254379	
0.26482	0.08455051	-0.0001206044	0.002558359	-0.4669615	0.2993238	0.002457406	-0.004461148	
-3.082357e-05	0.002199184	0.2668867	0.08254379	0.002457406	-0.004461148	-0.4656068	0.3014451	

4.202e+10	-0.2032142	0.1809937	-0.001094296	-0.0004215953	0.2651734	0.08296816	0.001275506	0.001821273	
-0.001094296	-0.0004215953	-0.202557	0.1783269	0.001395553	0.002110771	0.265588	0.08015539	
0.2651734	0.08296816	0.001395553	0.002110771	-0.4672357	0.2997297	-0.0006947054	-0.005083349	
0.001275506	0.001821273	0.265588	0.08015539	-0.0006947054	-0.005083349	-0.4648639	0.300734	

4.204e+10	-0.2017327	0.1811951	-0.001131209	0.00028435	0.265321	0.08141054	0.002131026	0.0007315667	
-0.001131209	0.00028435	-0.2027013	0.1787681	0.002346341	0.0008816044	0.263986	0.0789887	
0.265321	0.08141054	0.002346341	0.0008816044	-0.4672856	0.3007989	-0.003616972	-0.003680658	
0.002131026	0.0007315667	0.263986	0.0789887	-0.003616972	-0.003680658	-0.464847	0.3002629	

4.206e+10	-0.1998715	0.1809148	-0.0007625418	0.0008834132	0.2652928	0.08002589	0.002178793	-0.0006818736	
-0.0007625418	0.0008834132	-0.2019134	0.1795824	0.002404665	-0.000655091	0.2628605	0.07894696	
0.2652928	0.08002589	0.002404665	-0.000655091	-0.4669163	0.3022929	-0.005118261	-0.0007822899	
0.002178793	-0.0006818736	0.2628605	0.07894696	-0.005118261	-0.0007822899	-0.465225	0.300507	

4.208e+10	-0.1980251	0.1800627	-0.0001146617	0.00116899	0.265216	0.07892323	0.001359307	-0.00186599	
-0.0001146617	0.00116899	-0.2003307	0.1800623	0.001561966	-0.001935697	0.2627357	0.07949974	
0.265216	0.07892323	0.001561966	-0.001935697	-0.4661123	0.3039707	-0.004568036	0.002441154	
0.001359307	-0.00186599	0.2627357	0.07949974	-0.004568036	0.002441154	-0.4656632	0.301597	

4.21e+10	-0.1963852	0.1787595	0.0005907349	0.001029564	0.2652751	0.07812501	-2.61931e-05	-0.002326653	
0.0005907349	0.001029564	-0.1981656	0.1799378	0.0001266355	-0.002484375	0.2637166	0.07995232	
0.2652751	0.07812501	0.0001266355	-0.002484375	-0.464808	0.3056703	-0.002192061	0.004677424	
-2.61931e-05	-0.002326653	0.2637166	0.07995232	-0.002192061	0.004677424	-0.4657686	0.3033991	

4.212e+10	-0.1950784	0.1771346	0.001094351	0.0004959821	0.2656763	0.07753822	-0.001420814	-0.00185499	
0.001094351	0.0004959821	-0.1959253	0.1789671	-0.001363358	-0.002082636	0.2655051	0.07977154	
0.2656763	0.07753822	-0.001363358	-0.002082636	-0.4630022	0.3071523	0.001030364	0.005035157	
-0.001420814	-0.00185499	0.2655051	0.07977154	0.001030364	0.005035157	-0.4650786	0.305732	

4.214e+10	-0.194214	0.1753628	0.001189547	-0.0002464083	0.2665749	0.07691769	-0.002250167	-0.0006333411	
0.001189547	-0.0002464083	-0.1940042	0.1772744	-0.002330955	-0.0008733637	0.2676363	0.07870874	
0.2665749	0.07691769	-0.002330955	-0.0008733637	-0.4608964	0.3080775	0.003801228	0.003408492	
-0.002250167	-0.0006333411	0.2676363	0.07870874	0.003801228	0.003408492	-0.4634336	0.3080212	

4.216e+10	-0.1937911	0.1736348	0.0008186699	-0.0009100552	0.2678852	0.07589983	-0.002174314	0.0008376902	
0.0008186699	-0.0009100552	-0.1926463	0.1751718	-0.002391807	0.0006763623	0.2696373	0.07672173	
0.2678852	0.07589983	-0.002391807	0.0006763623	-0.4587397	0.3084928	0.005046346	0.0004818636	
-0.002174314	0.0008376902	0.2696373	0.07672173	0.005046346	0.0004818636	-0.4608973	0.3099437	

4.218e+10	-0.1937616	0.1722111	0.0001185926	-0.001222461	0.2693045	0.07423951	-0.001235798	0.001958621	
0.0001185926	-0.001222461	-0.1919984	0.1729369	-0.00152086	0.001957152	0.2710968	0.07398065	
0.2693045	0.07423951	-0.00152086	0.001957152	-0.4568372	0.3084887	0.004321386	-0.00258435	
-0.001235798	0.001958621	0.2710968	0.07398065	0.004321386	-0.00258435	-0.4578977	0.3109533	

4.22e+10	-0.1939492	0.17123	-0.0006295851	-0.001053629	0.2703689	0.07195477	0.0001709208	0.002292437	
-0.0006295851	-0.001053629	-0.1920353	0.1709169	-6.503175e-05	0.002468644	0.271667	0.07083486	
0.2703689	0.07195477	-6.503175e-05	0.002468644	-0.4553421	0.3082898	0.00194487	-0.004614709	
0.0001709208	0.002292437	0.271667	0.07083486	0.00194487	-0.004614709	-0.4548217	0.3109568	

4.222e+10	-0.1940601	0.1707262	-0.001127679	-0.0004754227	0.2707323	0.06937628	0.001486651	0.001732485	
-0.001127679	-0.0004754227	-0.1925735	0.1694183	0.001404718	0.002019619	0.2712133	0.06780211	
0.2707323	0.06937628	0.001404718	0.002019619	-0.4543694	0.3079783	-0.001158429	-0.004851308	
0.001486651	0.001732485	0.2712133	0.06780211	-0.001158429	-0.004851308	-0.4522933	0.3099237	

4.224e+10	-0.1938279	0.1706419	-0.001187619	0.0002805224	0.2703441	0.06698853	0.002212374	0.0005131262	
-0.001187619	0.0002805224	-0.1933418	0.1686628	0.002320569	0.0007910709	0.2699171	0.06545442	
0.2703441	0.06698853	0.002320569	0.0007910709	-0.4536165	0.3079304	-0.00379795	-0.003207245	
0.002212374	0.0005131262	0.2699171	0.06545442	-0.00379795	-0.003207245	-0.4506856	0.3083599	

4.226e+10	-0.1931848	0.1706152	-0.0007935204	0.0009254892	0.2694694	0.06522137	0.002078731	-0.0008957163	
-0.0007935204	0.0009254892	-0.193909	0.1686814	0.00232992	-0.0007396312	0.2682993	0.06418519	
0.2694694	0.06522137	0.00232992	-0.0007396312	-0.4530913	0.3081518	-0.004940159	-0.0003151369	
0.002078731	-0.0008957163	0.2682993	0.06418519	-0.004940159	-0.0003151369	-0.4504048	0.3067848	

4.228e+10	-0.1920495	0.1705095	-9.413949e-05	0.001217065	0.2685544	0.06423631	0.001135159	-0.001951338	
-9.413949e-05	0.001217065	-0.1937668	0.1693315	0.00142719	-0.001975866	0.2670318	0.06402487	
0.2685544	0.06423631	0.00142719	-0.001975866	-0.4527022	0.308581	-0.0041259	0.00267632	
0.001135159	-0.001951338	0.2670318	0.06402487	-0.0041259	0.00267632	-0.4513149	0.3059079	

4.23e+10	-0.19061	0.1700662	0.000647934	0.001038322	0.2680328	0.06392363	-0.000253775	-0.002234636	
0.000647934	0.001038322	-0.192712	0.1700779	-3.63109e-05	-0.002427428	0.2666829	0.0645765	
0.2680328	0.06392363	-3.63109e-05	-0.002427428	-0.452142	0.3094722	-0.001695674	0.004564406	
-0.000253775	-0.002234636	0.2666829	0.0645765	-0.001695674	0.004564406	-0.4526426	0.3064621	

4.232e+10	-0.1891201	0.1691523	0.001141638	0.0004469205	0.2682599	0.06396294	-0.001531688	-0.001626525	
0.001141638	0.0004469205	-0.1908117	0.1703658	-0.001476036	-0.001908391	0.2675269	0.06521108	
0.2682599	0.06396294	-0.001476036	-0.001908391	-0.4514139	0.3104802	0.001341593	0.004613284	
-0.001531688	-0.001626525	0.2675269	0.06521108	0.001341593	0.004613284	-0.4535916	0.3083763	

4.234e+10	-0.1878147	0.1678668	0.001179398	-0.0003274085	0.2693434	0.06385872	-0.002178636	-0.000379841	
0.001179398	-0.0003274085	-0.1884617	0.1698108	-0.00230408	-0.0006320542	0.2694214	0.06524958	
0.2693434	0.06385872	-0.00230408	-0.0006320542	-0.450547	0.3115084	0.003758359	0.002868081	
-0.002178636	-0.000379841	0.2694214	0.06524958	0.003758359	0.002868081	-0.4535871	0.3110429	

4.236e+10	-0.1867566	0.1663941	0.0007394015	-0.0009652452	0.2710693	0.06311471	-0.001946062	0.0009860127	
0.0007394015	-0.0009652452	-0.1861698	0.1683354	-0.002190505	0.0008690518	0.2718657	0.06418618	
0.2710693	0.06311471	-0.002190505	0.0008690518	-0.4494401	0.3127182	0.004646019	9.046547e-05	
-0.001946062	0.0009860127	0.2718657	0.06418618	0.004646019	9.046547e-05	-0.4521467	0.3141332	

4.238e+10	-0.1859867	0.1648367	8.513802e-06	-0.00120147	0.2729749	0.06142245	-0.0009578744	0.001922039	
8.513802e-06	-0.00120147	-0.1844337	0.1660648	-0.001207986	0.001975895	0.2741741	0.06187831	
0.2729749	0.06142245	-0.001207986	0.001975895	-0.448114	0.314006	0.003747837	-0.002616473	
-0.0009578744	0.001922039	0.2741741	0.06187831	0.003747837	-0.002616473	-0.4494975	0.3167333	

4.24e+10	-0.1854455	0.1633197	-0.0007040156	-0.0009493417	0.2744473	0.05882137	0.0003681723	0.002080576	
-0.0007040156	-0.0009493417	-0.1834999	0.163435	0.0002123543	0.002259945	0.2756667	0.05856962	
0.2744473	0.05882137	0.0002123543	0.002259945	-0.446421	0.3152656	0.001480945	-0.004258436	
0.0003681723	0.002080576	0.2756667	0.05856962	0.001480945	-0.004258436	-0.4460065	0.3182508	

4.242e+10	-0.1851902	0.1618365	-0.001110446	-0.0003312495	0.2750146	0.05570747	0.001508769	0.001432369	
-0.001110446	-0.0003312495	-0.1835858	0.1608304	0.001488787	0.001648945	0.275888	0.05486251	
0.2750146	0.05570747	0.001488787	0.001648945	-0.4442297	0.3162814	-0.001284901	-0.004274664	
0.001508769	0.001432369	0.275888	0.05486251	-0.001284901	-0.004274664	-0.4421873	0.3184465	

4.244e+10	-0.1851605	0.1605609	-0.001064975	0.000389304	0.2745262	0.05270642	0.002034833	0.0002505491	
-0.001064975	0.000389304	-0.1844847	0.15885	0.002130783	0.0004252311	0.2748072	0.05154791	
0.2745262	0.05270642	0.002130783	0.0004252311	-0.4417789	0.3166327	-0.003530151	-0.002680502	
0.002034833	0.0002505491	0.2748072	0.05154791	-0.003530151	-0.002680502	-0.4388348	0.3171968	

4.246e+10	-0.1853485	0.1595938	-0.0006091802	0.0009256269	0.2732379	0.05041479	0.00175631	-0.0009972772	
-0.0006091802	0.0009256269	-0.1858085	0.157856	0.001919195	-0.000908347	0.2728403	0.04930806	
0.2732379	0.05041479	0.001919195	-0.000908347	-0.439417	0.3162186	-0.004404092	-6.687848e-05	
0.00175631	-0.0009972772	0.2728403	0.04930806	-0.004404092	-6.687848e-05	-0.4367092	0.3149646	

4.248e+10	-0.185523	0.1590686	5.891218e-05	0.001080796	0.2716833	0.04918712	0.0007971684	-0.001817896	
5.891218e-05	0.001080796	-0.1868381	0.1580023	0.0009745276	-0.001829198	0.2707724	0.04849037	
0.2716833	0.04918712	0.0009745276	-0.001829198	-0.4377693	0.3150328	-0.003541266	0.002552163	
0.0007971684	-0.001817896	0.2707724	0.04849037	-0.003541266	0.002552163	-0.4363123	0.3124841	

4.25e+10	-0.1854444	0.1589451	0.0006728335	0.0008149364	0.270559	0.04899819	-0.000441044	-0.001892281	
0.0006728335	0.0008149364	-0.187048	0.1588528	-0.0003018969	-0.0019962	0.2694446	0.04892266	
0.270559	0.04899819	-0.0003018969	-0.0019962	-0.4370105	0.3137926	-0.001284652	0.00410435	
-0.000441044	-0.001892281	0.2694446	0.04892266	-0.001284652	0.00410435	-0.4373596	0.3109302	

4.252e+10	-0.1848585	0.1590595	0.001000673	0.000250702	0.270403	0.04940874	-0.00144774	-0.001220406	
0.001000673	0.000250702	-0.1860768	0.1598819	-0.001392476	-0.001381341	0.2694628	0.04993224	
0.270403	0.04940874	-0.001392476	-0.001381341	-0.4373379	0.3128723	0.00140151	0.003964779	
-0.00144774	-0.001220406	0.2694628	0.04993224	0.00140151	0.003964779	-0.4392966	0.3108092	

4.254e+10	-0.1836219	0.1591144	0.0009304242	-0.0003814999	0.2714151	0.04971117	-0.001834353	-0.0001141221	
0.0009304242	-0.0003814999	-0.1841376	0.1603507	-0.001879637	-0.0002711947	0.270921	0.05062318	
0.2714151	0.04971117	-0.001879637	-0.0002711947	-0.4383513	0.3130194	0.003388532	0.002277343	
-0.001834353	-0.0001141221	0.270921	0.05062318	0.003388532	0.002277343	-0.441046	0.3125091	

4.256e+10	-0.1819454	0.1586652	0.0005086446	-0.0008370671	0.273291	0.0492319	-0.001496629	0.0009634029	
0.0005086446	-0.0008370671	-0.1816665	0.159879	-0.001615077	0.0008659965	0.2733535	0.05022894	
0.273291	0.0492319	-0.001615077	0.0008659965	-0.4394606	0.3143909	0.003943076	-0.0001594939	
-0.001496629	0.0009634029	0.2733535	0.05022894	0.003943076	-0.0001594939	-0.4418507	0.3155183	

4.258e+10	-0.1800153	0.1575915	-8.440039e-05	-0.0009484923	0.2754053	0.04760887	-0.0006224268	0.001608041	
-8.440039e-05	-0.0009484923	-0.1791807	0.1583585	-0.000763082	0.001591962	0.2759568	0.0484054	
0.2754053	0.04760887	-0.000763082	0.001591962	-0.4396777	0.3171056	0.003001798	-0.002352019	
-0.0006224268	0.001608041	0.2759568	0.0484054	0.003001798	-0.002352019	-0.4409309	0.3192981	

4.26e+10	-0.1782824	0.1557449	-0.0006118895	-0.0006935642	0.27706	0.04493348	0.0004264718	0.001618247	
-0.0006118895	-0.0006935642	-0.1772618	0.1558928	0.000306005	0.001673046	0.2779281	0.04532671	
0.27706	0.04493348	0.000306005	0.001673046	-0.4384113	0.3203988	0.001052349	-0.003545626	
0.0004264718	0.001618247	0.2779281	0.04532671	0.001052349	-0.003545626	-0.4381923	0.3228272	

4.262e+10	-0.1771808	0.1532625	-0.000876527	-0.0001895119	0.2777519	0.04166791	0.001259499	0.001031842	
-0.000876527	-0.0001895119	-0.1763326	0.1528519	0.001184621	0.001135296	0.2786979	0.04156267	
0.2777519	0.04166791	0.001184621	0.001135296	-0.4354966	0.3233104	-0.001155867	-0.003418791	
0.001259499	0.001031842	0.2786979	0.04156267	-0.001155867	-0.003418791	-0.4339777	0.3251296	

4.264e+10	-0.1770341	0.1505613	-0.0007907534	0.0003553787	0.2773366	0.03845551	0.001582929	9.200289e-05	
-0.0007907534	0.0003553787	-0.1766002	0.1498209	0.00156937	0.0002191697	0.2781036	0.037869	
0.2773366	0.03845551	0.00156937	0.0002191697	-0.4313926	0.3248416	-0.002865054	-0.002084641	
0.001582929	9.200289e-05	0.2781036	0.037869	-0.002865054	-0.002084641	-0.4291974	0.3254245	

4.266e+10	-0.1778261	0.1483169	-0.0004098687	0.0007268065	0.2760558	0.03589748	0.001296154	-0.0008353141	
-0.0004098687	0.0007268065	-0.1778932	0.1475325	0.001351105	-0.0007164305	0.2763963	0.03497235	
0.2760558	0.03589748	0.001351105	-0.0007164305	-0.4269932	0.324458	-0.003490572	-2.98525e-05	
0.001296154	-0.0008353141	0.2763963	0.03497235	-0.003490572	-2.98525e-05	-0.4248377	0.3237568	

4.268e+10	-0.1792712	0.1469932	9.46997e-05	0.0007934688	0.2744283	0.03435211	0.0005355363	-0.00139461	
9.46997e-05	0.0007934688	-0.1797065	0.1464606	0.0006492706	-0.001322521	0.2742078	0.03336296	
0.2744283	0.03435211	0.0006492706	-0.001322521	-0.4233436	0.3223847	-0.002801328	0.001991536	
0.0005355363	-0.00139461	0.2742078	0.03336296	-0.002801328	0.001991536	-0.4220729	0.320603	

4.27e+10	-0.1806123	0.1468844	0.0005174677	0.000560166	0.2730829	0.0338265	-0.0003754995	-0.001390698	
0.0005174677	0.000560166	-0.1811838	0.1467198	-0.0002387215	-0.001394819	0.272324	0.03311494	
0.2730829	0.0338265	-0.0002387215	-0.001394819	-0.4216987	0.319044	-0.001063506	0.003195154	
-0.0003754995	-0.001390698	0.272324	0.03311494	-0.001063506	0.003195154	-0.4216838	0.3169545	

4.272e+10	-0.1811588	0.1477495	0.0007117811	0.0001475323	0.272541	0.03397093	-0.001074948	-0.000870476	
0.0007117811	0.0001475323	-0.1816186	0.1479135	-0.0009650561	-0.0009510104	0.2715129	0.03381054	
0.272541	0.03397093	-0.0009650561	-0.0009510104	-0.4222586	0.3160047	0.001002642	0.003116695	
-0.001074948	-0.000870476	0.2715129	0.03381054	0.001002642	0.003116695	-0.4235317	0.3143131	

4.274e+10	-0.1804331	0.1489492	0.0006364488	-0.0002769868	0.2730468	0.03419757	-0.001323112	-7.953432e-05	
0.0006364488	-0.0002769868	-0.180674	0.1492542	-0.001278405	-0.0002047672	0.2721136	0.03464329	
0.2730468	0.03419757	-0.001278405	-0.0002047672	-0.4246014	0.3145327	0.002550091	0.001861946	
-0.001323112	-7.953432e-05	0.2721136	0.03464329	0.002550091	0.001861946	-0.4264911	0.313977	

4.276e+10	-0.1785208	0.1496375	0.0003472336	-0.0005673447	0.2744454	0.0338907	-0.001080936	0.0006691644	
0.0003472336	-0.0005673447	-0.1785586	0.1499347	-0.001110036	0.0005445221	0.2739432	0.03476252	
0.2744454	0.0338907	-0.001110036	0.0005445221	-0.427585	0.3153581	0.00302866	2.911993e-05	
-0.001080936	0.0006691644	0.2739432	0.03476252	0.00302866	2.911993e-05	-0.4293567	0.3159711	

4.278e+10	-0.1758987	0.1492257	-3.883936e-05	-0.0006388605	0.2762574	0.0326493	-0.0004839104	0.001123627	
-3.883936e-05	-0.0006388605	-0.1758217	0.1494245	-0.0005711914	0.001034712	0.2763113	0.03362721	
0.2762574	0.0326493	-0.0005711914	0.001034712	-0.4296329	0.3184922	0.002393489	-0.001643278	
-0.0004839104	0.001123627	0.2763113	0.03362721	0.002393489	-0.001643278	-0.4306397	0.3199379	

4.28e+10	-0.173188	0.1475509	-0.0003847458	-0.0004833454	0.2778796	0.03042295	0.0002361158	0.001158993	
-0.0003847458	-0.0004833454	-0.1731183	0.1476481	0.0001162271	0.001126822	0.278438	0.03119492	
0.2778796	0.03042295	0.0001162271	0.001126822	-0.4295487	0.3231008	0.001001941	-0.00260892	
0.0002361158	0.001158993	0.278438	0.03119492	0.001001941	-0.00260892	-0.4295397	0.3247405	

4.282e+10	-0.1712049	0.1446793	-0.000573005	-0.0001672328	0.2788263	0.02750819	0.0008311753	0.0007927355	
-0.000573005	-0.0001672328	-0.171162	0.1447456	0.0007089096	0.0008266609	0.2796968	0.02785089	
0.2788263	0.02750819	0.0007089096	0.0008266609	-0.4269828	0.3276354	-0.0006189679	-0.002638983	
0.0008311753	0.0007927355	0.2796968	0.02785089	-0.0006189679	-0.002638983	-0.4260484	0.3289314	

4.284e+10	-0.1705208	0.1411172	-0.0005433752	0.0001890106	0.2788445	0.02439966	0.001105488	0.0001674637	
-0.0005433752	0.0001890106	-0.1704546	0.1412128	0.001015122	0.0002644385	0.2797635	0.0242208	
0.2788445	0.02439966	0.001015122	0.0002644385	-0.4222931	0.3307631	-0.001951522	-0.001795145	
0.001105488	0.0001674637	0.2797635	0.0242208	-0.001951522	-0.001795145	-0.4209364	0.3312443	

4.286e+10	-0.1712978	0.1377762	-0.0003184274	0.0004500642	0.2780314	0.0216101	0.0009725036	-0.0004871634	
-0.0003184274	0.0004500642	-0.1711542	0.1379068	0.0009473595	-0.000350157	0.2787029	0.02096116	
0.2780314	0.0216101	0.0009473595	-0.000350157	-0.4164979	0.3315348	-0.002584769	-0.000373392	
0.0009725036	-0.0004871634	0.2787029	0.02096116	-0.002584769	-0.000373392	-0.4152311	0.3311188	

4.288e+10	-0.1732757	0.1354752	1.335551e-06	0.0005241183	0.2766829	0.01951158	0.0004955521	-0.000930352	
1.335551e-06	0.0005241183	-0.1730551	0.1355462	0.0005533351	-0.0007963524	0.2768962	0.01859628	
0.2766829	0.01951158	0.0005533351	-0.0007963524	-0.4111562	0.3296339	-0.002308104	0.001153294	
0.0004955521	-0.000930352	0.2768962	0.01859628	-0.002308104	0.001153294	-0.4103374	0.3286247	

4.29e+10	-0.175664	0.134743	0.0002850281	0.0004044577	0.2752552	0.01825686	-0.0001282989	-0.001008371	
0.0002850281	0.0004044577	-0.1753952	0.1346827	-2.751503e-07	-0.00092735	0.2749209	0.01738423	
0.2752552	0.01825686	-2.751503e-07	-0.00092735	-0.407764	0.3256303	-0.001207183	0.002241044	
-0.0001282989	-0.001008371	0.2749209	0.01738423	-0.001207183	0.002241044	-0.4076822	0.3244013	

4.292e+10	-0.1773373	0.1356337	0.0004364699	0.0001625906	0.2742153	0.01776251	-0.0006565292	-0.0007222756	
0.0004364699	0.0001625906	-0.1771147	0.1354144	-0.0005013647	-0.0007284002	0.2734472	0.01723786	
0.2742153	0.01776251	-0.0005013647	-0.0007284002	-0.40729	0.3209663	0.0003077923	0.002478864	
-0.0006565292	-0.0007222756	0.2734472	0.01723786	0.0003077923	0.002478864	-0.4079149	0.3199611	

4.294e+10	-0.1775817	0.1373498	0.0004279254	-0.0001012913	0.2738978	0.01771314	-0.0009120759	-0.0002119111	
0.0004279254	-0.0001012913	-0.177472	0.1370176	-0.0007855275	-0.0003062644	0.2729964	0.01770604	
0.2738978	0.01771314	-0.0007855275	-0.0003062644	-0.4096166	0.3175022	0.001643193	0.001794677	
-0.0009120759	-0.0002119111	0.2729964	0.01770604	0.001643193	0.001794677	-0.4106054	0.317123	

4.296e+10	-0.1761701	0.1388813	0.0002874599	-0.0003040016	0.2744957	0.01761037	-0.0008396415	0.0003256755	
0.0002874599	-0.0003040016	-0.1762466	0.1384932	-0.0007869008	0.000174884	0.2737632	0.01808687	
0.2744957	0.01761037	-0.0007869008	0.000174884	-0.4135105	0.3167248	0.002299894	0.0005050753	
-0.0008396415	0.0003256755	0.2737632	0.01808687	0.002299894	0.0005050753	-0.4144543	0.3169889	

4.298e+10	-0.1734747	0.1393776	7.183454e-05	-0.0003953976	0.2758008	0.01693151	-0.0004961765	0.0007152354	
7.183454e-05	-0.0003953976	-0.1737654	0.139063	-0.0005362893	0.0005582612	0.2754619	0.01770083	
0.2758008	0.01693151	-0.0005362893	0.0005582612	-0.4171312	0.3190362	0.002101211	-0.0008615982	
-0.0004961765	0.0007152354	0.2754619	0.01770083	0.002101211	-0.0008615982	-0.4177027	0.3197045	

4.3e+10	-0.1703603	0.1383	-0.0001514039	-0.0003585978	0.277345	0.01536032	-1.159493e-05	0.0008462406	
-0.0001514039	-0.0003585978	-0.1708113	0.1381723	-0.0001339752	0.0007350298	0.2774592	0.0161702	
0.277345	0.01536032	-0.0001339752	0.0007350298	-0.4187946	0.3236813	0.001211744	-0.00182818	
-1.159493e-05	0.0008462406	0.2774592	0.0161702	0.001211744	-0.00182818	-0.4188099	0.3245112	

4.302e+10	-0.1676696	0.1357277	-0.0003153858	-0.0002099388	0.27857	0.01293286	0.0004537315	0.0006914763	
-0.0003153858	-0.0002099388	-0.1681928	0.13586	0.0002857304	0.0006654718	0.2790913	0.01354975	
0.27857	0.01293286	0.0002857304	0.0006654718	-0.4175844	0.329197	-8.106525e-06	-0.002130585	
0.0004537315	0.0006914763	0.2790913	0.01354975	-8.106525e-06	-0.002130585	-0.4172212	0.3297379	

4.304e+10	-0.1662321	0.1320376	-0.0003691393	7.086975e-07	0.279081	0.009997375	0.000749472	0.0003098593	
-0.0003691393	7.086975e-07	-0.1666091	0.1324794	0.0005900054	0.0003843263	0.2798424	0.01024766	
0.279081	0.009997375	0.0005900054	0.0003843263	-0.413644	0.3337686	-0.001160797	-0.001734633	
0.000749472	0.0003098593	0.2798424	0.01024766	-0.001160797	-0.001734633	-0.4130377	0.3339941	

4.306e+10	-0.1663887	0.1281366	-0.000296808	0.0002010297	0.2787511	0.007039872	0.0007780242	-0.0001663537	
-0.000296808	0.0002010297	-0.1664839	0.1287662	0.0006848156	-9.390664e-06	0.2795362	0.006845386	
0.2787511	0.007039872	0.0006848156	-9.390664e-06	-0.4077218	0.3362194	-0.001904212	-0.0007910878	
0.0007780242	-0.0001663537	0.2795362	0.006845386	-0.001904212	-0.0007910878	-0.407211	0.3360371	

4.308e+10	-0.1681501	0.1248793	-0.0001291359	0.0003210738	0.2777337	0.004490556	0.0005326885	-0.0005675136	
-0.0001291359	0.0003210738	-0.1678691	0.1254908	0.0005461764	-0.0003789949	0.2782827	0.003900677	
0.2777337	0.004490556	0.0005461764	-0.0003789949	-0.4014268	0.3356449	-0.002008842	0.0004046888	
0.0005326885	-0.0005675136	0.2782827	0.003900677	-0.002008842	0.0004046888	-0.4011171	0.335267	

4.31e+10	-0.1707938	0.1231804	6.779852e-05	0.0003251569	0.2763577	0.002612115	0.0001105214	-0.0007496264	
6.779852e-05	0.0003251569	-0.1701794	0.1235518	0.0002335265	-0.0005989336	0.2764941	0.001813922	
0.2763577	0.002612115	0.0002335265	-0.0005989336	-0.3962715	0.3323935	-0.001424376	0.001461652	
0.0001105214	-0.0007496264	0.2764941	0.001813922	-0.001424376	0.001461652	-0.3962965	0.3319433	

4.312e+10	-0.1733643	0.1232492	0.0002245634	0.0002254667	0.275026	0.00147744	-0.000324525	-0.0006583612	
0.0002245634	0.0002254667	-0.1726146	0.1232157	-0.0001331123	-0.0006054294	0.274689	0.0007429153	
0.275026	0.00147744	-0.0001331123	-0.0006054294	-0.3938041	0.3274072	-0.0003363371	0.00200022	
-0.000324525	-0.0006583612	0.274689	0.0007429153	-0.0003363371	0.00200022	-0.394082	0.327057	

4.314e+10	-0.1747471	0.1247379	0.0002988312	6.686241e-05	0.2740983	0.0009727658	-0.0006176045	-0.0003491393	
0.0002988312	6.686241e-05	-0.1741204	0.1242906	-0.000428266	-0.0004167614	0.2734194	0.0005534654	
0.2740983	0.0009727658	-0.000428266	-0.0004167614	-0.3945742	0.3224955	0.0008597802	0.001810856	
-0.0006176045	-0.0003491393	0.2734194	0.0005534654	0.0008597802	0.001810856	-0.3949134	0.322428	

4.316e+10	-0.1744197	0.1266304	0.0002806477	-9.906845e-05	0.2738889	0.0007813361	-0.0006847788	5.317178e-05	
0.0002806477	-9.906845e-05	-0.1741358	0.1259144	-0.0005670212	-0.0001117591	0.2731188	0.0008044036	
0.2738889	0.0007813361	-0.0005670212	-0.0001117591	-0.3979973	0.3195408	0.001709233	0.0009740596	
-0.0006847788	5.317178e-05	0.2731188	0.0008044036	0.001709233	0.0009740596	-0.3982234	0.3197224	

4.318e+10	-0.1724256	0.1279612	0.0001826612	-0.0002287994	0.2744997	0.0004231203	-0.0005259266	0.0004120828	
0.0001826612	-0.0002287994	-0.1726056	0.1271628	-0.0005215189	0.000208276	0.2738787	0.0008563549	
0.2744997	0.0004231203	-0.0005215189	0.000208276	-0.4023331	0.319801	0.001912174	-0.0001663957	
-0.0005259266	0.0004120828	0.2738787	0.0008563549	0.001912174	-0.0001663957	-0.4023936	0.3200784	

4.32e+10	-0.1694914	0.1278601	3.272066e-05	-0.0002892049	0.2756894	-0.0005675875	-0.0002060591	0.0006205211	
3.272066e-05	-0.0002892049	-0.1700914	0.1272446	-0.0003171719	0.00044713	0.2754	0.0001196804	
0.2756894	-0.0005675875	-0.0003171719	0.00044713	-0.4057463	0.3230922	0.001448421	-0.001180252	
-0.0002060591	0.0006205211	0.2754	0.0001196804	0.001448421	-0.001180252	-0.4056005	0.3233233	

4.322e+10	-0.1665273	0.1261264	-0.0001280683	-0.0002618825	0.2769396	-0.00240415	0.0001693903	0.0006208467	
-0.0001280683	-0.0002618825	-0.1673622	0.1259333	-2.253908e-05	0.0005366469	0.2770649	-0.001680086	
0.2769396	-0.00240415	-2.253908e-05	0.0005366469	-0.4066653	0.328372	0.0005359727	-0.001742639	
0.0001693903	0.0006208467	0.2770649	-0.001680086	0.0005359727	-0.001742639	-0.4064262	0.3284134	

4.324e+10	-0.1643232	0.1230189	-0.0002511824	-0.0001511047	0.2777758	-0.004956741	0.0004807495	0.0004166439	
-0.0002511824	-0.0001511047	-0.165176	0.1232978	0.0002687916	0.0004540314	0.278265	-0.004416707	
0.2777758	-0.004956741	0.0002687916	0.0004540314	-0.4045578	0.3338476	-0.0005023179	-0.001718907	
0.0004807495	0.0004166439	0.278265	-0.004416707	-0.0005023179	-0.001718907	-0.4043144	0.3337654	

4.326e+10	-0.1635511	0.1191324	-0.0002946565	1.173161e-05	0.2778794	-0.007839535	0.0006257847	7.455274e-05	
-0.0002946565	1.173161e-05	-0.1641322	0.1198629	0.0004652743	0.0002289635	0.2785949	-0.007654853	
0.2778794	-0.007839535	0.0004652743	0.0002289635	-0.3997216	0.3380302	-0.001350443	-0.001150537	
0.0006257847	7.455274e-05	0.2785949	-0.007654853	-0.001350443	-0.001150537	-0.3996868	0.3377616	

4.328e+10	-0.1644462	0.1153177	-0.0002399885	0.0001734038	0.2772571	-0.01060947	0.0005526611	-0.0002892313	
-0.0002399885	0.0001734038	-0.1645369	0.1162832	0.0005050255	-6.259635e-05	0.2779584	-0.01084765	
0.2772571	-0.01060947	0.0005050255	-6.259635e-05	-0.3933952	0.3395696	-0.001758693	-0.0002159403	
0.0005526611	-0.0002892313	0.2779584	-0.01084765	-0.001758693	-0.0002159403	-0.3935654	0.3393571	

4.33e+10	-0.1666885	0.1125175	-0.0001036596	0.0002776933	0.2761174	-0.01293105	0.000285894	-0.000544294	
-0.0001036596	0.0002776933	-0.1662192	0.1133871	0.0003796326	-0.0003220772	0.2765599	-0.01351588	
0.2761174	-0.01293105	0.0003796326	-0.0003220772	-0.3870805	0.338148	-0.001588648	0.0008010924	
0.000285894	-0.000544294	0.2765599	-0.01351588	-0.001588648	0.0008010924	-0.3874158	0.3380834	

4.332e+10	-0.1695546	0.1113342	6.735434e-05	0.000288389	0.2747604	-0.01463762	-7.33393e-05	-0.0005978182	
6.735434e-05	0.000288389	-0.1686226	0.1118206	0.0001392146	-0.0004650289	0.2747909	-0.01536224	
0.2747604	-0.01463762	0.0001392146	-0.0004650289	-0.3825449	0.3340681	-0.0008687866	0.001564112	
-7.33393e-05	-0.0005978182	0.2747909	-0.01536224	-0.0008687866	0.001564112	-0.3828669	0.3342315	

4.334e+10	-0.1719473	0.1118773	0.0002151785	0.0002034628	0.2734987	-0.01571763	-0.0003888321	-0.0004394947	
0.0002151785	0.0002034628	-0.17087	0.1117716	-0.0001300315	-0.0004546715	0.2731227	-0.01632168	
0.2734987	-0.01571763	-0.0001300315	-0.0004546715	-0.3809048	0.3287882	0.0001719616	0.001786543	
-0.0003888321	-0.0004394947	0.2731227	-0.01632168	0.0001719616	0.001786543	-0.3810473	0.3291434	

4.336e+10	-0.1729765	0.1135379	0.0002926227	5.184482e-05	0.2726731	-0.01630245	-0.0005523709	-0.000141311	
0.0002926227	5.184482e-05	-0.1721328	0.1128552	-0.0003442476	-0.0003086589	0.272045	-0.0165837	
0.2726731	-0.01630245	-0.0003442476	-0.0003086589	-0.3824769	0.3241346	0.001157283	0.001366361	
-0.0005523709	-0.000141311	0.272045	-0.0165837	0.001157283	0.001366361	-0.3823725	0.324505	

4.338e+10	-0.1722998	0.1153011	0.0002752999	-0.0001186255	0.2724996	-0.01668589	-0.0005232128	0.0001845603	
0.0002752999	-0.0001186255	-0.1719732	0.1142588	-0.0004483966	-7.938723e-05	0.2718451	-0.01657675	
0.2724996	-0.01668589	-0.0004483966	-7.938723e-05	-0.386316	0.3218664	0.001714172	0.0004591507	
-0.0005232128	0.0001845603	0.2718451	-0.01657675	0.001714172	0.0004591507	-0.3859352	0.3221201	

4.34e+10	-0.1701447	0.116239	0.0001664822	-0.0002544211	0.2730126	-0.01729801	-0.0003271134	0.0004328354	
0.0001664822	-0.0002544211	-0.1704527	0.115145	-0.0004203117	0.0001672623	0.2725387	-0.01686542	
0.2730126	-0.01729801	-0.0004203117	0.0001672623	-0.3907138	0.3227674	0.001649286	-0.0005839133	
-0.0003271134	0.0004328354	0.2725387	-0.01686542	0.001649286	-0.0005839133	-0.3902519	0.3227298	

4.342e+10	-0.1673213	0.1156861	-2.948594e-06	-0.000309976	0.2739543	-0.01852598	-3.388632e-05	0.0005326732	
-2.948594e-06	-0.000309976	-0.1681512	0.1149201	-0.0002696711	0.0003641736	0.2738038	-0.01792637	
0.2739543	-0.01852598	-0.0002696711	0.0003641736	-0.3936773	0.3266051	0.001022268	-0.001385608	
-3.388632e-05	0.0005326732	0.2738038	-0.01792637	0.001022268	-0.001385608	-0.3932771	0.3262731	

4.344e+10	-0.164652	0.1135858	-0.0001803591	-0.0002610553	0.274886	-0.02050813	0.0002633003	0.0004577454	
-0.0001803591	-0.0002610553	-0.1658115	0.1133635	-3.658885e-05	0.0004554527	0.2750688	-0.01993192	
0.274886	-0.02050813	-3.658885e-05	0.0004554527	-0.3938908	0.3320395	8.137632e-05	-0.00169725	
0.0002633003	0.0004577454	0.2750688	-0.01993192	8.137632e-05	-0.00169725	-0.3937553	0.3314553	

4.346e+10	-0.1629676	0.1102544	-0.000304298	-0.0001154705	0.2753453	-0.02306864	0.0004701077	0.0002320049	
-0.000304298	-0.0001154705	-0.1640887	0.1107209	0.0002143164	0.0004104903	0.2758079	-0.02269444	
0.2753453	-0.02306864	0.0002143164	0.0004104903	-0.3911419	0.3372674	-0.0008602236	-0.001451666	
0.0004701077	0.0002320049	0.2758079	-0.02269444	-0.0008602236	-0.001451666	-0.3912978	0.336688	

4.348e+10	-0.1627747	0.1063546	-0.0003233462	8.248001e-05	0.2751496	-0.0258373	0.0005155894	-7.154761e-05	
-0.0003233462	8.248001e-05	-0.1634923	0.1073944	0.000407888	0.0002358171	0.2757374	-0.02578036	
0.2751496	-0.0258373	0.000407888	0.0002358171	-0.3858379	0.3408806	-0.001518074	-0.0007410703	
0.0005155894	-7.154761e-05	0.2757374	-0.02578036	-0.001518074	-0.0007410703	-0.3863291	0.3404751	

4.35e+10	-0.1641075	0.1028247	-0.0002194134	0.0002607465	0.2743408	-0.02843022	0.000380331	-0.0003470587	
-0.0002194134	0.0002607465	-0.1641555	0.1041361	0.0004798239	-2.18256e-05	0.2748358	-0.02869776	
0.2743408	-0.02843022	0.0004798239	-2.18256e-05	-0.3794572	0.3416648	-0.001689362	0.0002221087	
0.000380331	-0.0003470587	0.2748358	-0.02869776	-0.001689362	0.0002221087	-0.3800973	0.341641	

4.352e+10	-0.1666394	0.1004043	-2.435209e-05	0.0003446207	0.273103	-0.03058273	0.0001134451	-0.0004924826	
-2.435209e-05	0.0003446207	-0.1659173	0.1015548	0.000399429	-0.0002841008	0.2733601	-0.03106861	
0.273103	-0.03058273	0.000399429	-0.0002841008	-0.3735511	0.3394289	-0.001296487	0.001140596	
0.0001134451	-0.0004924826	0.2733601	-0.03106861	-0.001296487	0.001140596	-0.3741433	0.3398478	

4.354e+10	-0.1695266	0.0996198	0.0001848144	0.0002936053	0.2717495	-0.03219494	-0.0001801207	-0.000457263	
0.0001848144	0.0002936053	-0.1682107	0.1001942	0.0001849669	-0.0004654869	0.2716879	-0.03271091	
0.2717495	-0.03219494	0.0001849669	-0.0004654869	-0.369594	0.3350099	-0.0004351123	0.00169711	
-0.0001801207	-0.000457263	0.2716879	-0.03271091	-0.0004351123	0.00169711	-0.3698858	0.335745	

4.356e+10	-0.171755	0.1004057	0.0003206804	0.0001268563	0.2705312	-0.03327553	-0.0003907259	-0.0002688398	
0.0003206804	0.0001268563	-0.1703109	0.1001207	-0.0001006062	-0.000503028	0.2702228	-0.03365037	
0.2705312	-0.03327553	-0.0001006062	-0.000503028	-0.3686772	0.3297513	0.0006140027	0.001663076	
-0.0003907259	-0.0002688398	0.2702228	-0.03365037	0.0006140027	0.001663076	-0.3685291	0.3305462	

4.358e+10	-0.1725524	0.1020878	0.0003294244	-8.442249e-05	0.2697214	-0.03395274	-0.0004570723	-1.037242e-05	
0.0003294244	-8.442249e-05	-0.1714987	0.1010204	-0.0003692347	-0.0003766553	0.2692898	-0.034098	
0.2697214	-0.03395274	-0.0003692347	-0.0003766553	-0.3707874	0.3255154	0.001463632	0.001020019	
-0.0004570723	-1.037242e-05	0.2692898	-0.034098	0.001463632	0.001020019	-0.3701662	0.3261158	

4.36e+10	-0.1716787	0.1036858	0.0002150808	-0.0002554529	0.2694906	-0.03450055	-0.0003794711	0.0002297254	
0.0002150808	-0.0002554529	-0.1714226	0.1021884	-0.0005319689	-0.0001149186	0.2690874	-0.03442124	
0.2694906	-0.03450055	-0.0005319689	-0.0001149186	-0.3747928	0.3238551	0.0017836	7.003869e-07	
-0.0003794711	0.0002297254	0.2690874	-0.03442124	0.0017836	7.003869e-07	-0.3739095	0.3240048	

4.362e+10	-0.1695715	0.1042803	2.832283e-05	-0.0003268853	0.2698696	-0.03531149	-0.0001956919	0.00038909	
2.832283e-05	-0.0003268853	-0.1702047	0.1028767	-0.0005231693	0.0002065039	0.2695604	-0.03505332	
0.2698696	-0.03531149	-0.0005231693	0.0002065039	-0.3789039	0.3253339	0.001460321	-0.001007596	
-0.0001956919	0.00038909	0.2695604	-0.03505332	0.001460321	-0.001007596	-0.3781456	0.3249122	

4.364e+10	-0.16692	0.1034544	-0.0001616262	-0.0002806231	0.2705612	-0.03670779	4.093703e-05	0.0004311409	
-0.0001616262	-0.0002806231	-0.1682451	0.1026166	-0.0003282356	0.0004795555	0.2704193	-0.03633915	
0.2705612	-0.03670779	-0.0003282356	0.0004795555	-0.3812849	0.3294649	0.0006354323	-0.001643003	
4.093703e-05	0.0004311409	0.2704193	-0.03633915	0.0006354323	-0.001643003	-0.3808713	0.3286433	

4.366e+10	-0.1646243	0.1011192	-0.0002910064	-0.0001366892	0.2711621	-0.0387722	0.0002667557	0.0003433546	
-0.0002910064	-0.0001366892	-0.1661991	0.1011699	-4.916496e-07	0.0005993498	0.271218	-0.03837888	
0.2711621	-0.0387722	-4.916496e-07	0.0005993498	-0.3809001	0.3347467	-0.0003860974	-0.001710465	
0.0002667557	0.0003433546	0.271218	-0.03837888	-0.0003860974	-0.001710465	-0.3809535	0.3338521	

4.368e+10	-0.1633753	0.09770069	-0.0003155725	5.604156e-05	0.2713037	-0.04130501	0.0004140031	0.0001446331	
-0.0003155725	5.604156e-05	-0.1646883	0.09864201	0.0003496224	0.0005078488	0.2715536	-0.04099153	
0.2713037	-0.04130501	0.0003496224	0.0005078488	-0.3775617	0.3396003	-0.001270589	-0.001212081	
0.0004140031	0.0001446331	0.2715536	-0.04099153	-0.001270589	-0.001212081	-0.3781757	0.3388414	

4.37e+10	-0.163597	0.09392054	-0.000222977	0.0002288124	0.2708173	-0.04394772	0.0004288865	-0.0001076493	
-0.000222977	0.0002288124	-0.1641851	0.09548127	0.0005915709	0.0002232647	0.2712035	-0.04381512	
0.2708173	-0.04394772	0.0005915709	0.0002232647	-0.3722213	0.342395	-0.001744559	-0.0003094969	
0.0004288865	-0.0001076493	0.2712035	-0.04381512	-0.001744559	-0.0003094969	-0.3731199	0.3421411	

4.372e+10	-0.1653034	0.0906135	-4.458371e-05	0.000313536	0.2698243	-0.04637157	0.0002986364	-0.0003283582	
-4.458371e-05	0.000313536	-0.1649064	0.09223865	0.0006257825	-0.000158975	0.2702239	-0.04646743	
0.2698243	-0.04637157	0.0006257825	-0.000158975	-0.366023	0.3425183	-0.001647413	0.0007245357	
0.0002986364	-0.0003283582	0.2702239	-0.04646743	-0.001647413	0.0007245357	-0.3669795	0.3428131	

4.374e+10	-0.1680394	0.08852216	0.0001475144	0.0002732779	0.2685186	-0.04836735	6.672498e-05	-0.0004375819	
0.0001475144	0.0002732779	-0.1667301	0.08966235	0.0004286706	-0.0004968299	0.2688011	-0.04866045	
0.2685186	-0.04836735	0.0004286706	-0.0004968299	-0.3605957	0.3399271	-0.000975329	0.001554808	
6.672498e-05	-0.0004375819	0.2688011	-0.04866045	-0.000975329	0.001554808	-0.361219	0.3407529	

4.376e+10	-0.1709491	0.08804458	0.0002717116	0.0001280896	0.2671524	-0.04988522	-0.0001827046	-0.0003996141	
0.0002717116	0.0001280896	-0.169189	0.08822439	6.856101e-05	-0.0006606319	0.2672423	-0.05027378	
0.2671524	-0.04988522	6.856101e-05	-0.0006606319	-0.3573919	0.3353786	8.022353e-05	0.00187038	
-0.0001827046	-0.0003996141	0.2672423	-0.05027378	8.022353e-05	0.00187038	-0.3574253	0.3364674	

4.378e+10	-0.1730427	0.08904644	0.000281769	-5.33223e-05	0.265951	-0.05096381	-0.000367333	-0.0002363672	
0.000281769	-5.33223e-05	-0.1715086	0.08818127	-0.0003227194	-0.0005882398	0.2658278	-0.05133953	
0.265951	-0.05096381	-0.0003227194	-0.0005882398	-0.3570896	0.3304372	0.001154944	0.001512956	
-0.000367333	-0.0002363672	0.2658278	-0.05133953	0.001154944	0.001512956	-0.3565506	0.3313273	

4.38e+10	-0.1736744	0.09071761	0.0001890971	-0.0001948471	0.2651398	-0.05173489	-0.0004384105	-4.132044e-06	
0.0001890971	-0.0001948471	-0.172945	0.0891489	-0.0006056448	-0.0003051376	0.2648329	-0.05200135	
0.2651398	-0.05173489	-0.0006056448	-0.0003051376	-0.3594913	0.326768	0.001834505	0.0005806356	
-0.0004384105	-4.132044e-06	0.2648329	-0.05200135	0.001834505	0.0005806356	-0.3584664	0.3272101	

4.382e+10	-0.1727012	0.09217515	4.453022e-05	-0.0002531635	0.2648355	-0.05245326	-0.000379993	0.0002339561	
4.453022e-05	-0.0002531635	-0.1729908	0.09051431	-0.0006808017	9.192701e-05	0.2644227	-0.05252979	
0.2648355	-0.05245326	-0.0006808017	9.192701e-05	-0.3632857	0.3257287	0.001843516	-0.0005806572	
-0.000379993	0.0002339561	0.2644227	-0.05252979	0.001843516	-0.0005806572	-0.3621883	0.325544	

4.384e+10	-0.170577	0.0925772	-9.734249e-05	-0.0002253768	0.2650154	-0.05344129	-0.0001999487	0.0004139824	
-9.734249e-05	-0.0002253768	-0.1717703	0.09137037	-0.0005169122	0.0004680502	0.2646088	-0.0532824	
0.2650154	-0.05344129	-0.0005169122	0.0004680502	-0.3668613	0.3275513	0.001181703	-0.001528338	
-0.0001999487	0.0004139824	0.2646088	-0.0532824	0.001181703	-0.001528338	-0.3661277	0.3267814	

4.386e+10	-0.1681578	0.09141625	-0.0001979468	-0.0001320141	0.2654007	-0.05495218	6.200694e-05	0.0004725189	
-0.0001979468	-0.0001320141	-0.1697601	0.09110089	-0.0001625157	0.0006896401	0.2651415	-0.05457526	
0.2654007	-0.05495218	-0.0001625157	0.0006896401	-0.3685521	0.3316129	0.0001101829	-0.001924949	
6.200694e-05	0.0004725189	0.2651415	-0.05457526	0.0001101829	-0.001924949	-0.3684268	0.3305704	

4.388e+10	-0.1661857	0.08892138	-0.0002340576	-2.41028e-06	0.2656518	-0.057009	0.0003267477	0.0003706356	
-0.0002340576	-2.41028e-06	-0.1677079	0.08951009	0.0002630673	0.0006703387	0.2656609	-0.05653581	
0.2656518	-0.057009	0.0002630673	0.0006703387	-0.3676058	0.3364947	-0.0009874415	-0.001657106	
0.0003267477	0.0003706356	0.2656609	-0.05653581	-0.0009874415	-0.001657106	-0.3681028	0.3355354	

4.39e+10	-0.1653625	0.08545962	-0.0001944913	0.0001270293	0.2654729	-0.05941319	0.0004946844	0.0001247427	
-0.0001944913	0.0001270293	-0.1662947	0.086789	0.0006079293	0.0004063128	0.2657554	-0.05901876	
0.2654729	-0.05941319	0.0006079293	0.0004063128	-0.3641778	0.3405532	-0.001753609	-0.0008322999	
0.0004946844	0.0001247427	0.2657554	-0.05901876	-0.001753609	-0.0008322999	-0.3650505	0.3400579	

4.392e+10	-0.1660218	0.08180084	-8.762871e-05	0.0002132367	0.2647907	-0.0618575	0.0004896197	-0.0001845335	
-8.762871e-05	0.0002132367	-0.1660354	0.0834345	0.0007410468	-1.506984e-05	0.2652483	-0.0617008	
0.2647907	-0.0618575	0.0007410468	-1.506984e-05	-0.3589066	0.342739	-0.001945947	0.0002876996	
0.0004896197	-0.0001845335	0.2652483	-0.0617008	-0.001945947	0.0002876996	-0.3599496	0.3427754	

4.394e+10	-0.1680689	0.07876499	5.016053e-05	0.0002210502	0.2637072	-0.06407524	0.000300836	-0.0004390639	
5.016053e-05	0.0002210502	-0.1671677	0.08012923	0.0006051713	-0.0004417841	0.2641583	-0.06420927	
0.2637072	-0.06407524	0.0006051713	-0.0004417841	-0.3532463	0.3423195	-0.001482049	0.001351875	
0.000300836	-0.0004390639	0.2641583	-0.06420927	-0.001482049	0.001351875	-0.3540171	0.3429467	

4.396e+10	-0.1709511	0.07704373	0.0001633161	0.0001464168	0.2624222	-0.06594025	-3.525448e-06	-0.0005372084	
0.0001633161	0.0001464168	-0.1694363	0.07764556	0.0002449459	-0.0007138019	0.2627021	-0.06630312	
0.2624222	-0.06594025	0.0002449459	-0.0007138019	-0.3484861	0.3395987	-0.0004744534	0.001997732	
-3.525448e-06	-0.0005372084	0.2627021	-0.06630312	-0.0004744534	0.001997732	-0.348805	0.3405034	

4.398e+10	-0.173826	0.07688393	0.0002070354	2.51721e-05	0.2611089	-0.06744957	-0.0003080572	-0.0004430712	
0.0002070354	2.51721e-05	-0.1722336	0.07650331	-0.0002066376	-0.0007292699	0.2611381	-0.06789486	
0.2611089	-0.06744957	-0.0002066376	-0.0007292699	-0.3459573	0.335256	0.000761859	0.001959826	
-0.0003080572	-0.0004430712	0.2611381	-0.06789486	0.000761859	0.001959826	-0.3456871	0.336166	

4.4e+10	-0.1757566	0.07803145	0.0001745002	-8.876655e-05	0.2599207	-0.06863519	-0.0005056892	-0.000196347	
0.0001745002	-8.876655e-05	-0.1746823	0.07682566	-0.0005858677	-0.0004857062	0.2597183	-0.06900864	
0.2599207	-0.06863519	-0.0005858677	-0.0004857062	-0.3459978	0.3308738	0.001783845	0.001197835	
-0.0005056892	-0.000196347	0.2597183	-0.06900864	0.001783845	0.001197835	-0.3452537	0.3314336	

4.402e+10	-0.1762328	0.07968328	9.340401e-05	-0.0001579376	0.2590249	-0.06958966	-0.0005356625	0.0001180671	
9.340401e-05	-0.0001579376	-0.1760262	0.07811434	-0.0007623792	-7.166333e-05	0.2586622	-0.06978273	
0.2590249	-0.06958966	-0.0007623792	-7.166333e-05	-0.3482873	0.3278652	0.002186781	-4.281686e-05	
-0.0005356625	0.0001180671	0.2586622	-0.06978273	0.002186781	-4.281686e-05	-0.3473637	0.3279118	

4.404e+10	-0.1752152	0.08092367	-1.144809e-06	-0.0001744462	0.2585111	-0.07049275	-0.0003885139	0.0004025991	
-1.144809e-06	-0.0001744462	-0.1759	0.07956978	-0.0006778933	0.000372675	0.258108	-0.07045059	
0.2585111	-0.07049275	-0.0006778933	0.000372675	-0.3517057	0.3271685	0.001791875	-0.001305987	
-0.0003885139	0.0004025991	0.258108	-0.07045059	0.001791875	-0.001305987	-0.3509693	0.3267121	

4.406e+10	-0.1732183	0.08106768	-8.676068e-05	-0.0001468212	0.2583786	-0.07161588	-0.0001011041	0.0005658789	
-8.676068e-05	-0.0001468212	-0.1745377	0.08031526	-0.0003560023	0.0006992971	0.2580669	-0.07135492	
0.2583786	-0.07161588	-0.0003560023	0.0006992971	-0.3546414	0.3290921	0.0007345384	-0.00211847	
-0.0001011041	0.0005658789	0.2580669	-0.07135492	0.0007345384	-0.00211847	-0.3543283	0.3283414	

4.408e+10	-0.1710523	0.07972667	-0.0001503557	-8.324067e-05	0.2583998	-0.07313439	0.0002422173	0.0005410022	
-0.0001503557	-8.324067e-05	-0.1725176	0.07982399	0.0001023178	0.0007918066	0.2583003	-0.07275089	
0.2583998	-0.07313439	0.0001023178	0.0007918066	-0.3558078	0.3328426	-0.0006023875	-0.002186954	
0.0002422173	0.0005410022	0.2583003	-0.07275089	-0.0006023875	-0.002186954	-0.3559144	0.3321279	

4.41e+10	-0.1694978	0.07710172	-0.0001766893	7.992514e-06	0.2583111	-0.07507566	0.0005227002	0.0003168578	
-0.0001766893	7.992514e-06	-0.1706454	0.07798349	0.0005429291	0.0006058272	0.2584388	-0.07470694	
0.2583111	-0.07507566	0.0005429291	0.0006058272	-0.3546026	0.3370939	-0.001756685	-0.00148925	
0.0005227002	0.0003168578	0.2584388	-0.07470694	-0.001756685	-0.00148925	-0.3550802	0.3366054	

4.412e+10	-0.1691333	0.07371683	-0.0001490647	0.0001066018	0.2578961	-0.07729406	0.0006272926	-4.159325e-05	
-0.0001490647	0.0001066018	-0.1695929	0.07508242	0.0008062868	0.0001927242	0.2582014	-0.07707623	
0.2578961	-0.07729406	0.0008062868	0.0001927242	-0.3511526	0.3405283	-0.002338446	-0.0002474313	
0.0006272926	-4.159325e-05	0.2582014	-0.07707623	-0.002338446	-0.0002474313	-0.3517606	0.3404038	

4.414e+10	-0.1702061	0.07029295	-6.490686e-05	0.0001769834	0.2570807	-0.07952568	0.0004995795	-0.0004053317	
-6.490686e-05	0.0001769834	-0.1698363	0.07167183	0.0007851382	-0.0003076449	0.2574347	-0.07953181	
0.2570807	-0.07952568	0.0007851382	-0.0003076449	-0.3463016	0.3420964	-0.002127057	0.001145302	
0.0004995795	-0.0004053317	0.2574347	-0.07953181	-0.002127057	0.001145302	-0.3468722	0.3423013	

4.416e+10	-0.1725035	0.06763813	4.914974e-05	0.0001843299	0.2559624	-0.08158467	0.0001758323	-0.0006299302	
4.914974e-05	0.0001843299	-0.1714263	0.06856564	0.0004748737	-0.0007116125	0.2562316	-0.08179366	
0.2559624	-0.08158467	0.0004748737	-0.0007116125	-0.341275	0.3413942	-0.001135468	0.002219855	
0.0001758323	-0.0006299302	0.2562316	-0.08179366	-0.001135468	0.002219855	-0.3416568	0.3417761	

4.418e+10	-0.1754425	0.06629421	0.0001452183	0.0001212621	0.2546793	-0.08340932	-0.0002217201	-0.0006226623	
0.0001452183	0.0001212621	-0.174033	0.06645672	-1.648846e-05	-0.0008650229	0.2547715	-0.0837055	
0.2546793	-0.08340932	-1.648846e-05	-0.0008650229	-0.3372884	0.3387042	0.0003529262	0.002554536	
-0.0002217201	-0.0006226623	0.2547715	-0.0837055	0.0003529262	0.002554536	-0.3373649	0.339136	

4.42e+10	-0.1781872	0.06640887	0.0001833579	1.66246e-05	0.2533423	-0.08496386	-0.0005416761	-0.0003870875	
0.0001833579	1.66246e-05	-0.1769631	0.06574166	-0.0005096681	-0.0007098009	0.2532627	-0.08523231	
0.2533423	-0.08496386	-0.0005096681	-0.0007098009	-0.3352964	0.3348285	0.001823645	0.001944567	
-0.0005416761	-0.0003870875	0.2532627	-0.08523231	0.001823645	0.001944567	-0.3350889	0.3352059	

4.422e+10	-0.1799269	0.06766592	0.0001560984	-8.413818e-05	0.2520681	-0.08626288	-0.0006717893	-1.32509e-05	
0.0001560984	-8.413818e-05	-0.1793365	0.06644535	-0.0008312709	-0.0003025579	0.2518694	-0.086411	
0.2520681	-0.08626288	-0.0008312709	-0.0003025579	-0.3354544	0.3311496	0.002695524	0.0005375426	
-0.0006717893	-1.32509e-05	0.2518694	-0.086411	0.002695524	0.0005375426	-0.3351662	0.3313274	

4.424e+10	-0.180265	0.06919727	8.462567e-05	-0.0001491438	0.2509784	-0.08733608	-0.0005723342	0.0003722465	
8.462567e-05	-0.0001491438	-0.1804767	0.06790863	-0.0008733241	0.0002204985	0.2507621	-0.08734913	
0.2509784	-0.08733608	-0.0008733241	0.0002204985	-0.3374427	0.3287221	0.002570472	-0.001167533	
-0.0005723342	0.0003722465	0.2507621	-0.08734913	0.002570472	-0.001167533	-0.337156	0.328787	

4.426e+10	-0.1792469	0.07024608	-4.370465e-06	-0.0001690435	0.2501817	-0.08830909	-0.0002704221	0.0006455152	
-4.370465e-06	-0.0001690435	-0.1801299	0.06932582	-0.0006125419	0.0006906506	0.2500134	-0.0882153	
0.2501817	-0.08830909	-0.0006125419	0.0006906506	-0.3402257	0.3283227	0.001438194	-0.002506154	
-0.0002704221	0.0006455152	0.2500134	-0.0882153	0.001438194	-0.002506154	-0.3400032	0.3283372	

4.428e+10	-0.1774259	0.07017624	-9.190948e-05	-0.0001449939	0.2497203	-0.08939807	0.0001482463	0.0007070253	
-9.190948e-05	-0.0001449939	-0.1786289	0.06993196	-0.0001163627	0.0009438844	0.2496385	-0.08924098	
0.2497203	-0.08939807	-0.0001163627	0.0009438844	-0.342435	0.3301086	-0.0002968858	-0.002935525	
0.0001482463	0.0007070253	0.2496385	-0.08924098	-0.0002968858	-0.002935525	-0.3422838	0.3300781	

4.43e+10	-0.1756079	0.06867859	-0.0001607562	-7.781646e-05	0.2494524	-0.09078831	0.0005461098	0.0005103973	
-0.0001607562	-7.781646e-05	-0.1766761	0.06913193	0.0004592827	0.0008675806	0.249467	-0.09063097	
0.2494524	-0.09078831	0.0004592827	0.0008675806	-0.3430872	0.3332884	-0.001987004	-0.002264149	
0.0005461098	0.0005103973	0.249467	-0.09063097	-0.001987004	-0.002264149	-0.342849	0.3332897	

4.432e+10	-0.1744588	0.06609654	-0.0001859597	2.444904e-05	0.2491418	-0.09253129	0.0007651255	0.000100133	
-0.0001859597	2.444904e-05	-0.1750769	0.06703048	0.0009030323	0.0004565898	0.2492307	-0.09243561	
0.2491418	-0.09253129	0.0009030323	0.0004565898	-0.3416818	0.3368264	-0.002999063	-0.0007106067	
0.0007651255	0.000100133	0.2492307	-0.09243561	-0.002999063	-0.0007106067	-0.3414307	0.3366964	

4.434e+10	-0.1744926	0.06289002	-0.0001450636	0.0001315818	0.2486229	-0.09453735	0.0006962493	-0.0003783315	
-0.0001450636	0.0001315818	-0.1744878	0.06395709	0.001027367	-0.0001576993	0.2487269	-0.09451725	
0.2486229	-0.09453735	0.001027367	-0.0001576993	-0.3386008	0.3394292	-0.002931952	0.00118935	
0.0006962493	-0.0003783315	0.2487269	-0.09451725	-0.002931952	0.00118935	-0.3383987	0.3391082	

4.436e+10	-0.1758525	0.05976234	-4.204589e-05	0.0001964611	0.2477935	-0.09663555	0.0003448353	-0.0007296036	
-4.204589e-05	0.0001964611	-0.1752419	0.0606487	0.000759017	-0.0007436478	0.2478536	-0.09667397	
0.2477935	-0.09663555	0.000759017	-0.0007436478	-0.3344846	0.3404928	-0.001744499	0.002753137	
0.0003448353	-0.0007296036	0.2478536	-0.09667397	-0.001744499	0.002753137	-0.3344034	0.3400538	

4.438e+10	-0.1782733	0.05747763	8.160807e-05	0.0001838298	0.2466715	-0.09868653	-0.0001528563	-0.0007997839	
8.160807e-05	0.0001838298	-0.177311	0.05785143	0.0001862696	-0.001064425	0.246678	-0.0987241	
0.2466715	-0.09868653	0.0001862696	-0.001064425	-0.3303063	0.3397801	0.0002008796	0.003359399	
-0.0001528563	-0.0007997839	0.246678	-0.0987241	0.0002008796	0.003359399	-0.3305154	0.3392836	

4.44e+10	-0.1811751	0.05646445	0.0001692932	9.999614e-05	0.2453224	-0.100579	-0.000592511	-0.0005605057	
0.0001692932	9.999614e-05	-0.1802103	0.05623279	-0.0004720564	-0.0009883546	0.2453096	-0.1005838	
0.2453224	-0.100579	-0.0004720564	-0.0009883546	-0.3270651	0.337505	0.00221135	0.00268344	
-0.000592511	-0.0005605057	0.2453096	-0.1005838	0.00221135	0.00268344	-0.3276406	0.3371556	

4.442e+10	-0.183797	0.0567541	0.000188719	-1.199721e-05	0.2438186	-0.1022216	-0.0008067463	-0.0001163976	
0.000188719	-1.199721e-05	-0.1831704	0.05603577	-0.0009684481	-0.0005430233	0.2438347	-0.1021833	
0.2438186	-0.1022216	-0.0009684481	-0.0005430233	-0.3252694	0.3344818	0.003480025	0.0008772864	
-0.0008067463	-0.0001163976	0.2438347	-0.1021833	0.003480025	0.0008772864	-0.3261175	0.3345353	

4.444e+10	-0.1854202	0.05800057	0.0001469773	-0.0001069656	0.2423025	-0.1035458	-0.00073303	0.0003643578	
0.0001469773	-0.0001069656	-0.1853271	0.05712029	-0.001124432	0.0001120351	0.2423702	-0.1035147	
0.2423025	-0.1035458	-0.001124432	0.0001120351	-0.3251692	0.3315885	0.003414555	-0.001411772	
-0.00073303	0.0003643578	0.2423702	-0.1035147	0.003414555	-0.001411772	-0.3259924	0.3321958	

4.446e+10	-0.1857068	0.05948095	7.029606e-05	-0.000164195	0.2409334	-0.1045759	-0.0004056504	0.000725826	
7.029606e-05	-0.000164195	-0.1861164	0.05875372	-0.0008775964	0.0007545855	0.2410471	-0.1046152	
0.2409334	-0.1045759	-0.0008775964	0.0007545855	-0.3265631	0.3295404	0.001936476	-0.003258287	
-0.0004056504	0.000725826	0.2410471	-0.1046152	0.001936476	-0.003258287	-0.3269054	0.330693	

4.448e+10	-0.1848098	0.06036946	-2.255142e-05	-0.000180668	0.2399052	-0.1054559	8.034844e-05	0.000850473	
-2.255142e-05	-0.000180668	-0.18552	0.06002861	-0.0002890249	0.001156635	0.2399892	-0.1055878	
0.2399052	-0.1054559	-0.0002890249	0.001156635	-0.3283956	0.329199	-0.0004177272	-0.003848999	
8.034844e-05	0.000850473	0.2399892	-0.1055878	-0.0004177272	-0.003848999	-0.3280271	0.3304405	

4.45e+10	-0.1832241	0.06013474	-0.0001193363	-0.000150511	0.2392363	-0.1063998	0.000575257	0.0006714959	
-0.0001193363	-0.000150511	-0.1839398	0.06026296	0.0004547515	0.00114274	0.2392168	-0.1065912	
0.2392363	-0.1063998	0.0004547515	0.00114274	-0.3299823	0.3303281	-0.002693149	-0.002873938	
0.000575257	0.0006714959	0.2392168	-0.1065912	-0.002693149	-0.002873938	-0.328795	0.3312141	

4.452e+10	-0.1816982	0.05865189	-0.0001950473	-6.495922e-05	0.2388063	-0.1076295	0.0008896992	0.0002138114	
-0.0001950473	-6.495922e-05	-0.182186	0.05912552	0.001071339	0.0006726493	0.238656	-0.1077924	
0.2388063	-0.1076295	0.001071339	0.0006726493	-0.3304188	0.3326175	-0.00393351	-0.0006907528	
0.0008896992	0.0002138114	0.238656	-0.1077924	-0.00393351	-0.0006907528	-0.3288247	0.3326345	

4.454e+10	-0.1808808	0.05616497	-0.0002096901	6.223248e-05	0.238431	-0.1092529	0.0008667975	-0.000367077	
-0.0002096901	6.223248e-05	-0.1810095	0.05675963	0.00128959	-9.789507e-05	0.2381739	-0.109286	
0.238431	-0.1092529	0.00128959	-9.789507e-05	-0.3295069	0.3351916	-0.003604265	0.001826176	
0.0008667975	-0.000367077	0.2381739	-0.109286	-0.003604265	0.001826176	-0.3280679	0.3341941	

4.456e+10	-0.1812036	0.05319369	-0.000138428	0.0001813185	0.2378328	-0.1112117	0.0004835845	-0.0008282857	
-0.000138428	0.0001813185	-0.1809875	0.05371403	0.0009918609	-0.0008591163	0.2375889	-0.1110724	
0.2378328	-0.1112117	0.0009918609	-0.0008591163	-0.3271968	0.3374052	-0.001814613	0.00365872	
0.0004835845	-0.0008282857	0.2375889	-0.1110724	-0.001814613	0.00365872	-0.3265787	0.3355938	

4.458e+10	-0.1827363	0.05040261	-3.61093e-06	0.0002319219	0.2368885	-0.1133252	-0.0001094326	-0.0009606269	
-3.61093e-06	0.0002319219	-0.1823213	0.05066499	0.0002901842	-0.001290169	0.2367679	-0.1130441	
0.2368885	-0.1133252	0.0002901842	-0.001290169	-0.3239248	0.3386128	0.0007407173	0.004060594	
-0.0001094326	-0.0009606269	0.2367679	-0.1130441	0.0007407173	0.004060594	-0.324487	0.3366034	

4.46e+10	-0.1852439	0.04839054	0.0001324196	0.0001883372	0.2355766	-0.1153925	-0.0006585154	-0.000706913	
0.0001324196	0.0001883372	-0.1847832	0.04837356	-0.0005280514	-0.001216757	0.2356525	-0.115078	
0.2355766	-0.1153925	-0.0005280514	-0.001216757	-0.3203009	0.338472	0.003054918	0.002842782	
-0.0006585154	-0.000706913	0.2356525	-0.115078	0.003054918	0.002842782	-0.321996	0.3370673	

4.462e+10	-0.1881209	0.0476019	0.0002113099	7.716956e-05	0.2339736	-0.1172316	-0.0009431947	-0.0001847056	
0.0002113099	7.716956e-05	-0.1877842	0.04734237	-0.001141848	-0.0006804081	0.234224	-0.1169993	
0.2339736	-0.1172316	-0.001141848	-0.0006804081	-0.31719	0.3368294	0.004195314	0.0004520678	
-0.0009431947	-0.0001847056	0.234224	-0.1169993	0.004195314	0.0004520678	-0.3195067	0.3366898	

4.464e+10	-0.1906724	0.04803515	0.0002139959	-5.008985e-05	0.2322466	-0.1187392	-0.0008734939	0.0003942141	
0.0002139959	-5.008985e-05	-0.1905439	0.0476846	-0.001332101	0.0001083484	0.2325981	-0.1186886	
0.2322466	-0.1187392	-0.001332101	0.0001083484	-0.3150581	0.3343315	0.003664996	-0.002180704	
-0.0008734939	0.0003942141	0.2325981	-0.1186886	0.003664996	-0.002180704	-0.3171867	0.3356502	

4.466e+10	-0.1922616	0.04929286	0.000154356	-0.00015448	0.2305755	-0.1199073	-0.0004918652	0.0008277371	
0.000154356	-0.00015448	-0.1923388	0.0489908	-0.001036678	0.000868028	0.2309079	-0.1200699	
0.2305755	-0.1199073	-0.001036678	0.000868028	-0.3145133	0.3315437	0.001628079	-0.003984515	
-0.0004918652	0.0008277371	0.2309079	-0.1200699	0.001628079	-0.003984515	-0.3155075	0.33399	

4.468e+10	-0.1925783	0.05073759	5.267689e-05	-0.0002177901	0.2291263	-0.1207995	7.283204e-05	0.0009756955	
5.267689e-05	-0.0002177901	-0.1927853	0.05054031	-0.0003473068	0.001332378	0.2293235	-0.1211542	
0.2291263	-0.1207995	-0.0003473068	0.001332378	-0.3153438	0.3294124	-0.001114836	-0.00418692	
7.283204e-05	0.0009756955	0.2293235	-0.1211542	-0.001114836	-0.00418692	-0.3146256	0.3321262	

4.47e+10	-0.1917693	0.05159972	-7.550314e-05	-0.0002244827	0.2280296	-0.1216082	0.0006403743	0.0007719649	
-7.550314e-05	-0.0002244827	-0.1919894	0.05155117	0.0005087142	0.001311815	0.2279815	-0.1220378	
0.2280296	-0.1216082	0.0005087142	0.001311815	-0.3169516	0.3286719	-0.003430141	-0.002669331	
0.0006403743	0.0007719649	0.2279815	-0.1220378	-0.003430141	-0.002669331	-0.3147148	0.3304831	

4.472e+10	-0.1903622	0.05136367	-0.0002011604	-0.0001550822	0.2272709	-0.1225365	0.0009992498	0.000254297	
-0.0002011604	-0.0001550822	-0.1904988	0.05147185	0.001210234	0.0007736791	0.2269533	-0.1228719	
0.2272709	-0.1225365	0.001210234	0.0007736791	-0.3185573	0.3294151	-0.004343257	-5.458185e-05	
0.0009992498	0.000254297	0.2269533	-0.1228719	-0.004343257	-5.458185e-05	-0.3155603	0.3295235	

4.474e+10	-0.1890526	0.04994986	-0.0002710527	-1.060231e-05	0.2267097	-0.1238013	0.0009763603	-0.0004017889	
-0.0002710527	-1.060231e-05	-0.1891038	0.05006932	0.001456102	-9.953262e-05	0.2262424	-0.1238846	
0.2267097	-0.1238013	0.001456102	-9.953262e-05	-0.3193002	0.3313388	-0.003485301	0.002563956	
0.0009763603	-0.0004017889	0.2262424	-0.1238846	-0.003485301	0.002563956	-0.3166664	0.3296404	

4.476e+10	-0.1884934	0.04755617	-0.0002358178	0.0001605626	0.2260826	-0.1254383	0.0005461564	-0.0009230219	
-0.0002358178	0.0001605626	-0.1884768	0.04762197	0.00112084	-0.0009575924	0.2256585	-0.1252133	
0.2260826	-0.1254383	0.00112084	-0.0009575924	-0.3185678	0.3338284	-0.001242006	0.004118918	
0.0005461564	-0.0009230219	0.2256585	-0.1252133	-0.001242006	0.004118918	-0.3173985	0.3308645	

4.478e+10	-0.1890341	0.04475545	-9.483681e-05	0.0002782629	0.2251986	-0.1273438	-0.0001224723	-0.001072429	
-9.483681e-05	0.0002782629	-0.1890244	0.04475315	0.0003325283	-0.001442981	0.2249966	-0.1269084	
0.2251986	-0.1273438	0.0003325283	-0.001442981	-0.3163224	0.3360255	0.001459555	0.004020571	
-0.0001224723	-0.001072429	0.2249966	-0.1269084	0.001459555	0.004020571	-0.3171895	0.332849	

4.48e+10	-0.1907318	0.04217945	9.155802e-05	0.0002825247	0.2239523	-0.1292833	-0.0007412202	-0.0007810831	
9.155802e-05	0.0002825247	-0.1907611	0.04218593	-0.0005868715	-0.001361392	0.2240344	-0.1288203	
0.2239523	-0.1292833	-0.0005868715	-0.001361392	-0.3131136	0.3370683	0.003553562	0.002346704	
-0.0007412202	-0.0007810831	0.2240344	-0.1288203	0.003553562	0.002346704	-0.3157475	0.334946	

4.482e+10	-0.193329	0.04042376	0.0002394194	0.0001736102	0.2224216	-0.1310739	-0.001052028	-0.0001828515	
0.0002394194	0.0001736102	-0.1934074	0.04044013	-0.001275821	-0.0007560221	0.2227467	-0.1307579	
0.2224216	-0.1310739	-0.001275821	-0.0007560221	-0.3096889	0.3366662	0.004242007	-0.0002329839	
-0.001052028	-0.0001828515	0.2227467	-0.1307579	0.004242007	-0.0002329839	-0.3131939	0.3364475	

4.484e+10	-0.1962438	0.03985493	0.0002929474	4.371902e-06	0.2207556	-0.1326223	-0.0009473408	0.0004688223	
0.0002929474	4.371902e-06	-0.1963013	0.03997364	-0.001480652	0.0001339682	0.2211843	-0.1325492	
0.2207556	-0.1326223	-0.001480652	0.0001339682	-0.3070061	0.334921	0.003261967	-0.002717479	
-0.0009473408	0.0004688223	0.2211843	-0.1325492	0.003261967	-0.002717479	-0.3099779	0.3368623	

4.486e+10	-0.1987903	0.04048047	0.0002444549	-0.0001601985	0.2190837	-0.133934	-0.0004914629	0.0009274289	
0.0002444549	-0.0001601985	-0.1987815	0.04062325	-0.001132253	0.0009797507	0.2194724	-0.1341033	
0.2190837	-0.133934	-0.001132253	0.0009797507	-0.3055166	0.3325962	0.0009869058	-0.004130125	
-0.0004914629	0.0009274289	0.2194724	-0.1341033	0.0009869058	-0.004130125	-0.3068076	0.3359972	

4.488e+10	-0.2003375	0.04188917	0.000116985	-0.0002726309	0.2175038	-0.1350684	0.0001392674	0.001041127	
0.000116985	-0.0002726309	-0.2002299	0.0420126	-0.0003494817	0.001474962	0.2177406	-0.1354262	
0.2175038	-0.1350684	-0.0003494817	0.001474962	-0.3052975	0.3305003	-0.00169165	-0.003894244	
0.0001392674	0.001041127	0.2177406	-0.1354262	-0.00169165	-0.003894244	-0.3043093	0.33408	

4.49e+10	-0.2006266	0.04341366	-5.604824e-05	-0.000302115	0.2160551	-0.1360835	0.0007266062	0.0007720541	
-5.604824e-05	-0.000302115	-0.2004257	0.04344344	0.0005953534	0.001420591	0.2160522	-0.1365192	
0.2160551	-0.1360835	0.0005953534	0.001420591	-0.3059938	0.3291734	-0.003690791	-0.002085599	
0.0007266062	0.0007720541	0.2160522	-0.1365192	-0.003690791	-0.002085599	-0.3030433	0.331526	

4.492e+10	-0.1998458	0.04426815	-0.0002290721	-0.0002277168	0.2147801	-0.1370673	0.001058398	0.0001987623	
-0.0002290721	-0.0002277168	-0.1996114	0.04421624	0.001345305	0.0008021536	0.2145237	-0.1374312	
0.2147801	-0.1370673	0.001345305	0.0008021536	-0.3068817	0.3289752	-0.004184328	0.000566487	
0.001058398	0.0001987623	0.2145237	-0.1374312	-0.004184328	0.000566487	-0.3030777	0.3291331	

4.494e+10	-0.1985493	0.04401732	-0.0003363536	-5.291217e-05	0.2136643	-0.1381199	0.0009831851	-0.0004809129	
-0.0003363536	-5.291217e-05	-0.1983652	0.04383123	0.001579415	-0.0001668198	0.2132387	-0.138262	
0.2136643	-0.1381199	0.001579415	-0.0001668198	-0.3073669	0.329726	-0.002968073	0.002961863	
0.0009831851	-0.0004809129	0.2132387	-0.138262	-0.002968073	0.002961863	-0.3042591	0.3275364	

4.496e+10	-0.1974138	0.04261025	-0.0003140741	0.0001672071	0.2126121	-0.139315	0.0004968678	-0.0009885562	
-0.0003140741	0.0001672071	-0.1973558	0.04230941	0.0011691	-0.001094828	0.2121976	-0.1391811	
0.2126121	-0.139315	0.0011691	-0.001094828	-0.3071586	0.3308893	-0.0005649616	0.004112576	
0.0004968678	-0.0009885562	0.2121976	-0.1391811	-0.0005649616	0.004112576	-0.3058646	0.3273117	

4.498e+10	-0.1970502	0.04030525	-0.0001507342	0.000333684	0.2115536	-0.1406464	-0.0002096501	-0.001088698	
-0.0001507342	0.000333684	-0.197179	0.03997319	0.0002699056	-0.001581839	0.2113121	-0.1403051	
0.2115536	-0.1406464	0.0002699056	-0.001581839	-0.3061238	0.3320919	0.00201042	0.003572001	
-0.0002096501	-0.001088698	0.2113121	-0.1403051	0.00201042	0.003572001	-0.3072246	0.3284222	

4.5e+10	-0.1977967	0.03766019	8.659774e-05	0.0003596821	0.2104199	-0.142069	-0.0008240664	-0.0007272795	
8.659774e-05	0.0003596821	-0.1981046	0.03743225	-0.0007365449	-0.001417909	0.2104207	-0.1416742	
0.2104199	-0.142069	-0.0007365449	-0.001417909	-0.3045737	0.3328501	0.003704619	0.001610891	
-0.0008240664	-0.0007272795	0.2104207	-0.1416742	0.003704619	0.001610891	-0.3076035	0.3305578	

4.502e+10	-0.1997166	0.0352873	0.000286214	0.0002307395	0.2092019	-0.1435387	-0.00107645	-7.414002e-05	
0.000286214	0.0002307395	-0.2001031	0.03528357	-0.00142793	-0.0006835365	0.2094078	-0.1432557	
0.2092019	-0.1435387	-0.00142793	-0.0006835365	-0.302874	0.3330877	0.00386486	-0.0009330804	
-0.00107645	-7.414002e-05	0.2094078	-0.1432557	0.00386486	-0.0009330804	-0.3066475	0.3330098	

4.504e+10	-0.2024568	0.033807	0.0003606437	1.220009e-05	0.2079142	-0.1450483	-0.0008801923	0.0005748853	
0.0003606437	1.220009e-05	-0.202802	0.03404658	-0.001534727	0.0003022144	0.2082086	-0.1449406	
0.2079142	-0.1450483	-0.001534727	0.0003022144	-0.3012228	0.3330192	0.002481975	-0.003020853	
-0.0008801923	0.0005748853	0.2082086	-0.1449406	0.002481975	-0.003020853	-0.3042951	0.3351203	

4.506e+10	-0.2054159	0.03356452	0.0002918401	-0.0001979325	0.2065135	-0.1466042	-0.0003544926	0.0009578041	
0.0002918401	-0.0001979325	-0.2055938	0.0339621	-0.001041469	0.001141754	0.206789	-0.1466479	
0.2065135	-0.1466042	-0.001041469	0.001141754	-0.2998064	0.3327351	0.0001620463	-0.003839082	
-0.0003544926	0.0009578041	0.206789	-0.1466479	0.0001620463	-0.003839082	-0.3009355	0.3362236	

4.508e+10	-0.2079042	0.0344556	0.0001216945	-0.0003241063	0.2049394	-0.1481661	0.0002697029	0.0009575735	
0.0001216945	-0.0003241063	-0.2078316	0.03489096	-0.0001610755	0.001521799	0.2051501	-0.1483184	
0.2049394	-0.1481661	-0.0001610755	0.001521799	-0.2982874	0.3324468	-0.002141983	-0.003108462	
0.0002697029	0.0009575735	0.2051501	-0.1483184	-0.002141983	-0.003108462	-0.2972371	0.3358473	

4.51e+10	-0.2093554	0.03601146	-8.469059e-05	-0.0003332262	0.2031744	-0.149618	0.0007637637	0.0006077645	
-8.469059e-05	-0.0003332262	-0.2090297	0.03636875	0.0007667582	0.001312202	0.203281	-0.1498443	
0.2031744	-0.149618	0.0007667582	0.001312202	-0.2968115	0.331849	-0.003517782	-0.001169529	
0.0007637637	0.0006077645	0.203281	-0.1498443	-0.003517782	-0.001169529	-0.294011	0.3339598	

4.512e+10	-0.2095648	0.03759339	-0.0002619976	-0.0002260705	0.201279	-0.1508446	0.0009646771	4.508298e-05	
-0.0002619976	-0.0002260705	-0.2090726	0.03773113	0.001390163	0.0005956522	0.2012566	-0.1510912	
0.201279	-0.1508446	0.001390163	0.0005956522	-0.2953007	0.3309728	-0.003443905	0.001168378	
0.0009646771	4.508298e-05	0.2012566	-0.1510912	-0.003443905	0.001168378	-0.291941	0.3310256	

4.514e+10	-0.2087559	0.03846455	-0.0003500876	-3.192208e-05	0.199396	-0.1517616	0.0008003859	-0.000531453	
-0.0003500876	-3.192208e-05	-0.2082579	0.03829763	0.001462187	-0.0003538754	0.1992555	-0.1519625	
0.199396	-0.1517616	0.001462187	-0.0003538754	-0.2943106	0.3296314	-0.001989708	0.002950975	
0.0008003859	-0.000531453	0.1992555	-0.1519625	-0.001989708	0.002950975	-0.2916078	0.3277538	

4.516e+10	-0.2074873	0.03823079	-0.0003053518	0.0001850733	0.1977206	-0.1524194	0.0003200099	-0.0008995865	
-0.0003053518	0.0001850733	-0.2071339	0.03782937	0.0009443904	-0.001152875	0.1975085	-0.1525143	
0.1977206	-0.1524194	0.0009443904	-0.001152875	-0.294058	0.3281937	0.0002041875	0.003462384	
0.0003200099	-0.0008995865	0.1975085	-0.1525143	0.0002041875	0.003462384	-0.2929786	0.3251574	

4.518e+10	-0.2064833	0.03681746	-0.000132296	0.0003339712	0.1964023	-0.1529942	-0.0002869982	-0.0008971212	
-0.000132296	0.0003339712	-0.2064017	0.03624563	5.370502e-05	-0.001464616	0.196183	-0.1529664	
0.1964023	-0.1529942	5.370502e-05	-0.001464616	-0.2946485	0.3271255	0.002193824	0.002545339	
-0.0002869982	-0.0008971212	0.196183	-0.1529664	0.002193824	0.002545339	-0.2953962	0.3241813	

4.52e+10	-0.2063408	0.03452961	9.757524e-05	0.0003422005	0.1954277	-0.1537201	-0.0007546846	-0.0005231532	
9.757524e-05	0.0003422005	-0.2065943	0.03397923	-0.0008210959	-0.001170037	0.1952651	-0.1536033	
0.1954277	-0.1537201	-0.0008210959	-0.001170037	-0.295608	0.327041	0.003164378	0.000672263	
-0.0007546846	-0.0005231532	0.1952651	-0.1536033	0.003164378	0.000672263	-0.297915	0.3251172	

4.522e+10	-0.207381	0.03203016	0.0002779024	0.0002068932	0.1946665	-0.1548115	-0.0008830503	4.118022e-05	
0.0002779024	0.0002068932	-0.2079123	0.03166652	-0.001315433	-0.0004289337	0.1945688	-0.1546451	
0.1946665	-0.1548115	-0.001315433	-0.0004289337	-0.2963786	0.3281238	0.002807814	-0.001307933	
-0.0008830503	4.118022e-05	0.1945688	-0.1546451	0.002807814	-0.001307933	-0.2992724	0.3278599	

4.524e+10	-0.2095328	0.02993287	0.000332449	-8.342606e-07	0.1938203	-0.1563319	-0.0006492469	0.0005363407	
0.000332449	-8.342606e-07	-0.2101867	0.02995143	-0.00126562	0.0004200345	0.1937959	-0.1561391	
0.1938203	-0.1563319	-0.00126562	0.0004200345	-0.2963524	0.3300583	0.001408878	-0.002600132	
-0.0006492469	0.0005363407	0.1937959	-0.1561391	0.001408878	-0.002600132	-0.2987263	0.33142	

4.526e+10	-0.2124022	0.02883116	0.0002558025	-0.0001861927	0.1926453	-0.1581562	-0.000195959	0.0007732873	
0.0002558025	-0.0001861927	-0.2129859	0.02921331	-0.0007492528	0.001043464	0.1927048	-0.1579574	
0.1926453	-0.1581562	-0.0007492528	0.001043464	-0.2949758	0.3322392	-0.000380073	-0.002798206	
-0.000195959	0.0007732873	0.1927048	-0.1579574	-0.000380073	-0.002798206	-0.296052	0.3346259	

4.528e+10	-0.2153411	0.02896219	9.850835e-05	-0.0002846358	0.1910129	-0.160046	0.0002738664	0.0007046833	
9.850835e-05	-0.0002846358	-0.2156259	0.02961376	-2.643526e-06	0.001241497	0.1911789	-0.1598788	
0.1910129	-0.160046	-2.643526e-06	0.001241497	-0.2921759	0.3338674	-0.001864938	-0.001958378	
0.0002738664	0.0007046833	0.1911789	-0.1598788	-0.001864938	-0.001958378	-0.2917648	0.3363477	

4.53e+10	-0.2177047	0.03013157	-7.442966e-05	-0.0002797272	0.18896	-0.1617582	0.0005986719	0.000402397	
-7.442966e-05	-0.0002797272	-0.2175586	0.0308857	0.0006956134	0.0009852914	0.1892151	-0.1616907	
0.18896	-0.1617582	0.0006956134	0.0009852914	-0.2886018	0.3341126	-0.00255586	-0.0004824728	
0.0005986719	0.000402397	0.1892151	-0.1616907	-0.00255586	-0.0004824728	-0.2869718	0.3358821	

4.532e+10	-0.2189635	0.03186527	-0.0002115596	-0.0001873038	0.1866455	-0.1630738	0.000695415	-7.911785e-06	
-0.0002115596	-0.0001873038	-0.218413	0.03244721	0.001111079	0.0003919922	0.1869172	-0.1631732	
0.1866455	-0.1630738	0.001111079	0.0003919922	-0.2850982	0.3327473	-0.002276274	0.001062412	
0.000695415	-7.911785e-06	0.1869172	-0.1631732	-0.002276274	0.001062412	-0.2829316	0.3332676	

4.534e+10	-0.2190008	0.03351183	-0.0002777232	-3.769773e-05	0.1842986	-0.1639215	0.0005526721	-0.0003918497	
-0.0002777232	-3.769773e-05	-0.2182185	0.03366502	0.0011097	-0.0003202984	0.1844809	-0.1641529	
0.1842986	-0.1639215	0.0011097	-0.0003202984	-0.2827874	0.3299338	-0.001182847	0.002124283	
0.0005526721	-0.0003918497	0.1844809	-0.1641529	-0.001182847	0.002124283	-0.280754	0.3291857	

4.536e+10	-0.2181078	0.03431078	-0.0002506009	0.0001262584	0.1821856	-0.1643172	0.0002219882	-0.0006257296	
-0.0002506009	0.0001262584	-0.2173571	0.03399835	0.0006987791	-0.0008908337	0.1822111	-0.1646172	
0.1821856	-0.1643172	0.0006987791	-0.0008908337	-0.2821565	0.3266509	0.0002849132	0.002334579	
0.0002219882	-0.0006257296	0.1822111	-0.1646172	0.0002849132	0.002334579	-0.2809103	0.3249788	

4.538e+10	-0.2169066	0.03396667	-0.00013163	0.000248082	0.1805454	-0.1644739	-0.0001807828	-0.0006242913	
-0.00013163	0.000248082	-0.2164471	0.03327572	4.035433e-05	-0.001105264	0.1804165	-0.1647487	
0.1805454	-0.1644739	4.035433e-05	-0.001105264	-0.2833106	0.3239652	0.001550989	0.001652849	
-0.0001807828	-0.0006242913	0.1804165	-0.1647487	0.001550989	0.001652849	-0.2832335	0.3219444	

4.54e+10	-0.2161113	0.03249087	3.871008e-05	0.0002757158	0.1794407	-0.1647039	-0.0004991301	-0.0003867466	
3.871008e-05	0.0002757158	-0.2161058	0.03164199	-0.0006001506	-0.0008904301	0.1791866	-0.1648918	
0.1794407	-0.1647039	-0.0006001506	-0.0008904301	-0.2857483	0.3227526	0.002135006	0.0003997098	
-0.0004991301	-0.0003867466	0.1791866	-0.1648918	0.002135006	0.0003997098	-0.2867181	0.3211277	

4.542e+10	-0.2162607	0.030278	0.0001894625	0.0001952032	0.1787338	-0.165353	-0.0006063146	-1.725362e-05	
0.0001894625	0.0001952032	-0.2167119	0.02957024	-0.0009726502	-0.0003555545	0.1784066	-0.1653973	
0.1787338	-0.165353	-0.0009726502	-0.0003555545	-0.288158	0.3236488	0.001868838	-0.0008885089	
-0.0006063146	-1.725362e-05	0.1784066	-0.1653973	0.001868838	-0.0008885089	-0.2898022	0.3228764	

4.544e+10	-0.2175823	0.02802734	0.0002579332	4.541003e-05	0.178085	-0.166579	-0.0004767362	0.0003238679	
0.0002579332	4.541003e-05	-0.21835	0.02770018	-0.0009576849	0.0002655895	0.1777466	-0.1664429	
0.178085	-0.166579	-0.0009576849	0.0002655895	-0.2894841	0.3262831	0.0009493033	-0.00171888	
-0.0004767362	0.0003238679	0.1777466	-0.1664429	0.0009493033	-0.00171888	-0.2912226	0.3265167	

4.546e+10	-0.2199228	0.02630206	0.0002256764	-0.0001062097	0.1771279	-0.1682939	-0.0001913886	0.0005089115	
0.0002256764	-0.0001062097	-0.2207919	0.0264451	-0.0006037561	0.0007360718	0.1768819	-0.1679721	
0.1771279	-0.1682939	-0.0006037561	0.0007360718	-0.2889997	0.329657	-0.0002050359	-0.001850677	
-0.0001913886	0.0005089115	0.1768819	-0.1679721	-0.0002050359	-0.001850677	-0.2902408	0.3307233	

4.548e+10	-0.2228116	0.02562256	0.0001202187	-0.0002036192	0.1756465	-0.1702133	0.0001220631	0.0004974017	
0.0001202187	-0.0002036192	-0.2234878	0.02621424	-7.407916e-05	0.000910381	0.1756099	-0.1697623	
0.1756465	-0.1702133	-7.407916e-05	0.000910381	-0.2863808	0.3327134	-0.001164981	-0.001333092	
0.0001220631	0.0004974017	0.1756099	-0.1697623	-0.001164981	-0.001333092	-0.2868148	0.3341602	

4.55e+10	-0.2256401	0.02614736	-1.049032e-05	-0.0002248654	0.1736357	-0.1720369	0.0003572027	0.0003281312	
-1.049032e-05	-0.0002248654	-0.2258756	0.02705399	0.0004363277	0.0007644987	0.1738761	-0.1716088	
0.1736357	-0.1720369	0.0004363277	0.0007644987	-0.282323	0.3342024	-0.001639527	-0.0004173007	
0.0003572027	0.0003281312	0.1738761	-0.1716088	-0.001639527	-0.0004173007	-0.2818967	0.3355944	

4.552e+10	-0.2277635	0.02760275	-0.0001247704	-0.0001775303	0.1712265	-0.1734947	0.0004582313	7.629855e-05	
-0.0001247704	-0.0001775303	-0.2274723	0.02849445	0.0007662418	0.0003755604	0.1717101	-0.1732696	
0.1712265	-0.1734947	0.0007662418	0.0003755604	-0.2777744	0.3336319	-0.001526275	0.0005612576	
0.0004582313	7.629855e-05	0.1717101	-0.1732696	-0.001526275	0.0005612576	-0.2767631	0.3345491	

4.554e+10	-0.2287897	0.029471	-0.0001964041	-8.248002e-05	0.1686672	-0.174471	0.0004136544	-0.0001802485	
-0.0001964041	-8.248002e-05	-0.2280568	0.03006474	0.0008241262	-0.0001167153	0.1692238	-0.1745584	
0.1686672	-0.174471	0.0008241262	-0.0001167153	-0.2739844	0.3310725	-0.0009067528	0.001283026	
0.0004136544	-0.0001802485	0.1692238	-0.1745584	-0.0009067528	0.001283026	-0.2727417	0.3313332	

4.556e+10	-0.2286378	0.0310756	-0.0002097764	3.574471e-05	0.1662068	-0.1749313	0.0002424266	-0.0003716406	
-0.0002097764	3.574471e-05	-0.2277288	0.03115448	0.0006022288	-0.0005500068	0.1666316	-0.1753416	
0.1662068	-0.1749313	0.0006022288	-0.0005500068	-0.2721005	0.3271653	-1.253885e-05	0.001522048	
0.0002424266	-0.0003716406	0.1666316	-0.1753416	-1.253885e-05	0.001522048	-0.2709352	0.326807	

4.558e+10	-0.2276905	0.03179721	-0.0001573063	0.000146178	0.1641122	-0.1749697	-6.711341e-06	-0.0004389287	
-0.0001573063	0.000146178	-0.2268728	0.03136014	0.0001798807	-0.0007798943	0.1642359	-0.17558	
0.1641122	-0.1749697	0.0001798807	-0.0007798943	-0.2724161	0.3232755	0.0008365357	0.001213624	
-6.711341e-06	-0.0004389287	0.1642359	-0.17558	0.0008365357	0.001213624	-0.2716622	0.3223808	

4.56e+10	-0.2266054	0.03132317	-4.868531e-05	0.0002110473	0.1625914	-0.1748712	-0.0002519612	-0.0003525854	
-4.868531e-05	0.0002110473	-0.2261378	0.03053484	-0.0002917879	-0.000727312	0.162334	-0.1754645	
0.1625914	-0.1748712	-0.0002917879	-0.000727312	-0.2747074	0.3206199	0.001334563	0.0004903627	
-0.0002519612	-0.0003525854	0.162334	-0.1754645	0.001334563	0.0004903627	-0.2744901	0.3194624	

4.562e+10	-0.2260541	0.02980073	8.022627e-05	0.0002011193	0.1616344	-0.1750082	-0.0004001415	-0.0001402844	
8.022627e-05	0.0002011193	-0.2260578	0.02891857	-0.0006389174	-0.0004179366	0.1610669	-0.1753677	
0.1616344	-0.1750082	-0.0006389174	-0.0004179366	-0.2778997	0.3201381	0.001315659	-0.000355337	
-0.0004001415	-0.0001402844	0.1610669	-0.1753677	0.001315659	-0.000355337	-0.2782998	0.3190211	

4.564e+10	-0.226499	0.02781058	0.0001784844	0.0001174475	0.1609711	-0.1756999	-0.000394315	0.0001121004	
0.0001784844	0.0001174475	-0.2269867	0.02702635	-0.0007391108	2.103254e-05	0.1602853	-0.1756764	
0.1609711	-0.1756999	-0.0007391108	2.103254e-05	-0.2805898	0.3219863	0.0008303105	-0.0009971711	
-0.000394315	0.0001121004	0.1602853	-0.1756764	0.0008303105	-0.0009971711	-0.2815011	0.3212166	

4.566e+10	-0.2280537	0.0259028	0.0002082405	-4.542369e-06	0.1602127	-0.1770126	-0.0002481074	0.0003034521	
0.0002082405	-4.542369e-06	-0.2289114	0.02543382	-0.0005759649	0.000420617	0.1596413	-0.1765856	
0.1602127	-0.1770126	-0.0005759649	0.000420617	-0.2815974	0.325429	0.0001085688	-0.001224697	
-0.0002481074	0.0003034521	0.1596413	-0.1765856	0.0001085688	-0.001224697	-0.2827352	0.3252496	

4.568e+10	-0.2304776	0.02463095	0.000164653	-0.0001162403	0.1590023	-0.1787302	-3.270316e-05	0.000370891	
0.000164653	-0.0001162403	-0.2314762	0.02469681	-0.0002325144	0.0006465416	0.1587644	-0.178018	
0.1590023	-0.1787302	-0.0002325144	0.0006465416	-0.2803749	0.3292065	-0.0005668181	-0.001015866	
-3.270316e-05	0.000370891	0.1587644	-0.178018	-0.0005668181	-0.001015866	-0.2814327	0.3296319	

4.57e+10	-0.2333021	0.02435637	7.173005e-05	-0.0001812526	0.1572145	-0.180517	0.0001684097	0.0003107151	
7.173005e-05	-0.0001812526	-0.2341212	0.02497901	0.0001594042	0.000644026	0.1574415	-0.1797744	
0.1572145	-0.180517	0.0001594042	0.000644026	-0.2769958	0.3321069	-0.0009820801	-0.0005021233	
0.0001684097	0.0003107151	0.1574415	-0.1797744	-0.0009820801	-0.0005021233	-0.2776422	0.3330001	

4.572e+10	-0.2358967	0.02521009	-3.584456e-05	-0.0001863133	0.1549526	-0.1820816	0.0002957777	0.0001620074	
-3.584456e-05	-0.0001863133	-0.2362608	0.02620865	0.0004728563	0.0004368896	0.1555783	-0.1815868	
0.1549526	-0.1820816	0.0004728563	0.0004368896	-0.2723567	0.3331106	-0.001044554	0.0001153198	
0.0002957777	0.0001620074	0.1555783	-0.1815868	-0.001044554	0.0001153198	-0.2724538	0.3341804	

4.574e+10	-0.2377403	0.02683492	-0.0001273018	-0.0001368015	0.1523879	-0.183207	0.0003242665	-2.091027e-05	
-0.0001273018	-0.0001368015	-0.237487	0.02789831	0.0006198069	0.0001039903	0.1532006	-0.1831803	
0.1523879	-0.183207	0.0006198069	0.0001039903	-0.2677446	0.3318195	-0.00077767	0.0006403781	
0.0003242665	-2.091027e-05	0.1532006	-0.1831803	-0.00077767	0.0006403781	-0.2672085	0.3328159	

4.576e+10	-0.2384803	0.02877483	-0.0001801053	-4.822538e-05	0.1497768	-0.183854	0.0002560279	-0.0001860698	
-0.0001801053	-4.822538e-05	-0.2376639	0.02951836	0.0005649417	-0.0002480273	0.1504593	-0.1843039	
0.1497768	-0.183854	0.0005649417	-0.0002480273	-0.2642639	0.328678	-0.0002903384	0.0009270379	
0.0002560279	-0.0001860698	0.1504593	-0.1843039	-0.0002903384	0.0009270379	-0.263385	0.329229	

4.578e+10	-0.2381857	0.0302588	-0.0001792437	5.627465e-05	0.1473526	-0.184038	0.0001137116	-0.0002893695	
-0.0001792437	5.627465e-05	-0.2370468	0.03049256	0.0003307523	-0.0005101517	0.1476499	-0.184799	
0.1473526	-0.184038	0.0003307523	-0.0005101517	-0.2629552	0.324491	0.000256647	0.0009046805	
0.0001137116	-0.0002893695	0.1476499	-0.184799	0.000256647	0.0009046805	-0.261848	0.3245118	

4.58e+10	-0.2372672	0.03081563	-0.0001209958	0.0001463108	0.145334	-0.1839059	-6.102198e-05	-0.0003002008	
-0.0001209958	0.0001463108	-0.2361839	0.03038157	-5.787052e-06	-0.0005995721	0.1451449	-0.1846916	
0.145334	-0.1839059	-5.787052e-06	-0.0005995721	-0.2638708	0.3206706	0.0006898098	0.0005953858	
-6.102198e-05	-0.0003002008	0.1451449	-0.1846916	0.0006898098	0.0005953858	-0.2629244	0.3200894	

4.582e+10	-0.236338	0.03035945	-2.059433e-05	0.0001900374	0.1438573	-0.1837189	-0.0002119105	-0.0002136933	
-2.059433e-05	0.0001900374	-0.2356491	0.02935164	-0.0003310653	-0.000488614	0.1432681	-0.1842548	
0.1438573	-0.1837189	-0.0003310653	-0.000488614	-0.2665159	0.3184105	0.0008738552	0.0001133808	
-0.0002119105	-0.0002136933	0.1432681	-0.1842548	0.0008738552	0.0001133808	-0.2660379	0.317389	

4.584e+10	-0.2360325	0.02893933	8.764857e-05	0.0001696343	0.1428735	-0.1838268	-0.0002871615	-6.061911e-05	
8.764857e-05	0.0001696343	-0.2359773	0.02772097	-0.0005354461	-0.000221023	0.1420923	-0.1839388	
0.1428735	-0.1838268	-0.0005354461	-0.000221023	-0.2698331	0.3184015	0.0007639054	-0.0003705866	
-0.0002871615	-6.061911e-05	0.1420923	-0.1839388	0.0007639054	-0.0003705866	-0.2700003	0.3172492	

4.586e+10	-0.2366949	0.02717723	0.0001648631	9.311177e-05	0.1421074	-0.1844702	-0.0002650496	0.0001021147	
0.0001648631	9.311177e-05	-0.2373219	0.02607481	-0.0005577126	0.0001054817	0.1413972	-0.184146	
0.1421074	-0.1844702	-0.0005577126	0.0001054817	-0.2724038	0.3206399	0.0004229212	-0.0006976388	
-0.0002650496	0.0001021147	0.1413972	-0.184146	0.0004229212	-0.0006976388	-0.2731189	0.3197811	

4.588e+10	-0.2383593	0.02559949	0.0001868861	-1.03046e-05	0.1411812	-0.1856828	-0.0001633052	0.0002197303	
0.0001868861	-1.03046e-05	-0.2395282	0.02500637	-0.0004048329	0.0003828314	0.1407547	-0.1850147	
0.1411812	-0.1856828	-0.0004048329	0.0003828314	-0.273102	0.324319	-1.527943e-05	-0.0007843512	
-0.0001633052	0.0002197303	0.1407547	-0.1850147	-1.527943e-05	-0.0007843512	-0.2741585	0.3239637	

4.59e+10	-0.2407609	0.02475282	0.0001520544	-0.0001066715	0.1398007	-0.1872363	-2.396012e-05	0.0002635832	
0.0001520544	-0.0001066715	-0.2421138	0.02489191	-0.0001361097	0.0005332019	0.1398086	-0.1864311	
0.1398007	-0.1872363	-0.0001361097	0.0005332019	-0.2714598	0.3281385	-0.0004117213	-0.0006373995	
-2.396012e-05	0.0002635832	0.1398086	-0.1864311	-0.0004117213	-0.0006373995	-0.2725241	0.3283734	

4.592e+10	-0.2434001	0.02489538	7.481569e-05	-0.0001706938	0.1378676	-0.1888005	0.0001109868	0.000233727	
7.481569e-05	-0.0001706938	-0.2444843	0.02578262	0.0001667378	0.000522805	0.1383297	-0.1881271	
0.1378676	-0.1888005	0.0001667378	0.000522805	-0.2677422	0.3308701	-0.000667707	-0.0003236452	
0.0001109868	0.000233727	0.1383297	-0.1881271	-0.000667707	-0.0003236452	-0.268448	0.331624	

4.594e+10	-0.2457482	0.02600264	-2.423799e-05	-0.0001885283	0.1355046	-0.1901107	0.0002122367	0.0001460791	
-2.423799e-05	-0.0001885283	-0.2461505	0.02739271	0.0004218099	0.0003582907	0.1362733	-0.189819	
0.1355046	-0.1901107	0.0004218099	0.0003582907	-0.2629606	0.331536	-0.0007329991	6.683714e-05	
0.0002122367	0.0001460791	0.1362733	-0.189819	-0.0007329991	6.683714e-05	-0.2632423	0.3324866	

4.596e+10	-0.2473091	0.02774016	-0.0001228201	-0.0001544613	0.132896	-0.191006	0.0002615354	2.053047e-05	
-0.0001228201	-0.0001544613	-0.2468521	0.02917319	0.0005584975	8.015439e-05	0.133701	-0.1912004	
0.132896	-0.191006	0.0005584975	8.015439e-05	-0.2584538	0.3298554	-0.0005963408	0.0004401425	
0.0002615354	2.053047e-05	0.133701	-0.1912004	-0.0005963408	0.0004401425	-0.2581768	0.3308082	

4.598e+10	-0.2478438	0.02964133	-0.0001958014	-7.018417e-05	0.1302674	-0.191431	0.0002447945	-0.000120125	
-0.0001958014	-7.018417e-05	-0.2466655	0.03054895	0.0005282649	-0.0002399096	0.1308192	-0.1920473	
0.1302674	-0.191431	0.0005282649	-0.0002399096	-0.2552318	0.3264468	-0.0002818526	0.0007014841	
0.0002447945	-0.000120125	0.1308192	-0.1920473	-0.0002818526	0.0007014841	-0.2544947	0.3271484	

4.6e+10	-0.2474353	0.03108287	-0.0002154982	4.963285e-05	0.1278366	-0.1914295	0.0001531557	-0.0002430378	
-0.0002154982	4.963285e-05	-0.245919	0.03119762	0.0003218143	-0.0005060629	0.1279469	-0.1922333	
0.1278366	-0.1914295	0.0003218143	-0.0005060629	-0.2542758	0.3222002	0.0001413812	0.0007643138	
0.0001531557	-0.0002430378	0.1279469	-0.1922333	0.0001413812	0.0007643138	-0.2532723	0.3224303	

4.602e+10	-0.2465254	0.03158064	-0.0001616556	0.0001710058	0.1258109	-0.1911288	-3.095986e-06	-0.0003037342	
-0.0001616556	0.0001710058	-0.2451929	0.03080118	-1.327842e-05	-0.0006204579	0.1254732	-0.1918527	
0.1258109	-0.1911288	-1.327842e-05	-0.0006204579	-0.2556084	0.3184814	0.0005522482	0.0005799988	
-3.095986e-06	-0.0003037342	0.1254732	-0.1918527	0.0005522482	0.0005799988	-0.2546011	0.3181353	

4.604e+10	-0.2457062	0.03112705	-3.881444e-05	0.0002459258	0.1243205	-0.1908019	-0.0001803754	-0.000263629	
-3.881444e-05	0.0002459258	-0.2450021	0.0297353	-0.000370843	-0.0005224059	0.1236529	-0.1912114	
0.1243205	-0.1908019	-0.000370843	-0.0005224059	-0.2584319	0.3165303	0.000802399	0.0001802252	
-0.0001803754	-0.000263629	0.1236529	-0.1912114	0.000802399	0.0001802252	-0.2577489	0.3156937	

4.606e+10	-0.2455529	0.02984562	0.0001140498	0.0002347407	0.1233064	-0.1907924	-0.0003097296	-0.0001203228	
0.0001140498	0.0002347407	-0.2457206	0.02825702	-0.000617859	-0.0002272054	0.1225274	-0.1907828	
0.1233064	-0.1907924	-0.000617859	-0.0002272054	-0.261741	0.3168406	0.0007806115	-0.0003068617	
-0.0003097296	-0.0001203228	0.1225274	-0.1907828	0.0007806115	-0.0003068617	-0.2616577	0.3157284	

4.608e+10	-0.2463514	0.02828599	0.0002367816	0.0001315691	0.1224794	-0.1913244	-0.0003322427	7.884505e-05	
0.0002367816	0.0001315691	-0.2473657	0.02704726	-0.0006521475	0.0001669578	0.1218168	-0.1909052	
0.1224794	-0.1913244	-0.0006521475	0.0001669578	-0.2640864	0.3193391	0.0004788825	-0.0007013053	
-0.0003322427	7.884505e-05	0.1218168	-0.1909052	0.0004788825	-0.0007013053	-0.2645847	0.3183545	

4.61e+10	-0.2480909	0.02703892	0.0002775724	-2.838519e-05	0.121467	-0.1923945	-0.000233901	0.000257144	
0.0002775724	-2.838519e-05	-0.2496378	0.02659046	-0.000451307	0.0005166145	0.1211223	-0.1916779	
0.121467	-0.1923945	-0.000451307	0.0005166145	-0.2645246	0.3230708	4.10537e-06	-0.0008553401	
-0.000233901	0.000257144	0.1211223	-0.1916779	4.10537e-06	-0.0008553401	-0.2654085	0.3225393	

4.612e+10	-0.2504274	0.02654195	0.000217872	-0.0001858174	0.1199873	-0.1937915	-5.114152e-05	0.00034873	
0.000217872	-0.0001858174	-0.2520155	0.02702166	-8.195922e-05	0.0006934031	0.1200818	-0.1929795	
0.1199873	-0.1937915	-8.195922e-05	0.0006934031	-0.2625325	0.3268749	-0.0004749418	-0.0007175587	
-5.114152e-05	0.00034873	0.1200818	-0.1929795	-0.0004749418	-0.0007175587	-0.2636309	0.3268381	

4.614e+10	-0.2528999	0.0270272	7.709556e-05	-0.0002836805	0.1179693	-0.1951901	0.0001523372	0.0003240707	
7.709556e-05	-0.0002836805	-0.2539872	0.02830969	0.0003292007	0.0006306141	0.1185129	-0.1945444	
0.1179693	-0.1951901	0.0003292007	0.0006306141	-0.2586836	0.3293192	-0.000799369	-0.0003388182	
0.0001523372	0.0003240707	0.1185129	-0.1945444	-0.000799369	-0.0003388182	-0.2595769	0.3298634	

4.616e+10	-0.254981	0.02833035	-9.837112e-05	-0.0002865024	0.1155129	-0.1963057	0.0003121608	0.0001917498	
-9.837112e-05	-0.0002865024	-0.255145	0.03006294	0.0006405282	0.0003427145	0.1163388	-0.1960616	
0.1155129	-0.1963057	0.0006405282	0.0003427145	-0.2538936	0.3296876	-0.0008664299	0.0001601141	
0.0003121608	0.0001917498	0.1163388	-0.1960616	-0.0008664299	0.0001601141	-0.2544189	0.3306083	

4.618e+10	-0.2562269	0.0302811	-0.0002511108	-0.0001884023	0.1128284	-0.1969855	0.0003781106	-1.165008e-05	
-0.0002511108	-0.0001884023	-0.2554119	0.03176797	0.0007396387	-8.062478e-05	0.1136564	-0.197248	
0.1128284	-0.1969855	0.0007396387	-8.062478e-05	-0.2495104	0.3277665	-0.0006467723	0.000625891	
0.0003781106	-1.165008e-05	0.1136564	-0.197248	-0.0006467723	0.000625891	-0.2494577	0.3288867	

4.62e+10	-0.2564799	0.03217358	-0.0003267212	-1.420782e-05	0.1101418	-0.1971725	0.0003206208	-0.0002284603	
-0.0003267212	-1.420782e-05	-0.2549363	0.03297472	0.0005785029	-0.0004987691	0.1106821	-0.1978557	
0.1101418	-0.1971725	0.0005785029	-0.0004987691	-0.2466049	0.3241845	-0.0001924009	0.0009036239	
0.0003206208	-0.0002284603	0.1106821	-0.1978557	-0.0001924009	0.0009036239	-0.2460148	0.3251719	

4.622e+10	-0.2558955	0.03350756	-0.000288536	0.0001826164	0.1077058	-0.1969081	0.000142036	-0.0003857516	
-0.000288536	0.0001826164	-0.2541645	0.03332601	0.0001954065	-0.0007600115	0.1077757	-0.1977813	
0.1077058	-0.1969081	0.0001954065	-0.0007600115	-0.2459754	0.3199829	0.0003612434	0.000878356	
0.000142036	-0.0003857516	0.1077757	-0.1977813	0.0003612434	0.000878356	-0.2449716	0.3205255	

4.624e+10	-0.2549584	0.03388285	-0.0001357645	0.0003290633	0.1057393	-0.196371	-0.0001089127	-0.0004139727	
-0.0001357645	0.0003290633	-0.2536329	0.03276112	-0.0002841459	-0.0007531626	0.1053253	-0.1971491	
0.1057393	-0.196371	-0.0002841459	-0.0007531626	-0.2475447	0.316501	0.0008183796	0.0005273086	
-0.0001089127	-0.0004139727	0.1053253	-0.1971491	0.0008183796	0.0005273086	-0.246267	0.3164578	

4.626e+10	-0.2542735	0.03334031	8.40859e-05	0.0003592918	0.1043497	-0.1958901	-0.0003394835	-0.0002832488	
8.40859e-05	0.0003592918	-0.2537734	0.03165413	-0.0006815563	-0.0004605814	0.1035787	-0.1963215	
0.1043497	-0.1958901	-0.0006815563	-0.0004605814	-0.2504812	0.314898	0.0009906941	-4.070658e-05	
-0.0003394835	-0.0002832488	0.1035787	-0.1963215	0.0009906941	-4.070658e-05	-0.2494228	0.3141297	

4.628e+10	-0.2543032	0.03217105	0.0002859679	0.0002496064	0.1034053	-0.1958024	-0.0004504303	-3.370991e-05	
0.0002859679	0.0002496064	-0.2547889	0.03051705	-0.000836168	1.882929e-05	0.1025044	-0.1957565	
0.1034053	-0.1958024	-0.000836168	1.882929e-05	-0.2536505	0.3155904	0.0007937979	-0.0006106448	
-0.0004504303	-3.370991e-05	0.1025044	-0.1957565	0.0007937979	-0.0006106448	-0.2531717	0.31432	

4.63e+10	-0.2552623	0.03093534	0.0003858579	3.733605e-05	0.1025687	-0.196321	-0.0003912492	0.0002357373	
0.0003858579	3.733605e-05	-0.2565877	0.02977898	-0.0006804975	0.0005037255	0.1018087	-0.1957811	
0.1025687	-0.196321	-0.0006804975	0.0005037255	-0.2556569	0.3183142	0.0003006981	-0.0009581223	
-0.0003912492	0.0002357373	0.1018087	-0.1957811	0.0003006981	-0.0009581223	-0.2559981	0.3169223	

4.632e+10	-0.2570285	0.03005748	0.0003422173	-0.0001955141	0.1014335	-0.1973597	-0.0001872328	0.0004191529	
0.0003422173	-0.0001955141	-0.258784	0.0298508	-0.0002713082	0.0008108547	0.1010747	-0.196476	
0.1014335	-0.1973597	-0.0002713082	0.0008108547	-0.2556409	0.3220764	-0.0002959262	-0.000958351	
-0.0001872328	0.0004191529	0.1010747	-0.196476	-0.0002959262	-0.000958351	-0.2566637	0.3210571	

4.634e+10	-0.2592306	0.029994	0.0001716218	-0.0003618095	0.09976921	-0.198654	8.149285e-05	0.0004540549	
0.0001716218	-0.0003618095	-0.2608501	0.03078132	0.000241579	0.0008294665	0.09996014	-0.1976731	
0.09976921	-0.198654	0.000241579	0.0008294665	-0.2533481	0.3255572	-0.0007825527	-0.0006273916	
8.149285e-05	0.0004540549	0.09996014	-0.1976731	-0.0007825527	-0.0006273916	-0.2548149	0.3252112	

4.636e+10	-0.2614216	0.03080249	-6.496585e-05	-0.0004030275	0.09754248	-0.1998235	0.0003234277	0.0003359854	
-6.496585e-05	-0.0004030275	-0.2623329	0.03234987	0.0006781916	0.0005538493	0.09827781	-0.1990949	
0.09754248	-0.1998235	0.0006781916	0.0005538493	-0.249365	0.3275755	-0.001005091	-8.758059e-05	
0.0003234277	0.0003359854	0.09827781	-0.1990949	-0.001005091	-8.758059e-05	-0.2507464	0.3280814	

4.638e+10	-0.2630886	0.03234982	-0.0002882691	-0.0003037723	0.0949474	-0.2006271	0.0004648963	0.0001039678	
-0.0002882691	-0.0003037723	-0.2629753	0.0342012	0.0008884866	7.456458e-05	0.09599525	-0.2004383	
0.0949474	-0.2006271	0.0008884866	7.456458e-05	-0.2447334	0.3274992	-0.0008985345	0.0004905074	
0.0004648963	0.0001039678	0.09599525	-0.2004383	-0.0008985345	0.0004905074	-0.2457066	0.3286819	

4.64e+10	-0.2639492	0.03423417	-0.0004233191	-9.090632e-05	0.09222778	-0.2009239	0.0004595706	-0.0001764218	
-0.0004233191	-9.090632e-05	-0.2628297	0.03567612	0.0007929942	-0.0004521875	0.09322054	-0.2013692	
0.09222778	-0.2009239	0.0007929942	-0.0004521875	-0.2407816	0.3252789	-0.0004858354	0.0009289224	
0.0004595706	-0.0001764218	0.09322054	-0.2013692	-0.0004858354	0.0009289224	-0.2409755	0.3268513	

4.642e+10	-0.2639046	0.03600967	-0.0004161013	0.000172525	0.08963483	-0.2007477	0.0002939778	-0.0004206558	
-0.0004161013	0.000172525	-0.2621822	0.03656737	0.0004057816	-0.0008463628	0.0902171	-0.2016923	
0.08963483	-0.2007477	0.0004057816	-0.0008463628	-0.2384036	0.321714	0.0001229906	0.001073477	
0.0002939778	-0.0004206558	0.0902171	-0.2016923	0.0001229906	0.001073477	-0.2376909	0.3232221	

4.644e+10	-0.2632137	0.03713282	-0.0002521379	0.0003969994	0.08740834	-0.2002222	2.446694e-06	-0.0005371044	
-0.0002521379	0.0003969994	-0.2614634	0.03665322	-0.0001575965	-0.0009545478	0.08736285	-0.2013435	
0.08740834	-0.2002222	-0.0001575965	-0.0009545478	-0.2382096	0.3178427	0.0007353825	0.0008403758	
2.446694e-06	-0.0005371044	0.08736285	-0.2013435	0.0007353825	0.0008403758	-0.2367251	0.3187507	

4.646e+10	-0.2623761	0.03734164	2.633284e-05	0.000490023	0.08568612	-0.1995839	-0.0003221598	-0.0004590679	
2.633284e-05	0.000490023	-0.2611793	0.03600935	-0.0007009837	-0.0007091053	0.08502035	-0.2005094	
0.08568612	-0.1995839	-0.0007009837	-0.0007091053	-0.2399229	0.3149439	0.001119187	0.0002721456	
-0.0003221598	-0.0004590679	0.08502035	-0.2005094	0.001119187	0.0002721456	-0.2380554	0.3148798	

4.648e+10	-0.2618962	0.03680711	0.0003204161	0.0003967275	0.08445692	-0.1991516	-0.0005491888	-0.0001909254	
0.0003204161	0.0003967275	-0.2616229	0.03504739	-0.001010104	-0.0001741122	0.08336624	-0.1995673	
0.08445692	-0.1991516	-0.001010104	-0.0001741122	-0.2427513	0.313857	0.001096644	-0.0004391371	
-0.0005491888	-0.0001909254	0.08336624	-0.1995673	0.001096644	-0.0004391371	-0.2411586	0.312699	

4.65e+10	-0.2621482	0.03586323	0.0005088421	0.0001370294	0.08349867	-0.1992192	-0.0005718603	0.0001722193	
0.0005088421	0.0001370294	-0.2628702	0.03423419	-0.0009444358	0.0004583897	0.08232995	-0.1989585	
0.08349867	-0.1992192	-0.0009444358	0.0004583897	-0.245406	0.3148976	0.0006478582	-0.001013651	
-0.0005718603	0.0001722193	0.08232995	-0.1989585	0.0006478582	-0.001013651	-0.2446931	0.3129676	

4.652e+10	-0.2631762	0.03497496	0.0005060993	-0.0001932504	0.08243844	-0.1998225	-0.0003700638	0.0004829743	
0.0005060993	-0.0001932504	-0.2646653	0.03399831	-0.0005108564	0.0009424488	0.08158687	-0.1989293	
0.08243844	-0.1998225	-0.0005108564	0.0009424488	-0.2467146	0.3176045	-6.108139e-05	-0.001216267	
-0.0003700638	0.0004829743	0.08158687	-0.1989293	-6.108139e-05	-0.001216267	-0.2473023	0.3155097	

4.654e+10	-0.2647957	0.03462596	0.000304962	-0.0004641367	0.08096544	-0.2007798	-2.235959e-05	0.0006168349	
0.000304962	-0.0004641367	-0.2665871	0.0345763	0.0001348627	0.001084749	0.08075195	-0.1995071	
0.08096544	-0.2007798	0.0001348627	0.001084749	-0.2460833	0.3209339	-0.0007572939	-0.0009685949	
-2.235959e-05	0.0006168349	0.08075195	-0.1995071	-0.0007572939	-0.0009685949	-0.2477983	0.3194597	

4.656e+10	-0.2666697	0.03487101	-2.284823e-05	-0.0005688713	0.07896266	-0.2017584	0.00034042	0.0005262293	
-2.284823e-05	-0.0005688713	-0.2681869	0.03583142	0.0007542379	0.0008218671	0.07952771	-0.200547	
0.07896266	-0.2017584	0.0007542379	0.0008218671	-0.2436318	0.3236628	-0.001188209	-0.0003666762	
0.00034042	0.0005262293	0.07952771	-0.200547	-0.001188209	-0.0003666762	-0.2459067	0.3233838	

4.658e+10	-0.2683951	0.03585923	-0.0003584065	-0.0004625548	0.07654849	-0.2024301	0.0005915781	0.0002442296	
-0.0003584065	-0.0004625548	-0.269125	0.0375357	0.001115978	0.0002381246	0.07775738	-0.2017331	
0.07654849	-0.2024301	0.001115978	0.0002381246	-0.2399207	0.3249453	-0.001206137	0.000380062	
0.0005915781	0.0002442296	0.07775738	-0.2017331	-0.001206137	0.000380062	-0.2420223	0.3260022	

4.66e+10	-0.2696068	0.03741103	-0.000578314	-0.0001741628	0.07399958	-0.2026626	0.0006442173	-0.00013932	
-0.000578314	-0.0001741628	-0.2693032	0.03919109	0.001074258	-0.0004658081	0.07543823	-0.2027931	
0.07399958	-0.2026626	0.001074258	-0.0004658081	-0.2359717	0.3244298	-0.0007944956	0.001023151	
0.0006442173	-0.00013932	0.07543823	-0.2027931	-0.0007944956	0.001023151	-0.2371496	0.3265283	

4.662e+10	-0.2701025	0.03911487	-0.0005924716	0.0002026173	0.07157155	-0.2024936	0.000465827	-0.0005014475	
-0.0005924716	0.0002026173	-0.2688881	0.04042552	0.0006185521	-0.001033894	0.07270143	-0.2034611	
0.07157155	-0.2024936	0.0006185521	-0.001033894	-0.2328605	0.3222759	-6.670553e-05	0.001333833	
0.000465827	-0.0005014475	0.07270143	-0.2034611	-6.670553e-05	0.001333833	-0.2326599	0.3247363	

4.664e+10	-0.2699462	0.0405846	-0.000374927	0.0005320842	0.06943367	-0.2020738	9.298308e-05	-0.000708091	
-0.000374927	0.0005320842	-0.2682278	0.04104462	-0.0001092144	-0.001236888	0.06980683	-0.2035528	
0.06943367	-0.2020738	-0.0001092144	-0.001236888	-0.2312829	0.3192701	0.0007437084	0.001164471	
9.298308e-05	-0.000708091	0.06980683	-0.2035528	0.0007437084	0.001164471	-0.2296503	0.3212458	

4.666e+10	-0.2693806	0.04150977	1.386595e-05	0.0006766179	0.0676399	-0.2016163	-0.0003561453	-0.0006545752	
1.386595e-05	0.0006766179	-0.2677039	0.04096446	-0.0008443401	-0.0009610922	0.06707955	-0.2030676	
0.0676399	-0.2016163	-0.0008443401	-0.0009610922	-0.2312552	0.3164335	0.001329414	0.0005230268	
-0.0003561453	-0.0006545752	0.06707955	-0.2030676	0.001329414	0.0005230268	-0.2286514	0.3171496	

4.668e+10	-0.2687836	0.04170597	0.0004308841	0.0005536346	0.06613458	-0.2013152	-0.0007019481	-0.0003255357	
0.0004308841	0.0005536346	-0.2676705	0.04038579	-0.001285494	-0.000276525	0.06481701	-0.2021844	
0.06613458	-0.2013152	-0.001285494	-0.000276525	-0.2325254	0.3144696	0.001420952	-0.0003792813	
-0.0007019481	-0.0003255357	0.06481701	-0.2021844	0.001420952	-0.0003792813	-0.2298716	0.3135053	

4.67e+10	-0.2684964	0.04146947	0.0006984315	0.0001886474	0.06475567	-0.2012798	-0.000779057	0.0001661622	
0.0006984315	0.0001886474	-0.26826	0.03975672	-0.001223342	0.0005613817	0.063152	-0.2012228	
0.06475567	-0.2012798	-0.001223342	0.0005613817	-0.2342602	0.3139409	0.0009320013	-0.001179145	
-0.000779057	0.0001661622	0.063152	-0.2012228	0.0009320013	-0.001179145	-0.2326166	0.3115115	

4.672e+10	-0.2687507	0.04093264	0.0006874423	-0.0002777168	0.06330409	-0.2015105	-0.0005322439	0.0006133568	
0.0006874423	-0.0002777168	-0.2694677	0.03931108	-0.0006524541	0.001205683	0.06199967	-0.2005239	
0.06330409	-0.2015105	-0.0006524541	0.001205683	-0.2357678	0.3146991	3.986749e-05	-0.001522478	
-0.0005322439	0.0006133568	0.06199967	-0.2005239	3.986749e-05	-0.001522478	-0.2358182	0.3116945	

4.674e+10	-0.269521	0.04052067	0.0003879527	-0.0006481448	0.06162805	-0.2019039	-5.864009e-05	0.0008186725	
0.0003879527	-0.0006481448	-0.2709984	0.03948609	0.0002062058	0.001374013	0.06112304	-0.200312	
0.06162805	-0.2019039	0.0002062058	0.001374013	-0.2362963	0.3164392	-0.0008832551	-0.00125163	
-5.864009e-05	0.0008186725	0.06112304	-0.200312	-0.0008832551	-0.00125163	-0.2381629	0.3139956	

4.676e+10	-0.2706908	0.04040671	-8.114876e-05	-0.0007619711	0.0596955	-0.2022543	0.0004422343	0.0006967423	
-8.114876e-05	-0.0007619711	-0.2725008	0.04033662	0.0009996009	0.0009840556	0.06021729	-0.2006384	
0.0596955	-0.2022543	0.0009996009	0.0009840556	-0.2357125	0.3184309	-0.001455607	-0.0004825238	
0.0004422343	0.0006967423	0.06021729	-0.2006384	-0.001455607	-0.0004825238	-0.2387507	0.3175241	

4.678e+10	-0.2720712	0.04070985	-0.0005280088	-0.0005678075	0.05761586	-0.2024095	0.0007714528	0.000303619	
-0.0005280088	-0.0005678075	-0.2736542	0.04167947	0.001399149	0.0001893265	0.05900828	-0.201362	
0.05761586	-0.2024095	0.001399149	0.0001893265	-0.2339871	0.3201716	-0.001459805	0.000468692	
0.0007714528	0.000303619	0.05900828	-0.201362	-0.001459805	0.000468692	-0.2369931	0.3212148	

4.68e+10	-0.273382	0.04154038	-0.0007712087	-0.000141265	0.05557333	-0.2023369	0.0008093706	-0.0002071938	
-0.0007712087	-0.000141265	-0.2742224	0.04323634	0.001239692	-0.0006890123	0.05735396	-0.2023072	
0.05557333	-0.2023369	0.001239692	-0.0006890123	-0.2315964	0.3211164	-0.0009078968	0.001238215	
0.0008093706	-0.0002071938	0.05735396	-0.2023072	-0.0009078968	0.001238215	-0.2334001	0.3237363	

4.682e+10	-0.2743864	0.04277153	-0.0007111245	0.0003509965	0.0536937	-0.2021507	0.0005423803	-0.0006495084	
-0.0007111245	0.0003509965	-0.2741975	0.04465589	0.0005838684	-0.001297591	0.05518435	-0.2032103	
0.0536937	-0.2021507	0.0005838684	-0.001297591	-0.2289558	0.3211027	-9.906477e-06	0.001542368	
0.0005423803	-0.0006495084	0.05518435	-0.2032103	-9.906477e-06	0.001542368	-0.2288657	0.3243176	

4.684e+10	-0.274942	0.04418624	-0.0003653208	0.0007145144	0.05197836	-0.2020616	5.90177e-05	-0.0008588546	
-0.0003653208	0.0007145144	-0.2737398	0.04571011	-0.0003072494	-0.001392814	0.05255665	-0.2038231	
0.05197836	-0.2020616	-0.0003072494	-0.001392814	-0.2264238	0.3202636	0.0009048396	0.001263401	
5.90177e-05	-0.0008588546	0.05255665	-0.2038231	0.0009048396	0.001263401	-0.2245401	0.3228304	

4.686e+10	-0.2749437	0.04566455	0.0001364708	0.0008004903	0.05027461	-0.2021213	-0.000469245	-0.0007414125	
0.0001364708	0.0008004903	-0.273085	0.04628693	-0.001080127	-0.0009353052	0.0496815	-0.2038945	
0.05027461	-0.2021213	-0.001080127	-0.0009353052	-0.2244824	0.3186962	0.001488924	0.0004891015	
-0.000469245	-0.0007414125	0.0496815	-0.2038945	0.001488924	0.0004891015	-0.2214429	0.319685	

4.688e+10	-0.2745413	0.04673095	0.0005957987	0.0005643059	0.04841189	-0.2022876	-0.000833165	-0.0003204896	
0.0005957987	0.0005643059	-0.272584	0.04625095	-0.001426214	-0.0001039839	0.04687536	-0.2033471	
0.04841189	-0.2022876	-0.001426214	-0.0001039839	-0.2234136	0.316709	0.00149847	-0.0004952814	
-0.000833165	-0.0003204896	0.04687536	-0.2033471	0.00149847	-0.0004952814	-0.220337	0.3157282	

4.69e+10	-0.2739237	0.04731484	0.0008218322	9.275554e-05	0.04633929	-0.2023929	-0.0008690534	0.0002473924	
0.0008218322	9.275554e-05	-0.2724905	0.04584376	-0.001203124	0.000770318	0.04448457	-0.2023274	
0.04633929	-0.2023929	-0.001203124	0.000770318	-0.223137	0.3147981	0.0009077331	-0.001296763	
-0.0008690534	0.0002473924	0.04448457	-0.2023274	0.0009077331	-0.001296763	-0.2212031	0.3121852	

4.692e+10	-0.2733782	0.04741719	0.0007144121	-0.0004231587	0.04415311	-0.202267	-0.0005467614	0.000724787	
0.0007144121	-0.0004231587	-0.2729805	0.0453385	-0.0004986828	0.001333079	0.04272064	-0.2011229	
0.04415311	-0.202267	-0.0004986828	0.001333079	-0.2236452	0.3133076	-5.115952e-05	-0.00157707	
-0.0005467614	0.000724787	0.04272064	-0.2011229	-5.115952e-05	-0.00157707	-0.2236118	0.3100454	

4.694e+10	-0.2731814	0.04708842	0.0003142804	-0.0007676683	0.04204174	-0.2018584	2.683884e-07	0.00090456	
0.0003142804	-0.0007676683	-0.2740263	0.04502087	0.0003984625	0.00135482	0.04156296	-0.2001194	
0.04204174	-0.2018584	0.0003984625	0.00135482	-0.2247842	0.31259	-0.0009761288	-0.001218408	
2.683884e-07	0.00090456	0.04156296	-0.2001194	-0.0009761288	-0.001218408	-0.2266785	0.3099438	

4.696e+10	-0.2734963	0.04655308	-0.0002095018	-0.0007974392	0.04018282	-0.2012782	0.0005360047	0.0007159711	
-0.0002095018	-0.0007974392	-0.2753801	0.04529266	0.001116839	0.0008347119	0.04079195	-0.1996248	
0.04018282	-0.2012782	0.001116839	0.0008347119	-0.2260532	0.3129697	-0.001483576	-0.0003881022	
0.0005360047	0.0007159711	0.04079195	-0.1996248	-0.001483576	-0.0003881022	-0.2290783	0.3119665	

4.698e+10	-0.2743741	0.04616065	-0.0006386891	-0.0005078543	0.0386371	-0.2007151	0.0008424346	0.0002542658	
-0.0006386891	-0.0005078543	-0.276689	0.04620257	0.001370198	2.295074e-06	0.04006458	-0.1997415	
0.0386371	-0.2007151	0.001370198	2.295074e-06	-0.2268488	0.314418	-0.001392984	0.0005520841	
0.0008424346	0.0002542658	0.04006458	-0.1997415	-0.001392984	0.0005520841	-0.2298061	0.315374	

4.7e+10	-0.2756426	0.04627514	-0.0008047292	-2.782052e-05	0.03733394	-0.2003818	0.0008170335	-0.0002830989	
-0.0008047292	-2.782052e-05	-0.2776084	0.04760208	0.001081097	-0.0007942612	0.03903601	-0.2003934	
0.03733394	-0.2003818	0.001081097	-0.0007942612	-0.2265536	0.3165634	-0.0007864996	0.001231235	
0.0008170335	-0.0002830989	0.03903601	-0.2003934	-0.0007864996	0.001231235	-0.2283727	0.3189876	

4.702e+10	-0.2770387	0.04695706	-0.0006565993	0.0004463919	0.03608943	-0.2003759	0.0004936877	-0.0006943524	
-0.0006565993	0.0004463919	-0.2779376	0.04920798	0.0003973398	-0.001249547	0.03746775	-0.2013537	
0.03608943	-0.2003759	0.0003973398	-0.001249547	-0.224893	0.3186881	6.945499e-05	0.001425209	
0.0004936877	-0.0006943524	0.03746775	-0.2013537	6.945499e-05	0.001425209	-0.2249546	0.3216268	

4.704e+10	-0.278147	0.04824434	-0.0002664715	0.0007373255	0.03468579	-0.2007049	2.857862e-06	-0.0008440352	
-0.0002664715	0.0007373255	-0.2776466	0.0506572	-0.0003978662	-0.001219435	0.03524743	-0.2022922	
0.03468579	-0.2007049	-0.0003978662	-0.001219435	-0.222008	0.3200233	0.0008586558	0.001106015	
2.857862e-06	-0.0008440352	0.03524743	-0.2022922	0.0008586558	0.001106015	-0.2204341	0.3224185	

4.706e+10	-0.2786891	0.04989305	0.0002119059	0.0007470678	0.03293184	-0.2012129	-0.000482189	-0.0006894052	
0.0002119059	0.0007470678	-0.2769192	0.05162394	-0.001012106	-0.0007486458	0.03247113	-0.2028374	
0.03293184	-0.2012129	-0.001012106	-0.0007486458	-0.2185452	0.3200152	0.001320033	0.0004105381	
-0.000482189	-0.0006894052	0.03247113	-0.2028374	0.001320033	0.0004105381	-0.2160044	0.3210851	

4.708e+10	-0.278516	0.0515696	0.0006038827	0.0004808664	0.03074659	-0.2016595	-0.0007930469	-0.0002845767	
0.0006038827	0.0004808664	-0.276053	0.05201108	-0.001241028	-2.599583e-05	0.02942697	-0.2027052	
0.03074659	-0.2016595	-0.001241028	-2.599583e-05	-0.2154046	0.3185103	0.001307732	-0.0004169734	
-0.0007930469	-0.0002845767	0.02942697	-0.2027052	0.001307732	-0.0004169734	-0.2127888	0.3179801	

4.71e+10	-0.2777602	0.05288511	0.0007688298	3.823561e-05	0.02821779	-0.2017765	-0.0008138344	0.0002302919	
0.0007688298	3.823561e-05	-0.2754143	0.05189073	-0.001017694	0.0006895488	0.02654434	-0.2018421	
0.02821779	-0.2017765	-0.001017694	0.0006895488	-0.2133298	0.3159175	0.0008259244	-0.001090287	
-0.0008138344	0.0002302919	0.02654434	-0.2018421	0.0008259244	-0.001090287	-0.2114253	0.3140417	

4.712e+10	-0.2767376	0.05349165	0.0006448486	-0.0004183217	0.02558676	-0.201381	-0.000526667	0.0006647267	
0.0006448486	-0.0004183217	-0.2753266	0.05132705	-0.0004256667	0.001143972	0.02420905	-0.2004635	
0.02558676	-0.201381	-0.0004256667	0.001143972	-0.2127526	0.3129384	4.049156e-05	-0.001362699	
-0.000526667	0.0006647267	0.02420905	-0.2004635	4.049156e-05	-0.001362699	-0.2122482	0.3103291	

4.714e+10	-0.2758545	0.0533709	0.0002755661	-0.0007157451	0.02319777	-0.2004924	-3.523361e-05	0.0008462969	
0.0002755661	-0.0007157451	-0.2758839	0.05073373	0.0003186102	0.001169372	0.0226284	-0.1989774	
0.02319777	-0.2004924	0.0003186102	0.001169372	-0.2136184	0.3104684	-0.0007570063	-0.001123577	
-3.523361e-05	0.0008462969	0.0226284	-0.1989774	-0.0007570063	-0.001123577	-0.2146681	0.3080631	

4.716e+10	-0.2754365	0.05279147	-0.0001972811	-0.0007372925	0.02129686	-0.1993456	0.0004658897	0.0007004509	
-0.0001972811	-0.0007372925	-0.276959	0.05058169	0.0009332788	0.0007552689	0.02171048	-0.1978222	
0.02129686	-0.1993456	0.0009332788	0.0007552689	-0.2155625	0.3092315	-0.001256196	-0.0004644317	
0.0004658897	0.0007004509	0.02171048	-0.1978222	-0.001256196	-0.0004644317	-0.2178142	0.3078579	

4.718e+10	-0.2757302	0.05204993	-0.0005879389	-0.0004764435	0.01995264	-0.1982887	0.0007778844	0.0002915047	
-0.0005879389	-0.0004764435	-0.2782622	0.05107067	0.001182754	6.611583e-05	0.02113526	-0.1973113	
0.01995264	-0.1982887	0.001182754	6.611583e-05	-0.2177338	0.3096889	-0.00126949	0.0003475313	
0.0007778844	0.0002915047	0.02113526	-0.1973113	-0.00126949	0.0003475313	-0.2202852	0.3098568	

4.72e+10	-0.2766832	0.05157996	-0.0007469181	-4.149767e-05	0.01900316	-0.1976084	0.0007900453	-0.0002105101	
-0.0007469181	-4.149767e-05	-0.2793397	0.05222654	0.0009828304	-0.0006243971	0.02049115	-0.1974797	
0.01900316	-0.1976084	0.0009828304	-0.0006243971	-0.2190283	0.3117615	-0.0008184181	0.0009949415	
0.0007900453	-0.0002105101	0.02049115	-0.1974797	-0.0008184181	0.0009949415	-0.2210099	0.3133015	

4.722e+10	-0.2780383	0.05173215	-0.0006235645	0.0003954208	0.01812845	-0.1974797	0.0005181131	-0.0006161952	
-0.0006235645	0.0003954208	-0.2799061	0.05374943	0.0004321788	-0.001057281	0.0194119	-0.1981916	
0.01812845	-0.1974797	0.0004321788	-0.001057281	-0.2187809	0.3146673	-0.000101729	0.001256689	
0.0005181131	-0.0006161952	0.0194119	-0.1981916	-0.000101729	0.001256689	-0.2194971	0.3169941	

4.724e+10	-0.2793838	0.05258813	-0.0002774212	0.0006747449	0.01702253	-0.197829	7.520573e-05	-0.0007926402	
-0.0002774212	0.0006747449	-0.2797877	0.05529798	-0.0002477835	-0.001093272	0.0176805	-0.1991266	
0.01702253	-0.197829	-0.0002477835	-0.001093272	-0.2167349	0.3173644	0.0006146646	0.001075092	
7.520573e-05	-0.0007926402	0.0176805	-0.1991266	0.0006146646	0.001075092	-0.2160101	0.319646	

4.726e+10	-0.2802911	0.05407703	0.0001587909	0.0007056443	0.01544602	-0.1984297	-0.000384701	-0.0006934479	
0.0001587909	0.0007056443	-0.2790828	0.05662789	-0.0008136543	-0.0007466225	0.01526049	-0.1998783	
0.01544602	-0.1984297	-0.0008136543	-0.0007466225	-0.2132447	0.3189023	0.001100047	0.0005394551	
-0.000384701	-0.0006934479	0.01526049	-0.1998783	0.001100047	0.0005394551	-0.2114753	0.320354	

4.728e+10	-0.2804851	0.05589374	0.0005320436	0.0004861462	0.01333642	-0.1990036	-0.0007122169	-0.0003554087	
0.0005320436	0.0004861462	-0.2780613	0.05733071	-0.001083696	-0.0001526893	0.01234666	-0.2000894	
0.01333642	-0.1990036	-0.001083696	-0.0001526893	-0.2092484	0.3186714	0.001210583	-0.000169559	
-0.0007122169	-0.0003554087	0.01234666	-0.2000894	0.001210583	-0.000169559	-0.2070216	0.3189071	

4.73e+10	-0.2799232	0.05751089	0.0007157007	9.417423e-05	0.01076654	-0.1992493	-0.0007956026	0.0001140812	
0.0007157007	9.417423e-05	-0.2771105	0.05733638	-0.0009768253	0.00048724	0.009316886	-0.1995626	
0.01076654	-0.1992493	-0.0009768253	0.00048724	-0.2057763	0.3167467	0.0009091542	-0.0008260782	
-0.0007956026	0.0001140812	0.009316886	-0.1995626	0.0009091542	-0.0008260782	-0.2037836	0.3157259	

4.732e+10	-0.2788177	0.05860365	0.00064344	-0.0003363966	0.007976752	-0.1989502	-0.0005934971	0.0005573309	
0.00064344	-0.0003363966	-0.276573	0.05687291	-0.0005266578	0.0009595732	0.006614595	-0.1983497	
0.007976752	-0.1989502	-0.0005266578	0.0009595732	-0.2036185	0.3136648	0.0002807299	-0.001207701	
-0.0005934971	0.0005573309	0.006614595	-0.1983497	0.0002807299	-0.001207701	-0.2025185	0.3117321	

4.734e+10	-0.2775602	0.05889598	0.0003329447	-0.0006514719	0.00531008	-0.1980288	-0.0001630561	0.0008079405	
0.0003329447	-0.0006514719	-0.2766524	0.056185	0.000119838	0.001094056	0.004571318	-0.1967469	
0.00531008	-0.1980288	0.000119838	0.001094056	-0.203205	0.3102933	-0.0004685648	-0.001160905	
-0.0001630561	0.0008079405	0.004571318	-0.1967469	-0.0004685648	-0.001160905	-0.2034306	0.3080505	

4.736e+10	-0.2765837	0.05848703	-0.0001089367	-0.0007286517	0.003120206	-0.1966552	0.0003415816	0.0007580004	
-0.0001089367	-0.0007286517	-0.2773675	0.05572561	0.0007339934	0.0008274726	0.003274532	-0.1952125	
0.003120206	-0.1966552	0.0007339934	0.0008274726	-0.2045302	0.3076097	-0.001061169	-0.0006791678	
0.0003415816	0.0007580004	0.003274532	-0.1952125	-0.001061169	-0.0006791678	-0.2059355	0.3058874	

4.738e+10	-0.2762263	0.057757	-0.0005158204	-0.0005302446	0.001584264	-0.1952036	0.0007221852	0.0004167185	
-0.0005158204	-0.0005302446	-0.2784459	0.05589172	0.001079934	0.0002473577	0.002534699	-0.1941435	
0.001584264	-0.1952036	0.001079934	0.0002473577	-0.2068686	0.3064645	-0.001258453	6.44111e-05	
0.0007221852	0.0004167185	0.002534699	-0.1941435	-0.001258453	6.44111e-05	-0.2090083	0.3058211	

4.74e+10	-0.2766317	0.05693529	-0.0007287015	-0.0001292767	0.0006265913	-0.194059	0.0008274866	-8.180073e-05	
-0.0007287015	-0.0001292767	-0.2795142	0.05666461	0.001019443	-0.0004258153	0.001964864	-0.19376	
0.0006265913	-0.194059	0.001019443	-0.0004258153	-0.2091946	0.3072434	-0.0009814977	0.0007779255	
0.0008274866	-8.180073e-05	0.001964864	-0.19376	-0.0009814977	0.0007779255	-0.2112388	0.3079297	

4.742e+10	-0.2776518	0.05653936	-0.0006659643	0.0003185052	-5.74126e-05	-0.1935	0.0006237675	-0.0005422328	
-0.0006659643	0.0003185052	-0.2802053	0.05792572	0.0005792334	-0.0009318457	0.001174914	-0.1939964	
-5.74126e-05	-0.1935	0.0005792334	-0.0009318457	-0.2105037	0.3096305	-0.0003503207	0.001188756	
0.0006237675	-0.0005422328	0.001174914	-0.1939964	-0.0003503207	0.001188756	-0.2118043	0.3113098	

4.744e+10	-0.2789353	0.05685144	-0.0003569191	0.0006431047	-0.00086812	-0.1935381	0.000199296	-0.0007972577	
-0.0003569191	0.0006431047	-0.2802503	0.0594668	-6.342878e-05	-0.001085549	-0.0001358634	-0.19461	
-0.00086812	-0.1935381	-6.342878e-05	-0.001085549	-0.2100102	0.3127639	0.0003858536	0.001163171	
0.000199296	-0.0007972577	-0.0001358634	-0.19461	0.0003858536	0.001163171	-0.2101296	0.3148379	

4.746e+10	-0.2800091	0.05793613	7.884951e-05	0.0007292597	-0.002102735	-0.1939986	-0.0002891834	-0.0007677322	
7.884951e-05	0.0007292597	-0.2796526	0.06082075	-0.0006681362	-0.0008466146	-0.002082632	-0.1952889	
-0.002102735	-0.1939986	-0.0006681362	-0.0008466146	-0.2075533	0.3154895	0.0009683571	0.0007359825	
-0.0002891834	-0.0007677322	-0.002082632	-0.1952889	0.0009683571	0.0007359825	-0.2065663	0.317235	

4.748e+10	-0.2805541	0.0594801	0.000483466	0.0005520837	-0.003898618	-0.1945509	-0.0006766434	-0.0004706298	
0.000483466	0.0005520837	-0.2786672	0.06162596	-0.001026484	-0.0003142194	-0.004603817	-0.1956458	
-0.003898618	-0.1945509	-0.001026484	-0.0003142194	-0.2038512	0.3168006	0.001213501	6.423405e-05	
-0.0006766434	-0.0004706298	-0.004603817	-0.1956458	0.001213501	6.423405e-05	-0.2020215	0.3177217	

4.75e+10	-0.2803739	0.06108014	0.000716002	0.0001759332	-0.006210459	-0.1949111	-0.0008335649	-2.909702e-06	
0.000716002	0.0001759332	-0.2775842	0.06184398	-0.001024069	0.0003246572	-0.007428674	-0.1954189	
-0.006210459	-0.1949111	-0.001024069	0.0003246572	-0.1997855	0.3162738	0.001046364	-0.0006339003	
-0.0008335649	-2.909702e-06	-0.007428674	-0.1954189	0.001046364	-0.0006339003	-0.1977958	0.3160482	

4.752e+10	-0.2795232	0.06242962	0.0006930169	-0.0002697641	-0.008873892	-0.194818	-0.0006966184	0.0004816423	
0.0006930169	-0.0002697641	-0.2767868	0.06151422	-0.0006612369	0.0008549236	-0.01019113	-0.1945232	
-0.008873892	-0.194818	-0.0006612369	0.0008549236	-0.1963528	0.3141082	0.000510479	-0.001129062	
-0.0006966184	0.0004816423	-0.01019113	-0.1945232	0.000510479	-0.001129062	-0.1947947	0.3128291	

4.754e+10	-0.2782601	0.06316808	0.0004149531	-0.0006272825	-0.01160286	-0.1941536	-0.0002970064	0.0008094188	
0.0004149531	-0.0006272825	-0.276504	0.06089453	-5.357179e-05	0.001090285	-0.01250916	-0.1931253	
-0.01160286	-0.1941536	-5.357179e-05	0.001090285	-0.1944683	0.310852	-0.0002296688	-0.001237976	
-0.0002970064	0.0008094188	-0.01250916	-0.1931253	-0.0002296688	-0.001237976	-0.1939248	0.3089031	

4.756e+10	-0.2769836	0.06323423	-2.640305e-05	-0.0007606519	-0.01406955	-0.1929277	0.0002324838	0.0008450641	
-2.640305e-05	-0.0007606519	-0.2768271	0.06030745	0.0005912226	0.0009322291	-0.0141913	-0.191555	
-0.01406955	-0.1929277	0.0005912226	0.0009322291	-0.1943277	0.3075148	-0.0009155647	-0.0008922151	
0.0002324838	0.0008450641	-0.0141913	-0.191555	-0.0009155647	-0.0008922151	-0.1949684	0.3055681	

4.758e+10	-0.2761257	0.06263286	-0.0004695633	-0.0006090804	-0.01600436	-0.191392	0.0006907005	0.0005572255	
-0.0004695633	-0.0006090804	-0.2776133	0.06017429	0.00103211	0.0004205452	-0.01528444	-0.1902169	
-0.01600436	-0.191392	0.00103211	0.0004205452	-0.1957407	0.3050145	-0.001277719	-0.0001968881	
0.0006907005	0.0005572255	-0.01528444	-0.1902169	-0.001277719	-0.0001968881	-0.1973485	0.303774	

4.76e+10	-0.2758994	0.06177195	-0.0007426031	-0.0002218031	-0.01732159	-0.1898916	0.0008925795	4.875287e-05	
-0.0007426031	-0.0002218031	-0.2785492	0.06052986	0.001090753	-0.0002603771	-0.01606332	-0.18939	
-0.01732159	-0.1898916	0.001090753	-0.0002603771	-0.1980634	0.3040605	-0.001159595	0.0005867701	
0.0008925795	4.875287e-05	-0.01606332	-0.18939	-0.001159595	0.0005867701	-0.2001188	0.3039576	

4.762e+10	-0.2763442	0.06106167	-0.0007359206	0.0002545477	-0.01816822	-0.1887878	0.0007561507	-0.0004815171	
-0.0007359206	0.0002545477	-0.2792277	0.06154548	0.0007369111	-0.0008481975	-0.01687747	-0.1891084	
-0.01816822	-0.1887878	0.0007369111	-0.0008481975	-0.2001935	0.3049975	-0.0006037685	0.001150497	
0.0007561507	-0.0004815171	-0.01687747	-0.1891084	-0.0006037685	0.001150497	-0.2019626	0.3060599	

4.764e+10	-0.2772701	0.0608096	-0.0004520736	0.0006368353	-0.01886129	-0.1882676	0.0003389785	-0.0008308073	
-0.0004520736	0.0006368353	-0.2793772	0.06280669	0.0001087959	-0.001117215	-0.01800985	-0.189255	
-0.01886129	-0.1882676	0.0001087959	-0.001117215	-0.2012765	0.3073486	0.0001682247	0.001284027	
0.0003389785	-0.0008308073	-0.01800985	-0.189255	0.0001682247	0.001284027	-0.202108	0.3092066	

4.766e+10	-0.2783018	0.06123955	1.503982e-07	0.00078338	-0.01975542	-0.1882764	-0.0001994581	-0.0008772096	
1.503982e-07	0.00078338	-0.278893	0.06407997	-0.000553873	-0.0009738053	-0.01961792	-0.1895475	
-0.01975542	-0.1882764	-0.000553873	-0.0009738053	-0.2005947	0.3103096	0.0008683617	0.0009559917	
-0.0001994581	-0.0008772096	-0.01961792	-0.1895475	0.0008683617	0.0009559917	-0.2002441	0.3122717	

4.768e+10	-0.2790754	0.06227847	0.0004540579	0.000643382	-0.02109092	-0.1885943	-0.0006690118	-0.0006113201	
0.0004540579	0.000643382	-0.2779649	0.06494021	-0.001011587	-0.000481419	-0.02169676	-0.1897234	
-0.02109092	-0.1885943	-0.001011587	-0.000481419	-0.1981223	0.3127939	0.001259366	0.0002973766	
-0.0006690118	-0.0006113201	-0.02169676	-0.1897234	0.001259366	0.0002973766	-0.1966552	0.3142257	

4.77e+10	-0.2792969	0.06365978	0.0007483883	0.0002676229	-0.02295139	-0.1889411	-0.0009108143	-0.0001229851	
0.0007483883	0.0002676229	-0.2768777	0.06519605	-0.001110674	0.000182079	-0.02411158	-0.1895325	
-0.02295139	-0.1889411	-0.001110674	0.000182079	-0.1944741	0.3138993	0.001218976	-0.0004693131	
-0.0009108143	-0.0001229851	-0.02411158	-0.1895325	0.001218976	-0.0004693131	-0.1924363	0.3142736	

4.772e+10	-0.2788656	0.06499668	0.0007767667	-0.0002148034	-0.02526551	-0.189029	-0.000834577	0.0004283621	
0.0007767667	-0.0002148034	-0.2759838	0.06493473	-0.0008175592	0.0007908877	-0.02658645	-0.1888376	
-0.02526551	-0.189029	-0.0008175592	0.0007908877	-0.1904973	0.313313	0.0007527362	-0.001095033	
-0.000834577	0.0004283621	-0.02658645	-0.1888376	0.0007527362	-0.001095033	-0.1886386	0.3124631	

4.774e+10	-0.2778594	0.06604172	0.0005190793	-0.000635344	-0.027854	-0.1886953	-0.0004464023	0.0008517152	
0.0005190793	-0.000635344	-0.2755207	0.06436918	-0.0002219806	0.001134589	-0.02883534	-0.1877385	
-0.027854	-0.1886953	-0.0002219806	0.001134589	-0.1873076	0.311117	-5.482305e-06	-0.001359789	
-0.0004464023	0.0008517152	-0.02883534	-0.1877385	-5.482305e-06	-0.001359789	-0.186294	0.3093111	

4.776e+10	-0.2765869	0.06650475	5.438289e-05	-0.000835532	-0.0304485	-0.1878078	0.0001352026	0.0009779886	
5.438289e-05	-0.000835532	-0.2756159	0.06378297	0.0004815882	0.001076705	-0.03066034	-0.1864154	
-0.0304485	-0.1878078	0.0004815882	0.001076705	-0.1855097	0.308009	-0.0008080477	-0.001137874	
0.0001352026	0.0009779886	-0.03066034	-0.1864154	-0.0008080477	-0.001137874	-0.1856482	0.3059388	

4.778e+10	-0.2754183	0.06627462	-0.0004537878	-0.0007248041	-0.03275294	-0.1864551	0.0006998836	0.0007315167	
-0.0004537878	-0.0007248041	-0.276153	0.06350117	0.001039093	0.0006097783	-0.03206369	-0.185205	
-0.03275294	-0.1864551	0.001039093	0.0006097783	-0.1853436	0.3048367	-0.001352832	-0.0004674026	
0.0006998836	0.0007315167	-0.03206369	-0.185205	-0.001352832	-0.0004674026	-0.1867025	0.3032433	

4.78e+10	-0.2746484	0.06558247	-0.0008091879	-0.000326112	-0.03456163	-0.1848569	0.001018437	0.0001827319	
-0.0008091879	-0.000326112	-0.2768338	0.0637086	0.001223695	-0.000115141	-0.03322522	-0.1842889	
-0.03456163	-0.1848569	0.001223695	-0.000115141	-0.1866523	0.3024519	-0.001400271	0.0004227668	
0.001018437	0.0001827319	-0.03322522	-0.1842889	-0.001400271	0.0004227668	-0.1886884	0.3019645	

4.782e+10	-0.2744606	0.06472803	-0.0008612746	0.000217936	-0.03583129	-0.1833109	0.0009465143	-0.0004621163	
-0.0008612746	0.000217936	-0.2772842	0.06442404	0.000938415	-0.000826364	-0.03444279	-0.1836888	
-0.03583129	-0.1833109	0.000938415	-0.000826364	-0.1886661	0.3015774	-0.0008991948	0.001185075	
0.0009465143	-0.0004621163	-0.03444279	-0.1836888	-0.0008991948	0.001185075	-0.1905822	0.3024052	

4.784e+10	-0.2748643	0.06401351	-0.0005752872	0.0006958973	-0.03663331	-0.1821732	0.0004985457	-0.0009451762	
-0.0005752872	0.0006958973	-0.2772718	0.06544209	0.000275612	-0.001237684	-0.03579354	-0.1832877	
-0.03663331	-0.1821732	0.000275612	-0.001237684	-0.1906136	0.3023381	-3.146254e-05	0.001505771	
0.0004985457	-0.0009451762	-0.03579354	-0.1832877	-3.146254e-05	0.001505771	-0.1917176	0.3040892	

4.786e+10	-0.2756354	0.06378748	-5.322024e-05	0.000914673	-0.03739452	-0.1815284	-0.0001549568	-0.001071352	
-5.322024e-05	0.000914673	-0.2767907	0.0662983	-0.0005115212	-0.001175857	-0.03740955	-0.1828933	
-0.03739452	-0.1815284	-0.0005115212	-0.001175857	-0.1915109	0.3044675	0.000864481	0.00125108	
-0.0001549568	-0.001071352	-0.03740955	-0.1828933	0.000864481	0.00125108	-0.19131	0.3065169	

4.788e+10	-0.2764495	0.06412839	0.0005048402	0.0007801551	-0.03831697	-0.1813564	-0.0007642447	-0.0007875384	
0.0005048402	0.0007801551	-0.275998	0.06677095	-0.00111604	-0.00065766	-0.03913618	-0.1823986	
-0.03831697	-0.1813564	-0.00111604	-0.00065766	-0.1908048	0.3071378	0.001445999	0.0005180559	
-0.0007642447	-0.0007875384	-0.03913618	-0.1823986	0.001445999	0.0005180559	-0.1895132	0.3086525	

4.79e+10	-0.2769719	0.06501416	0.0008811302	0.0003354669	-0.03966114	-0.1814459	-0.001098488	-0.0001934955	
0.0008811302	0.0003354669	-0.2751312	0.06686629	-0.001303511	0.0001229885	-0.04087096	-0.1818025	
-0.03966114	-0.1814459	-0.001303511	0.0001229885	-0.1884606	0.3093548	0.001497137	-0.0004235624	
-0.001098488	-0.0001934955	-0.04087096	-0.1818025	0.001497137	-0.0004235624	-0.1865288	0.3098233	

4.792e+10	-0.2770235	0.06609851	0.0009230295	-0.0002553543	-0.04141299	-0.1815465	-0.001023083	0.0004978861	
0.0009230295	-0.0002553543	-0.2745053	0.06656198	-0.0009967823	0.0008750783	-0.04261571	-0.1811241	
-0.04141299	-0.1815465	-0.0009967823	0.0008750783	-0.1850655	0.3103271	0.0009893643	-0.001236122	
-0.001023083	0.0004978861	-0.04261571	-0.1811241	0.0009893643	-0.001236122	-0.1832459	0.3096052	

4.794e+10	-0.2765033	0.06714866	0.0006009693	-0.0007662518	-0.04359257	-0.1814366	-0.0005443972	0.001028621	
0.0006009693	-0.0007662518	-0.2742462	0.0661445	-0.0002973898	0.001314274	-0.04428087	-0.1804153	
-0.04359257	-0.1814366	-0.0002973898	0.001314274	-0.1814398	0.3097519	8.341567e-05	-0.001615948	
-0.0005443972	0.001028621	-0.04428087	-0.1804153	8.341567e-05	-0.001615948	-0.1804206	0.3081353	

4.796e+10	-0.2755509	0.0678858	2.618908e-05	-0.0009902137	-0.04599579	-0.1809765	0.0001770198	0.001178277	
2.618908e-05	-0.0009902137	-0.2742958	0.0658526	0.0005450669	0.001258972	-0.04595123	-0.1797495	
-0.04599579	-0.1809765	0.0005450669	0.001258972	-0.1784225	0.3077949	-0.0009046551	-0.001389328	
0.0001770198	0.001178277	-0.04595123	-0.1797495	-0.0009046551	-0.001389328	-0.1785536	0.3059255	

4.798e+10	-0.2743935	0.06810885	-0.0005818747	-0.0008221153	-0.04841915	-0.180074	0.000866386	0.000857091	
-0.0005818747	-0.0008221153	-0.2745133	0.06580347	0.001208856	0.0007017925	-0.04765956	-0.1791178	
-0.04841915	-0.180074	0.001208856	0.0007017925	-0.176651	0.3049843	-0.001591406	-0.0005950023	
0.000866386	0.000857091	-0.04765956	-0.1791178	-0.001591406	-0.0005950023	-0.177826	0.3035824	

4.8e+10	-0.2733162	0.06784145	-0.0009739468	-0.0003110134	-0.05067782	-0.1787343	0.0012316	0.0001657265	
-0.0009739468	-0.0003110134	-0.2746715	0.0660442	0.001413194	-0.0001633221	-0.04952102	-0.1784461	
-0.05067782	-0.1787343	0.001413194	-0.0001633221	-0.1762426	0.3020871	-0.00166685	0.000486158	
0.0012316	0.0001657265	-0.04952102	-0.1784461	-0.00166685	0.000486158	-0.177981	0.30167	

4.802e+10	-0.2725506	0.06714663	-0.0009758225	0.0003455569	-0.05253651	-0.1771332	0.001097379	-0.0006228154	
-0.0009758225	0.0003455569	-0.2746179	0.06643705	0.001045168	-0.0009956482	-0.05143327	-0.1776129	
-0.05253651	-0.1771332	0.001045168	-0.0009956482	-0.1771014	0.2998204	-0.001054912	0.001416304	
0.001097379	-0.0006228154	-0.05143327	-0.1776129	-0.001054912	0.001416304	-0.1787007	0.3004883	

4.804e+10	-0.2722919	0.06622659	-0.0005706543	0.0008747143	-0.05391573	-0.1754738	0.0004988467	-0.001172818	
-0.0005706543	0.0008747143	-0.2743208	0.06677076	0.0002318005	-0.001439456	-0.05335619	-0.1765015	
-0.05391573	-0.1754738	0.0002318005	-0.001439456	-0.1787116	0.2987236	1.754342e-05	0.001785314	
0.0004988467	-0.001172818	-0.05335619	-0.1765015	1.754342e-05	0.001785314	-0.1796367	0.3001511	

4.806e+10	-0.2725341	0.06547997	7.957166e-05	0.001045577	-0.05485143	-0.1740725	-0.0003172658	-0.001240161	
7.957166e-05	0.001045577	-0.2738505	0.06701078	-0.0006919088	-0.001290405	-0.05503818	-0.1751983	
-0.05485143	-0.1740725	-0.0006919088	-0.001290405	-0.1804566	0.2990284	0.001099659	0.001416192	
-0.0003172658	-0.001240161	-0.05503818	-0.1751983	0.001099659	0.001416192	-0.1803152	0.3006889	

4.808e+10	-0.2731571	0.06502482	0.0006990918	0.0007800813	-0.05556929	-0.1730781	-0.001003766	-0.0007932957	
0.0006990918	0.0007800813	-0.2733706	0.0669945	-0.001330466	-0.0006043662	-0.05634842	-0.1738354	
-0.05556929	-0.1730781	-0.001330466	-0.0006043662	-0.1814228	0.3006294	0.001728823	0.0004628162	
-0.001003766	-0.0007932957	-0.05634842	-0.1738354	0.001728823	0.0004628162	-0.1803812	0.3018731	

4.81e+10	-0.2738884	0.06514839	0.001022893	0.0001927784	-0.05633376	-0.1725573	-0.001273252	-2.511462e-05	
0.001022893	0.0001927784	-0.2730345	0.06681113	-0.001413798	0.0003219856	-0.05737523	-0.1726775	
-0.05633376	-0.1725573	-0.001413798	0.0003219856	-0.1810275	0.3029547	0.001648915	-0.0006661716	
-0.001273252	-2.511462e-05	-0.05737523	-0.1726775	0.001648915	-0.0006661716	-0.1795379	0.3033403	

4.812e+10	-0.2744682	0.06569135	0.0009205343	-0.0004616326	-0.05733596	-0.1724587	-0.001024524	0.0007408142	
0.0009205343	-0.0004616326	-0.2728965	0.06657547	-0.0009232807	0.001095267	-0.05820408	-0.1719566	
-0.05733596	-0.1724587	-0.0009232807	0.001095267	-0.1792148	0.305098	0.0009148105	-0.001506612	
-0.001024524	0.0007408142	-0.05820408	-0.1719566	0.0009148105	-0.001506612	-0.1778154	0.3045385	

4.814e+10	-0.2745811	0.06663111	0.0004496653	-0.0009106286	-0.05877916	-0.1725639	-0.000372998	0.001196823	
0.0004496653	-0.0009106286	-0.2728596	0.06651599	-8.284209e-05	0.001409768	-0.05918311	-0.1716855	
-0.05877916	-0.1725639	-8.284209e-05	0.001409768	-0.176219	0.3063306	-0.0001592733	-0.001739021	
-0.000372998	0.001196823	-0.05918311	-0.1716855	-0.0001592733	-0.001739021	-0.1754278	0.3050783	

4.816e+10	-0.2741409	0.06758918	-0.000183645	-0.0009831961	-0.06080897	-0.1725803	0.0004121805	0.001172671	
-0.000183645	-0.0009831961	-0.2728169	0.06660649	0.0007612319	0.001165414	-0.06062642	-0.1716797	
-0.06080897	-0.1725803	0.0007612319	0.001165414	-0.1726743	0.3061975	-0.001149375	-0.001295938	
0.0004121805	0.001172671	-0.06062642	-0.1716797	-0.001149375	-0.001295938	-0.1727088	0.3047651	

4.818e+10	-0.2731802	0.06826341	-0.0007233091	-0.0006690885	-0.0632617	-0.1722185	0.00102136	0.0006907332	
-0.0007233091	-0.0006690885	-0.2726344	0.06676364	0.001287253	0.0004816171	-0.06262659	-0.1715991	
-0.0632617	-0.1722185	0.001287253	0.0004816171	-0.1694107	0.3046212	-0.001682748	-0.0003632083	
0.00102136	0.0006907332	-0.06262659	-0.1715991	-0.001682748	-0.0003632083	-0.1703149	0.3034975	

4.82e+10	-0.2719283	0.06840457	-0.000966244	-0.0001059916	-0.06589087	-0.1712941	0.001223082	-5.230378e-05	
-0.000966244	-0.0001059916	-0.2722866	0.06688001	0.001309273	-0.0003690805	-0.06501653	-0.1711572	
-0.06589087	-0.1712941	0.001309273	-0.0003690805	-0.1671691	0.3019538	-0.001564842	0.0006993322	
0.001223082	-5.230378e-05	-0.06501653	-0.1711572	-0.001564842	0.0006993322	-0.168536	0.3015597	

4.822e+10	-0.2707128	0.06794814	-0.0008302289	0.0004830108	-0.06833072	-0.1697212	0.0009455278	-0.0007647721	
-0.0008302289	0.0004830108	-0.2717855	0.06690783	0.0008301064	-0.001063482	-0.06753001	-0.1701274	
-0.06833072	-0.1697212	0.0008301064	-0.001063482	-0.1663886	0.2988185	-0.0008430849	0.001485305	
0.0009455278	-0.0007647721	-0.06753001	-0.1701274	-0.0008430849	0.001485305	-0.1676166	0.299301	

4.824e+10	-0.2698921	0.06694154	-0.0003759324	0.000872486	-0.07026484	-0.1677268	0.0003013136	-0.001169302	
-0.0003759324	0.000872486	-0.2713155	0.06664148	3.679755e-05	-0.001338294	-0.0698347	-0.1685127	
-0.07026484	-0.1677268	3.679755e-05	-0.001338294	-0.1669492	0.2961661	0.00020401	0.001688319	
0.0003013136	-0.001169302	-0.0698347	-0.1685127	0.00020401	0.001688319	-0.1676913	0.2972401	

4.826e+10	-0.2696517	0.06578386	0.0002149185	0.0009142999	-0.07148395	-0.1656654	-0.0004513081	-0.001108661	
0.0002149185	0.0009142999	-0.2709656	0.06630486	-0.0007598073	-0.001087944	-0.07162125	-0.1665427	
-0.07148395	-0.1656654	-0.0007598073	-0.001087944	-0.1687028	0.2945717	0.001161266	0.001226589	
-0.0004513081	-0.001108661	-0.07162125	-0.1665427	0.001161266	0.001226589	-0.1686103	0.2958453	

4.828e+10	-0.2700497	0.06473352	0.0007079131	0.0005983177	-0.07213596	-0.1639414	-0.001011488	-0.0006142694	
0.0007079131	0.0005983177	-0.2708362	0.06582246	-0.001243726	-0.0004161451	-0.07277822	-0.1645434	
-0.07213596	-0.1639414	-0.001243726	-0.0004161451	-0.1706616	0.2946436	0.001646144	0.0002906151	
-0.001011488	-0.0006142694	-0.07277822	-0.1645434	0.001646144	0.0002906151	-0.1698978	0.2955808	

4.83e+10	-0.2708605	0.06417848	0.0009105208	5.852967e-05	-0.07247238	-0.1628521	-0.001162134	0.0001053535	
0.0009105208	5.852967e-05	-0.2709164	0.06549153	-0.001228289	0.0003990954	-0.07333037	-0.1629392	
-0.07247238	-0.1628521	-0.001228289	0.0003990954	-0.1719793	0.296203	0.00147635	-0.0007327704	
-0.001162134	0.0001053535	-0.07333037	-0.1629392	0.00147635	-0.0007327704	-0.1708881	0.2964646	

4.832e+10	-0.2717393	0.06428652	0.0007542296	-0.0004840395	-0.07296255	-0.1624248	-0.0008614047	0.0007602323	
0.0007542296	-0.0004840395	-0.2710868	0.06538249	-0.000739391	0.001030109	-0.07365746	-0.162001	
-0.07296255	-0.1624248	-0.000739391	0.001030109	-0.1718682	0.2986466	0.0007472607	-0.001439275	
-0.0008614047	0.0007602323	-0.07365746	-0.162001	0.0007472607	-0.001439275	-0.1708521	0.2982038	

4.834e+10	-0.2723286	0.06487783	0.0003176696	-0.0008201472	-0.07387683	-0.1624835	-0.0002466799	0.001104488	
0.0003176696	-0.0008201472	-0.2712229	0.06541532	8.269512e-06	0.001243573	-0.07418177	-0.1617286	
-0.07387683	-0.1624835	8.269512e-06	0.001243573	-0.1699829	0.3010565	-0.0002341845	-0.001579029	
-0.0002466799	0.001104488	-0.07418177	-0.1617286	-0.0002341845	-0.001579029	-0.1694421	0.3000987	

4.836e+10	-0.2723276	0.06578236	-0.000219904	-0.0008358465	-0.07549172	-0.162633	0.0004399039	0.001027165	
-0.000219904	-0.0008358465	-0.2711365	0.06564492	0.0007206406	0.0009863994	-0.07528477	-0.1618911	
-0.07549172	-0.162633	0.0007206406	0.0009863994	-0.1668585	0.3023883	-0.001095503	-0.001132843	
0.0004399039	0.001027165	-0.07528477	-0.1618911	-0.001095503	-0.001132843	-0.1669069	0.301356	

4.838e+10	-0.271669	0.06662775	-0.0006571789	-0.0005423146	-0.07770275	-0.162542	0.0009479739	0.0005735934	
-0.0006571789	-0.0005423146	-0.2707743	0.06590754	0.001144154	0.0003777505	-0.07712673	-0.1620634	
-0.07770275	-0.162542	0.001144154	0.0003777505	-0.1631279	0.3022029	-0.001537517	-0.0002844068	
0.0009479739	0.0005735934	-0.07712673	-0.1620634	-0.001537517	-0.0002844068	-0.1637993	0.3014298	

4.84e+10	-0.2705464	0.06700358	-0.0008417263	-5.708797e-05	-0.08026082	-0.1618972	0.001100451	-8.592518e-05	
-0.0008417263	-5.708797e-05	-0.2701939	0.06596611	0.00114091	-0.0003541092	-0.07952761	-0.1618353	
-0.08026082	-0.1618972	0.00114091	-0.0003541092	-0.1597612	0.3004671	-0.001413314	0.0006599401	
0.001100451	-8.592518e-05	-0.07952761	-0.1618353	-0.001413314	0.0006599401	-0.1607223	0.300249	

4.842e+10	-0.2692515	0.06678265	-0.0007130416	0.0004424492	-0.08284078	-0.1605698	0.0008431845	-0.0007129499	
-0.0007130416	0.0004424492	-0.2695174	0.06570127	0.0007186445	-0.0009488752	-0.08220919	-0.1609278	
-0.08284078	-0.1605698	0.0007186445	-0.0009488752	-0.1575094	0.2976091	-0.0007650026	0.001363219	
0.0008431845	-0.0007129499	-0.08220919	-0.1609278	-0.0007650026	0.001363219	-0.1583759	0.2979871	

4.844e+10	-0.2681867	0.06592259	-0.0003177983	0.0007748724	-0.08506386	-0.1586434	0.0002643635	-0.001075485	
-0.0003177983	0.0007748724	-0.2689464	0.06521406	2.675101e-05	-0.001189799	-0.08476236	-0.1592807	
-0.08506386	-0.1586434	2.675101e-05	-0.001189799	-0.1568025	0.2944066	0.0001822785	0.001559886	
0.0002643635	-0.001075485	-0.08476236	-0.1592807	0.0001822785	0.001559886	-0.1572256	0.295201	

4.846e+10	-0.2676326	0.06464826	0.0001997546	0.00081301	-0.0866809	-0.1564409	-0.0004237391	-0.001027559	
0.0001997546	0.00081301	-0.2686284	0.0644424	-0.0006808008	-0.0009773584	-0.08678628	-0.1571482	
-0.0866809	-0.1564409	-0.0006808008	-0.0009773584	-0.1575357	0.2917212	0.001074659	0.001155095	
-0.0004237391	-0.001027559	-0.08678628	-0.1571482	0.001074659	0.001155095	-0.15746	0.2925573	

4.848e+10	-0.2677105	0.06333341	0.0006419275	0.0005361068	-0.08757905	-0.1543551	-0.0009531223	-0.0005760951	
0.0006419275	0.0005361068	-0.2686211	0.06369738	-0.001127264	-0.0003822159	-0.08810386	-0.1548391	
-0.08757905	-0.1543551	-0.001127264	-0.0003822159	-0.1592458	0.2902667	0.001554055	0.0002890091	
-0.0009531223	-0.0005760951	-0.08810386	-0.1548391	0.001554055	0.0002890091	-0.1587065	0.2908467	

4.85e+10	-0.2683121	0.06238881	0.0008322304	4.897134e-05	-0.0880334	-0.1527245	-0.001107707	0.0001052943	
0.0008322304	4.897134e-05	-0.2688915	0.06311744	-0.001127925	0.0003636578	-0.08873369	-0.1528276	
-0.0880334	-0.1527245	-0.001127925	0.0003636578	-0.1611379	0.2903419	0.001415482	-0.0006950003	
-0.001107707	0.0001052943	-0.08873369	-0.1528276	0.001415482	-0.0006950003	-0.1603579	0.2904879	

4.852e+10	-0.2691849	0.06189885	0.0006932373	-0.0004537627	-0.08837824	-0.1517272	-0.0008230904	0.0007418947	
0.0006932373	-0.0004537627	-0.2692508	0.06285481	-0.000681542	0.000956899	-0.08899167	-0.1513798	
-0.08837824	-0.1517272	-0.000681542	0.000956899	-0.1622904	0.291818	0.00071456	-0.001393133	
-0.0008230904	0.0007418947	-0.08899167	-0.1513798	0.00071456	-0.001393133	-0.1616379	0.2914825	

4.854e+10	-0.2699353	0.0620714	0.0002840746	-0.0007706391	-0.08894099	-0.1512936	-0.0002183742	0.001079126	
0.0002840746	-0.0007706391	-0.269515	0.06286688	2.305648e-05	0.001159671	-0.08920186	-0.150652	
-0.08894099	-0.1512936	2.305648e-05	0.001159671	-0.1619862	0.2940437	-0.0002534926	-0.001527915	
-0.0002183742	0.001079126	-0.08920186	-0.150652	-0.0002534926	-0.001527915	-0.1616533	0.2934393	

4.856e+10	-0.270316	0.06255647	-0.0002275066	-0.0007805397	-0.09002583	-0.1511397	0.0004620082	0.0009905541	
-0.0002275066	-0.0007805397	-0.2695612	0.06297688	0.0006968968	0.0009055927	-0.08985083	-0.1504872	
-0.09002583	-0.1511397	0.0006968968	0.0009055927	-0.1601706	0.2961057	-0.001097174	-0.00106621	
0.0004620082	0.0009905541	-0.08985083	-0.1504872	-0.001097174	-0.00106621	-0.1602327	0.2954807	

4.858e+10	-0.2701234	0.06320767	-0.0006398621	-0.000487974	-0.09162573	-0.1509945	0.0009531657	0.0005202441	
-0.0006398621	-0.000487974	-0.2692822	0.06315957	0.001081133	0.0003128914	-0.0911202	-0.1505759	
-0.09162573	-0.1509945	0.001081133	0.0003128914	-0.1571764	0.2972309	-0.001497468	-0.000209123	
0.0009531657	0.0005202441	-0.0911202	-0.1505759	-0.001497468	-0.000209123	-0.1576012	0.2967794	

4.86e+10	-0.2694357	0.06364225	-0.0007969104	-1.321449e-05	-0.0936974	-0.1505312	0.001070379	-0.0001453297	
-0.0007969104	-1.321449e-05	-0.2687831	0.0631415	0.001042994	-0.0003801135	-0.09305577	-0.1504938	
-0.0936974	-0.1505312	0.001042994	-0.0003801135	-0.1538436	0.2969212	-0.001319576	0.0007075503	
0.001070379	-0.0001453297	-0.09305577	-0.1504938	-0.001319576	0.0007075503	-0.154379	0.2968123	

4.862e+10	-0.2684779	0.06356444	-0.0006434891	0.0004584882	-0.09599621	-0.1495869	0.0007717953	-0.0007495951	
-0.0006434891	0.0004584882	-0.2681833	0.06285244	0.000610471	-0.0009115665	-0.0954681	-0.1499126	
-0.09599621	-0.1495869	0.000610471	-0.0009115665	-0.1507358	0.2953259	-0.0006423133	0.001340011	
0.0007717953	-0.0007495951	-0.0954681	-0.1499126	-0.0006423133	0.001340011	-0.1512364	0.2955417	

4.864e+10	-0.2674931	0.06303554	-0.0002424739	0.0007453725	-0.09824716	-0.1481542	0.0001728653	-0.001058173	
-0.0002424739	0.0007453725	-0.2676194	0.06227698	-4.612933e-05	-0.00108522	-0.09797771	-0.1487039	
-0.09824716	-0.1481542	-4.612933e-05	-0.00108522	-0.148599	0.292778	0.0002741975	0.001451427	
0.0001728653	-0.001058173	-0.09797771	-0.1487039	0.0002741975	0.001451427	-0.14889	0.2932246	

4.866e+10	-0.2667828	0.06203323	0.0002479626	0.0007366357	-0.1001743	-0.1463009	-0.0004918976	-0.0009477518	
0.0002479626	0.0007366357	-0.2672552	0.06145513	-0.0006744766	-0.0008379808	-0.1002944	-0.1468608	
-0.1001743	-0.1463009	-0.0006744766	-0.0008379808	-0.1477746	0.2898988	0.001077105	0.0009977249	
-0.0004918976	-0.0009477518	-0.1002944	-0.1468608	0.001077105	0.0009977249	-0.1477717	0.2903941	

4.868e+10	-0.2664846	0.06078843	0.0006331664	0.0004375103	-0.1016921	-0.1442111	-0.0009562424	-0.0004606196	
0.0006331664	0.0004375103	-0.2671446	0.0605467	-0.001029593	-0.0002679969	-0.1020711	-0.1446413	
-0.1016921	-0.1442111	-0.001029593	-0.0002679969	-0.148131	0.2873676	0.00144825	0.0001557448	
-0.0009562424	-0.0004606196	-0.1020711	-0.1446413	0.00144825	0.0001557448	-0.1478392	0.2877876	

4.87e+10	-0.2666595	0.05960546	0.0007596587	-2.946597e-05	-0.1026585	-0.1421825	-0.001031724	0.0002050354	
0.0007596587	-2.946597e-05	-0.2673231	0.0597538	-0.0009720449	0.0003949042	-0.1032333	-0.1422973	
-0.1026585	-0.1421825	-0.0009720449	0.0003949042	-0.1493944	0.2857652	0.001238691	-0.0007341365	
-0.001031724	0.0002050354	-0.1032333	-0.1422973	0.001238691	-0.0007341365	-0.1489768	0.285938	

4.872e+10	-0.267199	0.05864973	0.0005806506	-0.0004722523	-0.1032488	-0.1404534	-0.0006919217	0.0007746883	
0.0005806506	-0.0004722523	-0.2676837	0.05909902	-0.0005324922	0.0008820262	-0.1037973	-0.1402228	
-0.1032488	-0.1404534	-0.0005324922	0.0008820262	-0.1509902	0.2854118	0.0005423384	-0.001308998	
-0.0006919217	0.0007746883	-0.1037973	-0.1402228	0.0005423384	-0.001308998	-0.1505606	0.2853221	

4.874e+10	-0.2679278	0.05812387	0.0001775638	-0.0007124873	-0.1036513	-0.1391603	-8.596406e-05	0.001018177	
0.0001775638	-0.0007124873	-0.2680888	0.05874696	9.80036e-05	0.00100222	-0.103962	-0.138666	
-0.1036513	-0.1391603	9.80036e-05	0.00100222	-0.1520668	0.2863578	-0.0003413276	-0.001344964	
-8.596406e-05	0.001018177	-0.103962	-0.138666	-0.0003413276	-0.001344964	-0.1517747	0.2860486	

4.876e+10	-0.2685946	0.05797407	-0.0002781439	-0.0006620016	-0.1041439	-0.1383543	0.0005309791	0.0008497442	
-0.0002781439	-0.0006620016	-0.2684135	0.05857269	0.0006574836	0.0007270391	-0.1040898	-0.1377813	
-0.1041439	-0.1383543	0.0006574836	0.0007270391	-0.1521593	0.288108	-0.001048744	-0.0008559442	
0.0005309791	0.0008497442	-0.1040898	-0.1377813	-0.001048744	-0.0008559442	-0.1520636	0.2876836	

4.878e+10	-0.2689751	0.05815447	-0.0006031133	-0.0003566802	-0.1049395	-0.1379026	0.0009133919	0.000357219	
-0.0006031133	-0.0003566802	-0.2685117	0.05854501	0.0009325181	0.0001917577	-0.1045583	-0.1374513	
-0.1049395	-0.1379026	0.0009325181	0.0001917577	-0.150849	0.2900254	-0.001316729	-6.831553e-05	
0.0009133919	0.000357219	-0.1045583	-0.1374513	-0.001316729	-6.831553e-05	-0.1510139	0.2896013	

4.88e+10	-0.2689531	0.0584446	-0.0006797934	6.953041e-05	-0.1062354	-0.1375517	0.0009266744	-0.0002498277	
-0.0006797934	6.953041e-05	-0.2683647	0.05856203	0.000842603	-0.0003812468	-0.1056667	-0.1374093	
-0.1062354	-0.1375517	0.000842603	-0.0003812468	-0.1483587	0.2912959	-0.001078104	0.0006995938	
0.0009266744	-0.0002498277	-0.1056667	-0.1374093	-0.001078104	0.0006995938	-0.1487197	0.2909995	

4.882e+10	-0.2685405	0.0586004	-0.0004946602	0.0004472735	-0.1079539	-0.1370865	0.0005867605	-0.0007348907	
-0.0004946602	0.0004472735	-0.268004	0.05838533	0.0004493662	-0.0007807463	-0.1074241	-0.137299	
-0.1079539	-0.1370865	0.0004493662	-0.0007807463	-0.1451116	0.2914309	-0.0004559935	0.001171375	
0.0005867605	-0.0007348907	-0.1074241	-0.137299	-0.0004559935	0.001171375	-0.1455899	0.2913711	

4.884e+10	-0.2678766	0.05840654	-0.000132349	0.0006385281	-0.1100227	-0.1362553	3.838354e-05	-0.000922732	
-0.000132349	0.0006385281	-0.267508	0.0579839	-8.734925e-05	-0.0008768299	-0.1097068	-0.1367407	
-0.1100227	-0.1362553	-8.734925e-05	-0.0008768299	-0.1419792	0.2902001	0.000307132	0.0011962	
3.838354e-05	-0.000922732	-0.1097068	-0.1367407	0.000307132	0.0011962	-0.1424085	0.2904353	

4.886e+10	-0.2671174	0.05785043	0.0002647338	0.0005816584	-0.1122152	-0.1349241	-0.000506805	-0.0007547743	
0.0002647338	0.0005816584	-0.2670226	0.05729343	-0.0005718317	-0.0006497579	-0.1122302	-0.1354704	
-0.1122152	-0.1349241	-0.0005718317	-0.0006497579	-0.139545	0.287893	0.0009356087	0.000780627	
-0.000506805	-0.0007547743	-0.1122302	-0.1354704	0.0009356087	0.000780627	-0.1397631	0.2883429	

4.888e+10	-0.2665252	0.05684618	0.0005473992	0.0003065081	-0.1142257	-0.1330813	-0.0008438172	-0.0003027951	
0.0005473992	0.0003065081	-0.2667023	0.05634885	-0.0008315294	-0.0001889188	-0.1145373	-0.1335386	
-0.1142257	-0.1330813	-0.0008315294	-0.0001889188	-0.1382662	0.2850012	0.001202867	8.11301e-05	
-0.0008438172	-0.0003027951	-0.1145373	-0.1335386	0.001202867	8.11301e-05	-0.1382005	0.2854998	

4.89e+10	-0.2662324	0.05561884	0.0006112253	-7.702931e-05	-0.1158223	-0.1308673	-0.0008462386	0.0002558169	
0.0006112253	-7.702931e-05	-0.2666523	0.05526958	-0.0007721161	0.0003322063	-0.1163464	-0.1310441	
-0.1158223	-0.1308673	-0.0007721161	0.0003322063	-0.1383045	0.28219	0.001007248	-0.0006389233	
-0.0008462386	0.0002558169	-0.1163464	-0.1310441	0.001007248	-0.0006389233	-0.1379269	0.2825417	

4.892e+10	-0.2663932	0.05429515	0.0004360094	-0.0004178843	-0.1168395	-0.1285851	-0.0005165723	0.0007001498	
0.0004360094	-0.0004178843	-0.2669501	0.05416606	-0.0004181448	0.0007132809	-0.1173891	-0.1284224	
-0.1168395	-0.1285851	-0.0004181448	0.0007132809	-0.1394242	0.2801313	0.0004236349	-0.001098332	
-0.0005165723	0.0007001498	-0.1173891	-0.1284224	0.0004236349	-0.001098332	-0.1389085	0.2801977	

4.894e+10	-0.2669599	0.05310163	9.72101e-05	-0.0005820278	-0.1173633	-0.1264749	7.310094e-06	0.0008530087	
9.72101e-05	-0.0005820278	-0.2675004	0.05330621	8.628176e-05	0.0008052306	-0.1177123	-0.1260544	
-0.1173633	-0.1264749	8.628176e-05	0.0008052306	-0.1410398	0.2793326	-0.0003110656	-0.001113362	
7.310094e-06	0.0008530087	-0.1177123	-0.1260544	-0.0003110656	-0.001113362	-0.1405981	0.2790626	

4.896e+10	-0.2678006	0.05224921	-0.0002630226	-0.0005100337	-0.117502	-0.1249083	0.0005056808	0.0006606142	
-0.0002630226	-0.0005100337	-0.2681689	0.05270987	0.0005342472	0.000580237	-0.117539	-0.1243374	
-0.117502	-0.1249083	0.0005342472	0.000580237	-0.1424962	0.279906	-0.0008926617	-0.0006894298	
0.0005056808	0.0006606142	-0.117539	-0.1243374	-0.0008926617	-0.0006894298	-0.1422557	0.2794337	

4.898e+10	-0.2686564	0.05188097	-0.0004989752	-0.0002437978	-0.1176634	-0.1238614	0.0007767275	0.0002186647	
-0.0004989752	-0.0002437978	-0.2687336	0.05247995	0.0007500096	0.0001454339	-0.1173492	-0.1234012	
-0.1176634	-0.1238614	0.0007500096	0.0001454339	-0.1429681	0.2815619	-0.001093695	-2.119097e-05	
0.0007767275	0.0002186647	-0.1173492	-0.1234012	-0.001093695	-2.119097e-05	-0.1430724	0.2810378	

4.9e+10	-0.269321	0.05181431	-0.0005263399	9.698132e-05	-0.1180966	-0.1233653	0.0007278861	-0.0002778945	
-0.0005263399	9.698132e-05	-0.2690654	0.05239849	0.000667113	-0.0003132088	-0.1175437	-0.1231745	
-0.1180966	-0.1233653	0.000667113	-0.0003132088	-0.1420652	0.2835741	-0.0008635994	0.0006080744	
0.0007278861	-0.0002778945	-0.1175437	-0.1231745	-0.0008635994	0.0006080744	-0.1424431	0.2832166	

4.902e+10	-0.2695794	0.0520592	-0.0003532661	0.0003740912	-0.1190886	-0.1231046	0.0004064867	-0.0006307922	
-0.0003532661	0.0003740912	-0.2690556	0.05239658	0.000344773	-0.0006205559	-0.1185356	-0.1232628	
-0.1190886	-0.1231046	0.000344773	-0.0006205559	-0.1397525	0.2851443	-0.0003306857	0.0009631105	
0.0004064867	-0.0006307922	-0.1185356	-0.1232628	-0.0003306857	0.0009631105	-0.1402708	0.285068	

4.904e+10	-0.2693852	0.05216803	-6.392598e-05	0.0004902598	-0.1206755	-0.1228003	-4.032459e-05	-0.000721484	
-6.392598e-05	0.0004902598	-0.2687394	0.05218897	-7.666851e-05	-0.0006801928	-0.1203166	-0.1232499	
-0.1206755	-0.1228003	-7.666851e-05	-0.0006801928	-0.1365233	0.2855853	0.0002810647	0.000941972	
-4.032459e-05	-0.000721484	-0.1203166	-0.1232499	0.0002810647	0.000941972	-0.1370038	0.2858209	

4.906e+10	-0.2688248	0.05201084	0.0002250609	0.0004192622	-0.1227557	-0.122072	-0.0004379796	-0.0005426003	
0.0002250609	0.0004192622	-0.2682711	0.05166088	-0.0004403494	-0.0004944111	-0.1227402	-0.1226117	
-0.1227557	-0.122072	-0.0004403494	-0.0004944111	-0.1331302	0.2845904	0.0007498279	0.0005872009	
-0.0004379796	-0.0005426003	-0.1227402	-0.1226117	0.0007498279	0.0005872009	-0.1334088	0.2850563	

4.908e+10	-0.2681188	0.05134042	0.0004117379	0.0002034042	-0.1250279	-0.1206959	-0.0006504497	-0.0001808748	
0.0004117379	0.0002034042	-0.2678042	0.05074738	-0.0006258738	-0.0001464517	-0.1253387	-0.1211227	
-0.1250279	-0.1206959	-0.0006258738	-0.0001464517	-0.1303752	0.2822871	0.000925468	4.598994e-05	
-0.0006504497	-0.0001808748	-0.1253387	-0.1211227	0.000925468	4.598994e-05	-0.1302636	0.2828231	

4.91e+10	-0.267567	0.05017048	0.0004389106	-7.064783e-05	-0.1271483	-0.1186507	-0.0006166309	0.0002240697	
0.0004389106	-7.064783e-05	-0.2676003	0.04950017	-0.0005805801	0.0002346875	-0.1276372	-0.1188155	
-0.1271483	-0.1186507	-0.0005805801	0.0002346875	-0.1287699	0.2791952	0.0007640064	-0.0004853023	
-0.0006166309	0.0002240697	-0.1276372	-0.1188155	0.0007640064	-0.0004853023	-0.1284021	0.2795516	

4.912e+10	-0.2673721	0.04863796	0.0003069203	-0.0003029606	-0.1287026	-0.1161286	-0.0003614611	0.0005271108	
0.0003069203	-0.0003029606	-0.2677869	0.04808597	-0.0003301267	0.0005144227	-0.1291869	-0.1159942	
-0.1287026	-0.1161286	-0.0003301267	0.0005144227	-0.1286433	0.2760022	0.0003340735	-0.0008204636	
-0.0003614611	0.0005271108	-0.1291869	-0.1159942	0.0003340735	-0.0008204636	-0.1280983	0.2760903	

4.914e+10	-0.2677233	0.04701415	7.128097e-05	-0.0004124153	-0.1295611	-0.1134621	1.405631e-05	0.0006227614	
7.128097e-05	-0.0004124153	-0.2684012	0.04679524	2.856456e-05	0.0005957656	-0.1298699	-0.1130933	
-0.1295611	-0.1134621	2.856456e-05	0.0005957656	-0.1298167	0.2735165	-0.000201566	-0.0008428223	
1.405631e-05	0.0006227614	-0.1298699	-0.1130933	-0.000201566	-0.0008428223	-0.1293548	0.2732817	

4.916e+10	-0.2685831	0.04562033	-0.0001767166	-0.0003650678	-0.1297029	-0.1111296	0.0003658237	0.0004832497	
-0.0001767166	-0.0003650678	-0.2693145	0.04579292	0.0003596582	0.0004558641	-0.1297569	-0.1106663	
-0.1297029	-0.1111296	0.0003596582	0.0004558641	-0.1317354	0.2723865	-0.0006396138	-0.0005526845	
0.0003658237	0.0004832497	-0.1297569	-0.1106663	-0.0006396138	-0.0005526845	-0.1315221	0.2719453	

4.918e+10	-0.2697859	0.0446144	-0.0003444071	-0.0001872314	-0.1294634	-0.1094051	0.0005620758	0.0001719189	
-0.0003444071	-0.0001872314	-0.2703093	0.04518577	0.0005409156	0.0001572529	-0.1292302	-0.1090148	
-0.1294634	-0.1094051	0.0005409156	0.0001572529	-0.1335451	0.2728405	-0.0008177341	-7.326855e-05	
0.0005620758	0.0001719189	-0.1292302	-0.1090148	-0.0008177341	-7.326855e-05	-0.1336114	0.2723737	

4.92e+10	-0.2709842	0.04422968	-0.0003749484	4.583861e-05	-0.1292281	-0.1084737	0.0005377144	-0.000182498	
-0.0003749484	4.583861e-05	-0.2711141	0.04497988	0.000514385	-0.0001786951	-0.1288232	-0.1082872	
-0.1292281	-0.1084737	0.000514385	-0.0001786951	-0.13435	0.2746064	-0.000684565	0.0004021139	
0.0005377144	-0.000182498	-0.1288232	-0.1082872	-0.000684565	0.0004021139	-0.1346628	0.2742749	

4.922e+10	-0.2718935	0.04418324	-0.000268762	0.0002442975	-0.1294621	-0.108132	0.0003194897	-0.0004440116	
-0.000268762	0.0002442975	-0.2715618	0.04490808	0.0003067836	-0.0004263219	-0.129032	-0.108194	
-0.1294621	-0.108132	0.0003067836	-0.0004263219	-0.1336142	0.2768874	-0.000315596	0.0006976687	
0.0003194897	-0.0004440116	-0.129032	-0.108194	-0.000315596	0.0006976687	-0.1340925	0.2767671	

4.924e+10	-0.2722869	0.04444232	-7.692001e-05	0.0003404896	-0.1303922	-0.1080616	5.026871e-06	-0.000526526	
-7.692001e-05	0.0003404896	-0.2716289	0.04487046	8.50612e-06	-0.0005065686	-0.1300893	-0.1083479	
-0.1303922	-0.1080616	8.50612e-06	-0.0005065686	-0.1312714	0.2787133	0.0001349216	0.0007262739	
5.026871e-06	-0.000526526	-0.1300893	-0.1083479	0.0001349216	0.0007262739	-0.1316469	0.278879	

4.926e+10	-0.2721607	0.04447049	0.0001257954	0.0003115738	-0.1320594	-0.1077818	-0.0002863499	-0.0004193015	
0.0001257954	0.0003115738	-0.2714051	0.04444428	-0.0002705586	-0.0004084596	-0.1319958	-0.1081913	
-0.1320594	-0.1077818	-0.0002705586	-0.0004084596	-0.127869	0.2792901	0.0005059587	0.0005050764	
-0.0002863499	-0.0004193015	-0.1319958	-0.1081913	0.0005059587	0.0005050764	-0.1280885	0.2796405	

4.928e+10	-0.2716566	0.04414475	0.0002705959	0.0001793209	-0.1342366	-0.1069297	-0.0004588316	-0.0001765885	
0.0002705959	0.0001793209	-0.271039	0.04370457	-0.000440559	-0.0001799682	-0.1344059	-0.1072948	
-0.1342366	-0.1069297	-0.000440559	-0.0001799682	-0.1241837	0.2782673	0.0006836412	0.0001284834	
-0.0004588316	-0.0001765885	-0.1344059	-0.1072948	0.0006836412	0.0001284834	-0.1241926	0.2786794	

4.93e+10	-0.2710852	0.04322673	0.0003150275	-4.523571e-06	-0.1365594	-0.1052788	-0.0004654055	0.0001113904	
0.0003150275	-4.523571e-06	-0.2708047	0.04250374	-0.0004545664	9.637233e-05	-0.1368972	-0.1054631	
-0.1365594	-0.1052788	-0.0004545664	9.637233e-05	-0.1212231	0.2757616	0.0006238415	-0.0002728739	
-0.0004654055	0.0001113904	-0.1368972	-0.1054631	0.0006238415	-0.0002728739	-0.1209744	0.276111	

4.932e+10	-0.2707668	0.04177176	0.0002510971	-0.0001769458	-0.1385502	-0.1028965	-0.0003132736	0.0003479255	
0.0002510971	-0.0001769458	-0.2709121	0.04101997	-0.000315456	0.0003290695	-0.1389108	-0.1028636	
-0.1385502	-0.1028965	-0.000315456	0.0003290695	-0.1195473	0.2723364	0.0003551781	-0.0005680507	
-0.0003132736	0.0003479255	-0.1389108	-0.1028636	0.0003551781	-0.0005680507	-0.1191669	0.272503	

4.934e+10	-0.2709419	0.04000922	0.0001047248	-0.0002816718	-0.1398208	-0.1001019	-5.851251e-05	0.0004559408	
0.0001047248	-0.0002816718	-0.2714773	0.0394591	-7.341642e-05	0.0004425618	-0.140086	-0.0998855	
-0.1398208	-0.1001019	-7.341642e-05	0.0004425618	-0.1194743	0.2688485	-2.954708e-05	-0.0006605995	
-5.851251e-05	0.0004559408	-0.140086	-0.0998855	-2.954708e-05	-0.0006605995	-0.1191076	0.2687815	

4.936e+10	-0.2717229	0.03823652	-7.212621e-05	-0.000285459	-0.1402721	-0.09727397	0.0002092028	0.0004005255	
-7.212621e-05	-0.000285459	-0.2724759	0.03805154	0.0001876423	0.0004000825	-0.1403676	-0.09697784	
-0.1402721	-0.09727397	0.0001876423	0.0004000825	-0.1209022	0.2661569	-0.0003961692	-0.0005189182	
0.0002092028	0.0004005255	-0.1403676	-0.09697784	-0.0003961692	-0.0005189182	-0.1206182	0.2659014	

4.938e+10	-0.2730317	0.03672125	-0.0002172359	-0.0001897074	-0.1400167	-0.09494107	0.000394052	0.0002038559	
-0.0002172359	-0.0001897074	-0.2737591	0.03701368	0.0003758566	0.0002186923	-0.1399421	-0.09464109	
-0.1400167	-0.09494107	0.0003758566	0.0002186923	-0.1231107	0.2649772	-0.0006129128	-0.0001950162	
0.000394052	0.0002038559	-0.1399421	-0.09464109	-0.0006129128	-0.0001950162	-0.1230095	0.2646383	

4.94e+10	-0.2745985	0.03585908	-0.0002803011	-3.153989e-05	-0.1394641	-0.09336309	0.0004302264	-5.875621e-05	
-0.0002803011	-3.153989e-05	-0.2750284	0.03650122	0.0004255803	-3.354098e-05	-0.139264	-0.09315872	
-0.1394641	-0.09336309	0.0004255803	-3.354098e-05	-0.1251729	0.2655247	-0.0006023484	0.0001884183	
0.0004302264	-5.875621e-05	-0.139264	-0.09315872	-0.0006023484	0.0001884183	-0.1252935	0.2651802	

4.942e+10	-0.2760554	0.03551044	-0.0002427022	0.0001301358	-0.1390759	-0.09261188	0.0003106492	-0.0002878356	
-0.0002427022	0.0001301358	-0.2760543	0.03629423	0.0003244774	-0.0002636862	-0.1388111	-0.09254047	
-0.1390759	-0.09261188	0.0003244774	-0.0002636862	-0.1260812	0.2674513	-0.0003776101	0.000487866	
0.0003106492	-0.0002878356	-0.1388111	-0.09254047	-0.0003776101	0.000487866	-0.1263227	0.2672378	

4.944e+10	-0.277113	0.03559731	-0.0001235124	0.0002385852	-0.139304	-0.09241324	8.836287e-05	-0.0004024332	
-0.0001235124	0.0002385852	-0.276688	0.03623018	0.00011646	-0.0003921316	-0.1390494	-0.09248921	
-0.139304	-0.09241324	0.00011646	-0.0003921316	-0.1253137	0.2698419	-3.313692e-05	0.0006007868	
8.836287e-05	-0.0004024332	-0.1390494	-0.09248921	-3.313692e-05	0.0006007868	-0.1256342	0.2697921	

4.946e+10	-0.2776027	0.03570947	3.121017e-05	0.0002605373	-0.14031	-0.09234184	-0.000150817	-0.0003714175	
3.121017e-05	0.0002605373	-0.2769341	0.03596746	-0.0001208293	-0.0003820586	-0.1401481	-0.0925511	
-0.14031	-0.09234184	-0.0001208293	-0.0003820586	-0.1227487	0.2717317	0.0003031963	0.0005030311	
-0.000150817	-0.0003714175	-0.1401481	-0.0925511	0.0003031963	0.0005030311	-0.1230889	0.2718522	

4.948e+10	-0.2775953	0.03561002	0.0001680415	0.0001946092	-0.1420553	-0.09189969	-0.0003253255	-0.0002172934	
0.0001680415	0.0001946092	-0.2768973	0.03547136	-0.0003078567	-0.0002459348	-0.1420359	-0.09216871	
-0.1420553	-0.09189969	-0.0003078567	-0.0002459348	-0.1191973	0.2721841	0.0005216424	0.0002435563	
-0.0003253255	-0.0002172934	-0.1420359	-0.09216871	0.0005216424	0.0002435563	-0.1194288	0.2724539	

4.95e+10	-0.2773159	0.03503315	0.0002441874	6.710454e-05	-0.144223	-0.09075178	-0.0003839481	1.206213e-06	
0.0002441874	6.710454e-05	-0.2768089	0.03457649	-0.0003882765	-3.362839e-05	-0.1443383	-0.09100027	
-0.144223	-0.09075178	-0.0003882765	-3.362839e-05	-0.1155038	0.270926	0.000561495	-8.558386e-05	
-0.0003839481	1.206213e-06	-0.1443383	-0.09100027	0.000561495	-8.558386e-05	-0.1154951	0.2712993	

4.952e+10	-0.277097	0.03387596	0.0002380979	-7.934312e-05	-0.1463283	-0.08882915	-0.0003144715	0.0002124333	
0.0002380979	-7.934312e-05	-0.2769348	0.03321858	-0.0003404405	0.000186463	-0.1465591	-0.08896926	
-0.1463283	-0.08882915	-0.0003404405	0.000186463	-0.1125685	0.2681829	0.0004173762	-0.0003803428	
-0.0003144715	0.0002124333	-0.1465591	-0.08896926	0.0004173762	-0.0003803428	-0.1123725	0.2685036	

4.954e+10	-0.2772491	0.03217689	0.0001528988	-0.0001980707	-0.1479792	-0.08622972	-0.0001415425	0.0003501541	
0.0001528988	-0.0001980707	-0.2774605	0.03156357	-0.0001796061	0.0003451673	-0.1482446	-0.08621115	
-0.1479792	-0.08622972	-0.0001796061	0.0003451673	-0.1110552	0.2645776	0.000135207	-0.0005488515	
-0.0001415425	0.0003501541	-0.1482446	-0.08621115	0.000135207	-0.0005488515	-0.1107435	0.2647408	

4.956e+10	-0.2779587	0.03034324	1.543846e-05	-0.000250124	-0.1488536	-0.08332792	7.979572e-05	0.0003692258	
1.543846e-05	-0.000250124	-0.2784733	0.02995686	4.484117e-05	0.0003893363	-0.1490659	-0.0831736	
-0.1488536	-0.08332792	4.484117e-05	0.0003893363	-0.1112228	0.2610106	-0.0001969606	-0.0005333118	
7.979572e-05	0.0003692258	-0.1490659	-0.0831736	-0.0001969606	-0.0005333118	-0.1108829	0.2609705	

4.958e+10	-0.279263	0.02866199	-0.000129159	-0.0002158945	-0.1489456	-0.0805682	0.00027571	0.0002596252	
-0.000129159	-0.0002158945	-0.2799147	0.02858078	0.0002593782	0.0002987805	-0.1490316	-0.08034592	
-0.1489456	-0.0805682	0.0002593782	0.0002987805	-0.1128373	0.2583973	-0.0004676977	-0.0003307809	
0.00027571	0.0002596252	-0.1490316	-0.08034592	-0.0004676977	-0.0003307809	-0.1125701	0.2581539	

4.96e+10	-0.2810065	0.02730537	-0.000229984	-0.0001044222	-0.1484174	-0.07841721	0.0003753003	5.582853e-05	
-0.000229984	-0.0001044222	-0.2815896	0.02761011	0.0003868926	9.892697e-05	-0.1483892	-0.07817057	
-0.1484174	-0.07841721	0.0003868926	9.892697e-05	-0.1151655	0.2573352	-0.0005764853	-5.332783e-06	
0.0003753003	5.582853e-05	-0.1483892	-0.07817057	-0.0005764853	-5.332783e-06	-0.1150592	0.2569774	

4.962e+10	-0.2828777	0.02654057	-0.0002489351	4.600259e-05	-0.1477489	-0.07704434	0.0003391545	-0.0001694067	
-0.0002489351	4.600259e-05	-0.2831945	0.02711888	0.0003765626	-0.0001412706	-0.1475986	-0.07683497	
-0.1477489	-0.07704434	0.0003765626	-0.0001412706	-0.1171965	0.2579991	-0.0004772944	0.000326688	
0.0003391545	-0.0001694067	-0.1475986	-0.07683497	-0.0004772944	0.000326688	-0.1173014	0.2576328	

4.964e+10	-0.2845329	0.02634524	-0.0001776171	0.0001803663	-0.1473862	-0.07639777	0.0001797009	-0.000331962	
-0.0001776171	0.0001803663	-0.2844923	0.02699264	0.0002283427	-0.0003330619	-0.147151	-0.0763084	
-0.1473862	-0.07639777	0.0002283427	-0.0003330619	-0.1179207	0.2599547	-0.0002042636	0.0005408533	
0.0001797009	-0.000331962	-0.147151	-0.0763084	-0.0002042636	0.0005408533	-0.1181926	0.2597103	

4.966e+10	-0.2857378	0.02645679	-4.221071e-05	0.0002490888	-0.1476792	-0.07615766	-4.232173e-05	-0.0003724935	
-4.221071e-05	0.0002490888	-0.2853726	0.0269254	-3.678135e-06	-0.0004044833	-0.1474217	-0.07622042	
-0.1476792	-0.07615766	-3.678135e-06	-0.0004044833	-0.1169816	0.2622521	0.0001401926	0.0005593283	
-4.232173e-05	-0.0003724935	-0.1474217	-0.07622042	0.0001401926	0.0005593283	-0.1173967	0.262198	

4.968e+10	-0.2864295	0.02647042	0.0001074297	0.000228031	-0.1487316	-0.07588068	-0.0002450768	-0.0002802449	
0.0001074297	0.000228031	-0.2858686	0.0266702	-0.0002342628	-0.0003302498	-0.1485367	-0.07610823	
-0.1487316	-0.07588068	-0.0002342628	-0.0003302498	-0.1144699	0.2638923	0.0004316197	0.0003804972	
-0.0002450768	-0.0002802449	-0.1485367	-0.07610823	0.0004316197	0.0003804972	-0.1148198	0.2640674	

4.97e+10	-0.2867359	0.02619593	0.000218034	0.000126014	-0.1503694	-0.07523373	-0.0003591017	-9.180091e-05	
0.000218034	0.000126014	-0.2861628	0.02609322	-0.0003815382	-0.0001384162	-0.1503314	-0.07551023	
-0.1503694	-0.07523373	-0.0003815382	-0.0001384162	-0.1109271	0.2641433	0.0005716884	7.075265e-05	
-0.0003591017	-9.180091e-05	-0.1503314	-0.07551023	0.0005716884	7.075265e-05	-0.1111243	0.2644835	

4.972e+10	-0.2869031	0.02545401	0.0002515043	-2.051966e-05	-0.1522978	-0.07385334	-0.0003483588	0.0001270677	
0.0002515043	-2.051966e-05	-0.2864857	0.02506425	-0.0003948555	0.0001034411	-0.1524273	-0.07411336	
-0.1522978	-0.07385334	-0.0003948555	0.0001034411	-0.1074184	0.2626964	0.0005156705	-0.0002650072	
-0.0003483588	0.0001270677	-0.1524273	-0.07411336	0.0005156705	-0.0002650072	-0.1074132	0.2630766	

4.974e+10	-0.2872306	0.0242204	0.0001960903	-0.000161099	-0.1540793	-0.07178287	-0.0002169194	0.0003035492	
0.0001960903	-0.000161099	-0.2870773	0.02365249	-0.0002685352	0.0003127526	-0.1543421	-0.07190534	
-0.1540793	-0.07178287	-0.0002685352	0.0003127526	-0.1046852	0.2598881	0.0002798809	-0.0005159917	
-0.0002169194	0.0003035492	-0.1543421	-0.07190534	0.0002798809	-0.0005159917	-0.1044384	0.2601922	

4.976e+10	-0.2879575	0.02256161	6.929855e-05	-0.0002465044	-0.1553484	-0.06916557	-6.247675e-06	0.0003771683	
6.929855e-05	-0.0002465044	-0.2881061	0.0220674	-4.245332e-05	0.0004157079	-0.1556372	-0.06913146	
-0.1553484	-0.06916557	-4.245332e-05	0.0004157079	-0.1034518	0.2563097	-6.311676e-05	-0.0005938352	
-6.247675e-06	0.0003771683	-0.1556372	-0.06913146	-6.311676e-05	-0.0005938352	-0.1030789	0.2564168	

4.978e+10	-0.289227	0.02088427	-8.607843e-05	-0.0002441609	-0.1559125	-0.06634157	0.0002136537	0.0003173996	
-8.607843e-05	-0.0002441609	-0.2896449	0.02050796	0.0002074572	0.0003704567	-0.156127	-0.06614339	
-0.1559125	-0.06634157	0.0002074572	0.0003704567	-0.1037647	0.2528787	-0.000399214	-0.0004603779	
0.0002136537	0.0003173996	-0.156127	-0.06614339	-0.000399214	-0.0004603779	-0.103361	0.2527739	

4.98e+10	-0.291012	0.01943103	-0.0002138532	-0.0001509127	-0.1557573	-0.06375375	0.0003628588	0.0001381561	
-0.0002138532	-0.0001509127	-0.2915676	0.0193659	0.0003897963	0.0001850472	-0.155811	-0.06349014	
-0.1557573	-0.06375375	0.0003897963	0.0001850472	-0.1053677	0.250415	-0.0006037958	-0.0001490889	
0.0003628588	0.0001381561	-0.155811	-0.06349014	-0.0006037958	-0.0001490889	-0.1051369	0.2501107	

4.982e+10	-0.2931005	0.01844032	-0.0002641548	1.659755e-06	-0.1551265	-0.06176369	0.0003805146	-9.930812e-05	
-0.0002641548	1.659755e-06	-0.2936297	0.01862797	0.0004307722	-7.745382e-05	-0.1550345	-0.06150774	
-0.1551265	-0.06176369	0.0004307722	-7.745382e-05	-0.1075766	0.2494305	-0.0005889518	0.0002330636	
0.0003805146	-9.930812e-05	-0.1550345	-0.06150774	-0.0005889518	0.0002330636	-0.1075289	0.2490808	

4.984e+10	-0.2952277	0.01790175	-0.0002149923	0.0001564305	-0.1544647	-0.06047185	0.0002538892	-0.0003051386	
-0.0002149923	0.0001564305	-0.2955586	0.01838782	0.0003079568	-0.0003178534	-0.1542343	-0.06031958	
-0.1544647	-0.06047185	0.0003079568	-0.0003178534	-0.1094102	0.2500731	-0.0003483824	0.0005401694	
0.0002538892	-0.0003051386	-0.1542343	-0.06031958	-0.0003483824	0.0005401694	-0.1095957	0.2497844	

4.986e+10	-0.2971237	0.01786057	-8.376663e-05	0.0002534353	-0.1541307	-0.05981429	2.905013e-05	-0.0003982519	
-8.376663e-05	0.0002534353	-0.2971387	0.01843407	6.501546e-05	-0.0004412964	-0.1538559	-0.05983127	
-0.1541307	-0.05981429	6.501546e-05	-0.0004412964	-0.1100759	0.2518339	3.12217e-05	0.0006492898	
2.905013e-05	-0.0003982519	-0.1538559	-0.05983127	3.12217e-05	0.0006492898	-0.1103915	0.2517176	

4.988e+10	-0.298601	0.01794938	7.953738e-05	0.0002554751	-0.1543977	-0.05948424	-0.0002081816	-0.000342668	
7.953738e-05	0.0002554751	-0.2982997	0.01845383	-0.0002052483	-0.0003990273	-0.1541652	-0.05964203	
-0.1543977	-0.05948424	-0.0002052483	-0.0003990273	-0.1091357	0.2538981	0.0004057787	0.0005159121	
-0.0002081816	-0.000342668	-0.1541652	-0.05964203	0.0004057787	0.0005159121	-0.1094324	0.2539773	

4.99e+10	-0.2996391	0.01801178	0.00021358	0.0001625159	-0.1553484	-0.05904234	-0.0003695762	-0.000160543	
0.00021358	0.0001625159	-0.299121	0.01829503	-0.0004010387	-0.0002074349	-0.1552554	-0.05928629	
-0.1553484	-0.05904234	-0.0004010387	-0.0002074349	-0.1066949	0.2553128	0.0006358266	0.0001893427	
-0.0003695762	-0.000160543	-0.1552554	-0.05928629	0.0006358266	0.0001893427	-0.1068921	0.2555338	

4.992e+10	-0.3003866	0.01774103	0.0002697152	9.140124e-06	-0.1568011	-0.05818922	-0.0003981484	8.172812e-05	
0.0002697152	9.140124e-06	-0.2998306	0.01765568	-0.000451163	6.29251e-05	-0.1568798	-0.0584366	
-0.1568011	-0.05818922	-0.000451163	6.29251e-05	-0.1034345	0.2553675	0.0006383624	-0.0002136302	
-0.0003981484	8.172812e-05	-0.1568798	-0.0584366	0.0006383624	-0.0002136302	-0.1034466	0.2556539	

4.994e+10	-0.301068	0.01704316	0.0002276346	-0.0001498866	-0.15845	-0.05670211	-0.0002832915	0.0002997819	
0.0002276346	-0.0001498866	-0.3006364	0.01670291	-0.0003367189	0.000315979	-0.1586556	-0.05686942	
-0.15845	-0.05670211	-0.0003367189	0.000315979	-0.1001141	0.2538946	0.0004080966	-0.0005527407	
-0.0002832915	0.0002997819	-0.1586556	-0.05686942	0.0004080966	-0.0005527407	-0.1000398	0.2540959	

4.996e+10	-0.30197	0.01593128	0.0001001154	-0.0002578458	-0.1598983	-0.05458957	-6.025085e-05	0.0004170806	
0.0001001154	-0.0002578458	-0.301785	0.01544619	-9.375202e-05	0.0004612179	-0.160154	-0.05458326	
-0.1598983	-0.05458957	-9.375202e-05	0.0004612179	-0.09764806	0.2511016	1.51154e-05	-0.0007057181	
-6.025085e-05	0.0004170806	-0.160154	-0.05458326	1.51154e-05	-0.0007057181	-0.09747997	0.2511883	

4.998e+10	-0.3032578	0.01461957	-7.030376e-05	-0.0002730236	-0.1608489	-0.05201479	0.0001982404	0.0003850892	
-7.030376e-05	-0.0002730236	-0.3034027	0.01409583	0.0001967635	0.0004400969	-0.1610361	-0.05185808	
-0.1608489	-0.05201479	0.0001967635	0.0004400969	-0.09655944	0.2476622	-0.0004109082	-0.0006025948	
0.0001982404	0.0003850892	-0.1610361	-0.05185808	-0.0004109082	-0.0006025948	-0.09635026	0.2476363	

5e+10	-0.305067	0.01337286	-0.0002219861	-0.0001835776	-0.1610752	-0.04939937	0.0003983128	0.0002017872	
-0.0002219861	-0.0001835776	-0.305495	0.01296428	0.0004289204	0.000247328	-0.1611344	-0.0491715	
-0.1610752	-0.04939937	0.0004289204	0.000247328	-0.09707278	0.2444297	-0.0007112279	-0.0002553569	
0.0003983128	0.0002017872	-0.1611344	-0.0491715	-0.0007112279	-0.0002553569	-0.09693213	0.2443241	

